H2 reference molecule; 15 A cubic box; i
   1.00000000000000     
    15.0000000000000000    0.0000000000000000    0.0000000000000000
     0.0000000000000000   15.0000000000000000    0.0000000000000000
     0.0000000000000000    0.0000000000000000   15.0000000000000000
   H 
     2
Direct
  0.4749868856224705  0.4999999999995173  0.4999999986045218
  0.5250131143775295  0.5000000000004826  0.5000000013954782
 
  0.00000000E+00  0.00000000E+00  0.00000000E+00
  0.00000000E+00  0.00000000E+00  0.00000000E+00
