   2   2   0   0
  0.1687500E+04  0.1500000E-08  0.1500000E-08  0.1500000E-08  0.2000000E-15
  1.000000000000000E-004
  CAR 
 H2 molecular reference relaxation       
      1.20609977    -10.87350906  301    -10.06757266      1.00000000
    -10.874  0.0000E+00  0.0000E+00
    -10.833  0.0000E+00  0.0000E+00
    -10.793  0.0000E+00  0.0000E+00
    -10.753  0.0000E+00  0.0000E+00
    -10.712  0.0000E+00  0.0000E+00
    -10.672  0.0000E+00  0.0000E+00
    -10.632  0.0000E+00  0.0000E+00
    -10.592  0.1017E-13  0.4097E-15
    -10.551  0.3403E-10  0.1371E-11
    -10.511  0.3201E-07  0.1290E-08
    -10.471  0.8542E-05  0.3452E-06
    -10.431  0.6565E-03  0.2678E-04
    -10.390  0.1483E-01  0.6238E-03
    -10.350  0.1009E+00  0.4686E-02
    -10.310  0.2117E+00  0.1321E-01
    -10.270  0.1387E+00  0.1880E-01
    -10.229  0.2814E-01  0.1993E-01
    -10.189  0.1733E-02  0.2000E-01
    -10.149  0.3156E-04  0.2000E-01
    -10.108  0.1663E-06  0.2000E-01
    -10.068  0.2496E-09  0.2000E-01
    -10.028  0.1055E-12  0.2000E-01
     -9.988  0.0000E+00  0.2000E-01
     -9.947  0.0000E+00  0.2000E-01
     -9.907  0.0000E+00  0.2000E-01
     -9.867  0.0000E+00  0.2000E-01
     -9.827  0.0000E+00  0.2000E-01
     -9.786  0.0000E+00  0.2000E-01
     -9.746  0.0000E+00  0.2000E-01
     -9.706  0.0000E+00  0.2000E-01
     -9.666  0.0000E+00  0.2000E-01
     -9.625  0.0000E+00  0.2000E-01
     -9.585  0.0000E+00  0.2000E-01
     -9.545  0.0000E+00  0.2000E-01
     -9.504  0.0000E+00  0.2000E-01
     -9.464  0.0000E+00  0.2000E-01
     -9.424  0.0000E+00  0.2000E-01
     -9.384  0.0000E+00  0.2000E-01
     -9.343  0.0000E+00  0.2000E-01
     -9.303  0.0000E+00  0.2000E-01
     -9.263  0.0000E+00  0.2000E-01
     -9.223  0.0000E+00  0.2000E-01
     -9.182  0.0000E+00  0.2000E-01
     -9.142  0.0000E+00  0.2000E-01
     -9.102  0.0000E+00  0.2000E-01
     -9.062  0.0000E+00  0.2000E-01
     -9.021  0.0000E+00  0.2000E-01
     -8.981  0.0000E+00  0.2000E-01
     -8.941  0.0000E+00  0.2000E-01
     -8.901  0.0000E+00  0.2000E-01
     -8.860  0.0000E+00  0.2000E-01
     -8.820  0.0000E+00  0.2000E-01
     -8.780  0.0000E+00  0.2000E-01
     -8.739  0.0000E+00  0.2000E-01
     -8.699  0.0000E+00  0.2000E-01
     -8.659  0.0000E+00  0.2000E-01
     -8.619  0.0000E+00  0.2000E-01
     -8.578  0.0000E+00  0.2000E-01
     -8.538  0.0000E+00  0.2000E-01
     -8.498  0.0000E+00  0.2000E-01
     -8.458  0.0000E+00  0.2000E-01
     -8.417  0.0000E+00  0.2000E-01
     -8.377  0.0000E+00  0.2000E-01
     -8.337  0.0000E+00  0.2000E-01
     -8.297  0.0000E+00  0.2000E-01
     -8.256  0.0000E+00  0.2000E-01
     -8.216  0.0000E+00  0.2000E-01
     -8.176  0.0000E+00  0.2000E-01
     -8.135  0.0000E+00  0.2000E-01
     -8.095  0.0000E+00  0.2000E-01
     -8.055  0.0000E+00  0.2000E-01
     -8.015  0.0000E+00  0.2000E-01
     -7.974  0.0000E+00  0.2000E-01
     -7.934  0.0000E+00  0.2000E-01
     -7.894  0.0000E+00  0.2000E-01
     -7.854  0.0000E+00  0.2000E-01
     -7.813  0.0000E+00  0.2000E-01
     -7.773  0.0000E+00  0.2000E-01
     -7.733  0.0000E+00  0.2000E-01
     -7.693  0.0000E+00  0.2000E-01
     -7.652  0.0000E+00  0.2000E-01
     -7.612  0.0000E+00  0.2000E-01
     -7.572  0.0000E+00  0.2000E-01
     -7.531  0.0000E+00  0.2000E-01
     -7.491  0.0000E+00  0.2000E-01
     -7.451  0.0000E+00  0.2000E-01
     -7.411  0.0000E+00  0.2000E-01
     -7.370  0.0000E+00  0.2000E-01
     -7.330  0.0000E+00  0.2000E-01
     -7.290  0.0000E+00  0.2000E-01
     -7.250  0.0000E+00  0.2000E-01
     -7.209  0.0000E+00  0.2000E-01
     -7.169  0.0000E+00  0.2000E-01
     -7.129  0.0000E+00  0.2000E-01
     -7.089  0.0000E+00  0.2000E-01
     -7.048  0.0000E+00  0.2000E-01
     -7.008  0.0000E+00  0.2000E-01
     -6.968  0.0000E+00  0.2000E-01
     -6.928  0.0000E+00  0.2000E-01
     -6.887  0.0000E+00  0.2000E-01
     -6.847  0.0000E+00  0.2000E-01
     -6.807  0.0000E+00  0.2000E-01
     -6.766  0.0000E+00  0.2000E-01
     -6.726  0.0000E+00  0.2000E-01
     -6.686  0.0000E+00  0.2000E-01
     -6.646  0.0000E+00  0.2000E-01
     -6.605  0.0000E+00  0.2000E-01
     -6.565  0.0000E+00  0.2000E-01
     -6.525  0.0000E+00  0.2000E-01
     -6.485  0.0000E+00  0.2000E-01
     -6.444  0.0000E+00  0.2000E-01
     -6.404  0.0000E+00  0.2000E-01
     -6.364  0.0000E+00  0.2000E-01
     -6.324  0.0000E+00  0.2000E-01
     -6.283  0.0000E+00  0.2000E-01
     -6.243  0.0000E+00  0.2000E-01
     -6.203  0.0000E+00  0.2000E-01
     -6.162  0.0000E+00  0.2000E-01
     -6.122  0.0000E+00  0.2000E-01
     -6.082  0.0000E+00  0.2000E-01
     -6.042  0.0000E+00  0.2000E-01
     -6.001  0.0000E+00  0.2000E-01
     -5.961  0.0000E+00  0.2000E-01
     -5.921  0.0000E+00  0.2000E-01
     -5.881  0.0000E+00  0.2000E-01
     -5.840  0.0000E+00  0.2000E-01
     -5.800  0.0000E+00  0.2000E-01
     -5.760  0.0000E+00  0.2000E-01
     -5.720  0.0000E+00  0.2000E-01
     -5.679  0.0000E+00  0.2000E-01
     -5.639  0.0000E+00  0.2000E-01
     -5.599  0.0000E+00  0.2000E-01
     -5.558  0.0000E+00  0.2000E-01
     -5.518  0.0000E+00  0.2000E-01
     -5.478  0.0000E+00  0.2000E-01
     -5.438  0.0000E+00  0.2000E-01
     -5.397  0.0000E+00  0.2000E-01
     -5.357  0.0000E+00  0.2000E-01
     -5.317  0.0000E+00  0.2000E-01
     -5.277  0.0000E+00  0.2000E-01
     -5.236  0.0000E+00  0.2000E-01
     -5.196  0.0000E+00  0.2000E-01
     -5.156  0.0000E+00  0.2000E-01
     -5.116  0.0000E+00  0.2000E-01
     -5.075  0.0000E+00  0.2000E-01
     -5.035  0.0000E+00  0.2000E-01
     -4.995  0.0000E+00  0.2000E-01
     -4.955  0.0000E+00  0.2000E-01
     -4.914  0.0000E+00  0.2000E-01
     -4.874  0.0000E+00  0.2000E-01
     -4.834  0.0000E+00  0.2000E-01
     -4.793  0.0000E+00  0.2000E-01
     -4.753  0.0000E+00  0.2000E-01
     -4.713  0.0000E+00  0.2000E-01
     -4.673  0.0000E+00  0.2000E-01
     -4.632  0.0000E+00  0.2000E-01
     -4.592  0.0000E+00  0.2000E-01
     -4.552  0.0000E+00  0.2000E-01
     -4.512  0.0000E+00  0.2000E-01
     -4.471  0.0000E+00  0.2000E-01
     -4.431  0.0000E+00  0.2000E-01
     -4.391  0.0000E+00  0.2000E-01
     -4.351  0.0000E+00  0.2000E-01
     -4.310  0.0000E+00  0.2000E-01
     -4.270  0.0000E+00  0.2000E-01
     -4.230  0.0000E+00  0.2000E-01
     -4.189  0.0000E+00  0.2000E-01
     -4.149  0.0000E+00  0.2000E-01
     -4.109  0.0000E+00  0.2000E-01
     -4.069  0.0000E+00  0.2000E-01
     -4.028  0.0000E+00  0.2000E-01
     -3.988  0.0000E+00  0.2000E-01
     -3.948  0.0000E+00  0.2000E-01
     -3.908  0.0000E+00  0.2000E-01
     -3.867  0.0000E+00  0.2000E-01
     -3.827  0.0000E+00  0.2000E-01
     -3.787  0.0000E+00  0.2000E-01
     -3.747  0.0000E+00  0.2000E-01
     -3.706  0.0000E+00  0.2000E-01
     -3.666  0.0000E+00  0.2000E-01
     -3.626  0.0000E+00  0.2000E-01
     -3.585  0.0000E+00  0.2000E-01
     -3.545  0.0000E+00  0.2000E-01
     -3.505  0.0000E+00  0.2000E-01
     -3.465  0.0000E+00  0.2000E-01
     -3.424  0.0000E+00  0.2000E-01
     -3.384  0.0000E+00  0.2000E-01
     -3.344  0.0000E+00  0.2000E-01
     -3.304  0.0000E+00  0.2000E-01
     -3.263  0.0000E+00  0.2000E-01
     -3.223  0.0000E+00  0.2000E-01
     -3.183  0.0000E+00  0.2000E-01
     -3.143  0.0000E+00  0.2000E-01
     -3.102  0.0000E+00  0.2000E-01
     -3.062  0.0000E+00  0.2000E-01
     -3.022  0.0000E+00  0.2000E-01
     -2.981  0.0000E+00  0.2000E-01
     -2.941  0.0000E+00  0.2000E-01
     -2.901  0.0000E+00  0.2000E-01
     -2.861  0.0000E+00  0.2000E-01
     -2.820  0.0000E+00  0.2000E-01
     -2.780  0.0000E+00  0.2000E-01
     -2.740  0.0000E+00  0.2000E-01
     -2.700  0.0000E+00  0.2000E-01
     -2.659  0.0000E+00  0.2000E-01
     -2.619  0.0000E+00  0.2000E-01
     -2.579  0.0000E+00  0.2000E-01
     -2.539  0.0000E+00  0.2000E-01
     -2.498  0.0000E+00  0.2000E-01
     -2.458  0.0000E+00  0.2000E-01
     -2.418  0.0000E+00  0.2000E-01
     -2.378  0.0000E+00  0.2000E-01
     -2.337  0.0000E+00  0.2000E-01
     -2.297  0.0000E+00  0.2000E-01
     -2.257  0.0000E+00  0.2000E-01
     -2.216  0.0000E+00  0.2000E-01
     -2.176  0.0000E+00  0.2000E-01
     -2.136  0.0000E+00  0.2000E-01
     -2.096  0.0000E+00  0.2000E-01
     -2.055  0.0000E+00  0.2000E-01
     -2.015  0.0000E+00  0.2000E-01
     -1.975  0.0000E+00  0.2000E-01
     -1.935  0.0000E+00  0.2000E-01
     -1.894  0.0000E+00  0.2000E-01
     -1.854  0.0000E+00  0.2000E-01
     -1.814  0.0000E+00  0.2000E-01
     -1.774  0.0000E+00  0.2000E-01
     -1.733  0.0000E+00  0.2000E-01
     -1.693  0.0000E+00  0.2000E-01
     -1.653  0.0000E+00  0.2000E-01
     -1.612  0.0000E+00  0.2000E-01
     -1.572  0.0000E+00  0.2000E-01
     -1.532  0.0000E+00  0.2000E-01
     -1.492  0.0000E+00  0.2000E-01
     -1.451  0.0000E+00  0.2000E-01
     -1.411  0.0000E+00  0.2000E-01
     -1.371  0.0000E+00  0.2000E-01
     -1.331  0.0000E+00  0.2000E-01
     -1.290  0.0000E+00  0.2000E-01
     -1.250  0.0000E+00  0.2000E-01
     -1.210  0.0000E+00  0.2000E-01
     -1.170  0.0000E+00  0.2000E-01
     -1.129  0.0000E+00  0.2000E-01
     -1.089  0.0000E+00  0.2000E-01
     -1.049  0.0000E+00  0.2000E-01
     -1.008  0.0000E+00  0.2000E-01
     -0.968  0.0000E+00  0.2000E-01
     -0.928  0.0000E+00  0.2000E-01
     -0.888  0.0000E+00  0.2000E-01
     -0.847  0.0000E+00  0.2000E-01
     -0.807  0.0000E+00  0.2000E-01
     -0.767  0.0000E+00  0.2000E-01
     -0.727  0.0000E+00  0.2000E-01
     -0.686  0.0000E+00  0.2000E-01
     -0.646  0.0000E+00  0.2000E-01
     -0.606  0.0000E+00  0.2000E-01
     -0.566  0.0000E+00  0.2000E-01
     -0.525  0.0000E+00  0.2000E-01
     -0.485  0.0000E+00  0.2000E-01
     -0.445  0.0000E+00  0.2000E-01
     -0.405  0.0000E+00  0.2000E-01
     -0.364  0.2757E-16  0.2000E-01
     -0.324  0.1199E-12  0.2000E-01
     -0.284  0.2782E-09  0.2000E-01
     -0.243  0.1819E-06  0.2000E-01
     -0.203  0.3386E-04  0.2000E-01
     -0.163  0.1824E-02  0.2007E-01
     -0.123  0.2909E-01  0.2125E-01
     -0.082  0.1408E+00  0.2692E-01
     -0.042  0.2112E+00  0.3542E-01
     -0.002  0.9886E-01  0.3940E-01
      0.038  0.1427E-01  0.3997E-01
      0.079  0.6598E-03  0.4000E-01
      0.119  0.2054E-02  0.4008E-01
      0.159  0.3131E-01  0.4134E-01
      0.199  0.1455E+00  0.4721E-01
      0.240  0.2098E+00  0.5565E-01
      0.280  0.9435E-01  0.5945E-01
      0.320  0.1307E-01  0.5998E-01
      0.361  0.5515E-03  0.6000E-01
      0.401  0.6702E-03  0.6003E-01
      0.441  0.2059E-01  0.6086E-01
      0.481  0.1945E+00  0.6869E-01
      0.522  0.5722E+00  0.9172E-01
      0.562  0.5368E+00  0.1133E+00
      0.602  0.2258E+00  0.1224E+00
      0.642  0.3172E+00  0.1352E+00
      0.683  0.4133E+00  0.1518E+00
      0.723  0.1776E+00  0.1590E+00
      0.763  0.2382E-01  0.1600E+00
      0.803  0.9726E-03  0.1600E+00
      0.844  0.1179E-04  0.1600E+00
      0.884  0.4160E-07  0.1600E+00
      0.924  0.4205E-10  0.1600E+00
      0.965  0.1202E-13  0.1600E+00
      1.005  0.0000E+00  0.1600E+00
      1.045  0.0000E+00  0.1600E+00
      1.085  0.0000E+00  0.1600E+00
      1.126  0.0000E+00  0.1600E+00
      1.166  0.0000E+00  0.1600E+00
      1.206  0.0000E+00  0.1600E+00
