    2    2  100    1
  0.1687500E+04  0.1500000E-08  0.1500000E-08  0.1500000E-08  0.2000000E-15
  1.000000000000000E-004
  CAR 
 H2 molecular reference relaxation       
      2      1      8
 
  0.0000000E+00  0.0000000E+00  0.0000000E+00  0.1000000E+01
      1        -10.324436   1.000000
      2         -0.068363   0.000000
      3          0.212115   0.000000
      4          0.513225   0.000000
      5          0.521920   0.000000
      6          0.521920   0.000000
      7          0.649371   0.000000
      8          0.657027   0.000000
