       N       E                     dE             d eps       ncg     rms          rms(c)
DAV:   1    -0.214272482826E+01   -0.21427E+01   -0.52928E+02    24   0.116E+02
DAV:   2    -0.732375525343E+01   -0.51810E+01   -0.51810E+01    16   0.261E+01
DAV:   3    -0.744899303255E+01   -0.12524E+00   -0.12524E+00    24   0.483E+00
DAV:   4    -0.744908339695E+01   -0.90364E-04   -0.90364E-04    16   0.125E-01
DAV:   5    -0.744908384577E+01   -0.44881E-06   -0.44882E-06    32   0.125E-02    0.441E+00
DAV:   6    -0.700648397235E+01    0.44260E+00   -0.22212E-01    16   0.135E+00    0.239E+00
DAV:   7    -0.676401032087E+01    0.24247E+00   -0.52398E-01    24   0.209E+00    0.260E-01
DAV:   8    -0.676754385152E+01   -0.35335E-02   -0.43773E-03    16   0.162E-01    0.243E-01
DAV:   9    -0.676297350913E+01    0.45703E-02   -0.72340E-03    24   0.242E-01    0.318E-02
DAV:  10    -0.676549667730E+01   -0.25232E-02   -0.55595E-04    16   0.796E-02    0.185E-02
DAV:  11    -0.676583669019E+01   -0.34001E-03   -0.81681E-05    16   0.245E-02    0.102E-02
DAV:  12    -0.676756975465E+01   -0.17331E-02   -0.46805E-04    16   0.571E-02    0.327E-03
DAV:  13    -0.676776319331E+01   -0.19344E-03   -0.47799E-06    24   0.677E-03    0.260E-03
DAV:  14    -0.676797521889E+01   -0.21203E-03   -0.12736E-05    24   0.979E-03    0.797E-04
DAV:  15    -0.676802635659E+01   -0.51138E-04   -0.10471E-06    24   0.277E-03    0.657E-04
DAV:  16    -0.676803760445E+01   -0.11248E-04   -0.15568E-07    24   0.116E-03    0.380E-04
DAV:  17    -0.676804477518E+01   -0.71707E-05   -0.97146E-08    16   0.895E-04    0.159E-04
DAV:  18    -0.676804617755E+01   -0.14024E-05   -0.94641E-09    16   0.275E-04    0.486E-05
DAV:  19    -0.676804704892E+01   -0.87137E-06   -0.62634E-09    24   0.243E-04    0.284E-05
DAV:  20    -0.676804728657E+01   -0.23765E-06   -0.22554E-09    16   0.141E-04    0.339E-05
DAV:  21    -0.676804731424E+01   -0.27673E-07   -0.19845E-10    24   0.460E-05    0.100E-05
DAV:  22    -0.676804734925E+01   -0.35010E-07   -0.97415E-11    16   0.393E-05    0.313E-06
DAV:  23    -0.676804735697E+01   -0.77167E-08    0.21316E-11    24   0.113E-05
   1 F= -.67680474E+01 E0= -.67680474E+01  d E =-.676805E+01
       N       E                     dE             d eps       ncg     rms          rms(c)
DAV:   1    -0.676804894672E+01   -0.15975E-05   -0.46351E-05    24   0.321E-02    0.336E-03
DAV:   2    -0.676804853912E+01    0.40760E-06   -0.13176E-07    24   0.105E-03    0.183E-03
DAV:   3    -0.676804845753E+01    0.81590E-07   -0.19568E-07    16   0.120E-03    0.117E-04
DAV:   4    -0.676804845966E+01   -0.21293E-08   -0.10474E-09    16   0.115E-04
   2 F= -.67680485E+01 E0= -.67680485E+01  d E =-.110269E-05
