Zr96H tetrahedral interstitial in 4x4x3 
   1.00000000000000     
     6.4683126953282200  -11.2034462275512627    0.0000000000000000
     6.4683126953282200   11.2034462275512627    0.0000000000000000
     0.0000000000000000    0.0000000000000000   15.4980644251775281
   Zr   H 
    96     1
Direct
  0.0832097091021345  0.1662349606388418  0.0831681942957897
  0.1670408673433078  0.0837794666025222  0.2502359932203862
  0.0828186372144666  0.1669886665711621  0.4161975823617619
  0.1664149122269821  0.0830430263658468  0.5837217353745185
  0.0826043947494169  0.1657572774575679  0.7505668158118695
  0.1666794342728953  0.0832436114649104  0.9168592808436387
  0.0832097114911301  0.4169747502738010  0.0831681958037674
  0.1652798917196784  0.3326399428450313  0.2490621741960105
  0.0828186324352356  0.4158299730982759  0.4161975811642293
  0.1629183035809811  0.3314591504275178  0.5857021269473655
  0.0826043916214743  0.4168471152121025  0.7505668217691821
  0.1664814376620535  0.3332407189935681  0.9169873445868725
  0.0833102949774106  0.6666857061180884  0.0835443264451574
  0.1670408663360669  0.5832614032412919  0.2502359990898133
  0.0833900806295213  0.6666195819212003  0.4167621468526478
  0.1664149133831507  0.5833718885760955  0.5837217343644459
  0.0834227232694625  0.6666903084437558  0.7502473182889006
  0.1666794367758396  0.5834358293777192  0.9168592804503789
  0.0833102942304070  0.9166245874479645  0.0835443280044497
  0.1666311652090632  0.8333155794100270  0.2500027226484331
  0.0833900867581903  0.9167705030583447  0.4167621432514829
  0.1666881304214898  0.8333440657954877  0.5833537182502883
  0.0834227187593316  0.9167324125252627  0.7502473172855023
  0.1666267496050099  0.8333133736660647  0.9167506395512938
  0.3331546569107522  0.1663826898498378  0.0832477823837841
  0.4167068307945207  0.0829857158503972  0.2496074508844409
  0.3342882261332430  0.1668275551171308  0.4162908380398135
  0.4167834904871376  0.0825169706451664  0.5831852424428775
  0.3331951087994355  0.1660248319956713  0.7504117241629035
  0.4168345172910021  0.0831828733931422  0.9167412777758347
  0.3332445806399921  0.4166222856851962  0.0829308578939905
  0.4171716932821092  0.3324932066181425  0.2490677635765443
  0.3334309655288563  0.4167154849667252  0.4115077404372097
  0.4184265404470091  0.3315194620301221  0.5856562905302684
  0.3333946240323495  0.4166973111327342  0.7525607176288929
  0.4167188644948655  0.3331540976157895  0.9171632390694876
  0.3331546558252873  0.6667719750834442  0.0832477846282743
  0.4171716950830954  0.5846784847868567  0.2490677593692001
  0.3342882273622510  0.6674606747277642  0.4162908366005795
  0.4184265273978844  0.5869070705857475  0.5856562917439736
  0.3331951050463595  0.6671702782251688  0.7504117267592579
  0.4167188726317238  0.5835647685293356  0.9171632413995213
  0.3330219471919151  0.9165109714394344  0.0829622115284114
  0.4167068384537518  0.8337211252264417  0.2496074491827398
  0.3334781990672362  0.9167390989804588  0.4162260140615986
  0.4167834801013632  0.8342665137206879  0.5831852440395675
  0.3335064645903144  0.9167532287976813  0.7501839674336093
  0.4168345233707906  0.8336516471403221  0.9167412763821667
  0.5833595774215524  0.1666796770310223  0.0832231160035099
  0.6667812993728048  0.0833906453949706  0.2497773416962422
  0.5835708894632882  0.1662701237049318  0.4163617981143601
  0.6667343984299502  0.0833671960042685  0.5833050590171245
  0.5833384910064119  0.1667891025500471  0.7495142097087004
  0.6666326097972970  0.0833162966903608  0.9164294229361855
  0.5836373342363577  0.4168485027239101  0.0831353995688670
  0.6668644593003685  0.3333488520556895  0.2497057036015533
  0.5831203708001200  0.4156581495134054  0.4161648777091024
  0.6674068439201649  0.3332752736237005  0.5831632901299260
  0.5840953761098323  0.4167421428905367  0.7505029546366664
  0.6667858582264157  0.3332235040362830  0.9167341817730646
  0.5836373383778765  0.6667888417169567  0.0831353986760727
  0.6659207506258163  0.5829603753674485  0.2501948788082201
  0.5831203675926679  0.6674622166239808  0.4161648770471263
  0.6669672321491404  0.5834836189128058  0.5836598240676664
  0.5840953759814141  0.6673532326143756  0.7505029513803992
  0.6667573232052754  0.5833786624031048  0.9168114258882569
  0.5833595851515975  0.9166798970174139  0.0832231116771630
  0.6668644614363421  0.8335156056548124  0.2497057029151361
  0.5835708945505985  0.9173007670899721  0.4163617977315456
  0.6674068429602176  0.8341315733320854  0.5831632940847593
  0.5833384937963145  0.9165493860400123  0.7495142118322224
  0.6667858659752061  0.8335623637930685  0.9167341770242541
  0.8333483160465707  0.1666741554244486  0.0832663081245753
  0.9164631623344917  0.0830167721092898  0.2495839823485897
  0.8329769017614119  0.1664884487367422  0.4164464305713946
  0.9158026089928828  0.0825686538828220  0.5832310318588224
  0.8334695702908615  0.1667347742789848  0.7497046519482318
  0.9164313402768095  0.0832139529553278  0.9168345433399760
  0.8334287086784444  0.4168821380290412  0.0829890041723693
  0.9164631616263236  0.3334463867949352  0.2495839839298586
  0.8332376809909305  0.4164716633246227  0.4162416188516828
  0.9158026099686857  0.3332339600122102  0.5832310296225517
  0.8332603699852168  0.4165156568396238  0.7501863330803267
  0.9164313490244766  0.3332173886788486  0.9168345413149673
  0.8333594376307893  0.6666797212828262  0.0834411468785484
  0.9166522300787372  0.5833340753113112  0.2499481700168634
  0.8332356520627532  0.6666178280456876  0.4166283448849630
  0.9166565712070917  0.5833529968488570  0.5833167244161243
  0.8332829992618090  0.6666415024425748  0.7501248102528926
  0.9166839066836463  0.5833684692161571  0.9166705563762604
  0.8334286998906711  0.9165465641499597  0.0829890014290655
  0.9166522280448666  0.8333181514744666  0.2499481673965676
  0.8332376733100123  0.9167660194278060  0.4162416171725388
  0.9166565721492552  0.8333035775789838  0.5833167241054477
  0.8332603606910561  0.9167447131543629  0.7501863304447565
  0.9166839051536689  0.8333154354673128  0.9166705597544549
  0.3332308585668977  0.4166154327384509  0.5432817995335772
 
  0.00000000E+00  0.00000000E+00  0.00000000E+00
  0.00000000E+00  0.00000000E+00  0.00000000E+00
  0.00000000E+00  0.00000000E+00  0.00000000E+00
  0.00000000E+00  0.00000000E+00  0.00000000E+00
  0.00000000E+00  0.00000000E+00  0.00000000E+00
  0.00000000E+00  0.00000000E+00  0.00000000E+00
  0.00000000E+00  0.00000000E+00  0.00000000E+00
  0.00000000E+00  0.00000000E+00  0.00000000E+00
  0.00000000E+00  0.00000000E+00  0.00000000E+00
  0.00000000E+00  0.00000000E+00  0.00000000E+00
  0.00000000E+00  0.00000000E+00  0.00000000E+00
  0.00000000E+00  0.00000000E+00  0.00000000E+00
  0.00000000E+00  0.00000000E+00  0.00000000E+00
  0.00000000E+00  0.00000000E+00  0.00000000E+00
  0.00000000E+00  0.00000000E+00  0.00000000E+00
  0.00000000E+00  0.00000000E+00  0.00000000E+00
  0.00000000E+00  0.00000000E+00  0.00000000E+00
  0.00000000E+00  0.00000000E+00  0.00000000E+00
  0.00000000E+00  0.00000000E+00  0.00000000E+00
  0.00000000E+00  0.00000000E+00  0.00000000E+00
  0.00000000E+00  0.00000000E+00  0.00000000E+00
  0.00000000E+00  0.00000000E+00  0.00000000E+00
  0.00000000E+00  0.00000000E+00  0.00000000E+00
  0.00000000E+00  0.00000000E+00  0.00000000E+00
  0.00000000E+00  0.00000000E+00  0.00000000E+00
  0.00000000E+00  0.00000000E+00  0.00000000E+00
  0.00000000E+00  0.00000000E+00  0.00000000E+00
  0.00000000E+00  0.00000000E+00  0.00000000E+00
  0.00000000E+00  0.00000000E+00  0.00000000E+00
  0.00000000E+00  0.00000000E+00  0.00000000E+00
  0.00000000E+00  0.00000000E+00  0.00000000E+00
  0.00000000E+00  0.00000000E+00  0.00000000E+00
  0.00000000E+00  0.00000000E+00  0.00000000E+00
  0.00000000E+00  0.00000000E+00  0.00000000E+00
  0.00000000E+00  0.00000000E+00  0.00000000E+00
  0.00000000E+00  0.00000000E+00  0.00000000E+00
  0.00000000E+00  0.00000000E+00  0.00000000E+00
  0.00000000E+00  0.00000000E+00  0.00000000E+00
  0.00000000E+00  0.00000000E+00  0.00000000E+00
  0.00000000E+00  0.00000000E+00  0.00000000E+00
  0.00000000E+00  0.00000000E+00  0.00000000E+00
  0.00000000E+00  0.00000000E+00  0.00000000E+00
  0.00000000E+00  0.00000000E+00  0.00000000E+00
  0.00000000E+00  0.00000000E+00  0.00000000E+00
  0.00000000E+00  0.00000000E+00  0.00000000E+00
  0.00000000E+00  0.00000000E+00  0.00000000E+00
  0.00000000E+00  0.00000000E+00  0.00000000E+00
  0.00000000E+00  0.00000000E+00  0.00000000E+00
  0.00000000E+00  0.00000000E+00  0.00000000E+00
  0.00000000E+00  0.00000000E+00  0.00000000E+00
  0.00000000E+00  0.00000000E+00  0.00000000E+00
  0.00000000E+00  0.00000000E+00  0.00000000E+00
  0.00000000E+00  0.00000000E+00  0.00000000E+00
  0.00000000E+00  0.00000000E+00  0.00000000E+00
  0.00000000E+00  0.00000000E+00  0.00000000E+00
  0.00000000E+00  0.00000000E+00  0.00000000E+00
  0.00000000E+00  0.00000000E+00  0.00000000E+00
  0.00000000E+00  0.00000000E+00  0.00000000E+00
  0.00000000E+00  0.00000000E+00  0.00000000E+00
  0.00000000E+00  0.00000000E+00  0.00000000E+00
  0.00000000E+00  0.00000000E+00  0.00000000E+00
  0.00000000E+00  0.00000000E+00  0.00000000E+00
  0.00000000E+00  0.00000000E+00  0.00000000E+00
  0.00000000E+00  0.00000000E+00  0.00000000E+00
  0.00000000E+00  0.00000000E+00  0.00000000E+00
  0.00000000E+00  0.00000000E+00  0.00000000E+00
  0.00000000E+00  0.00000000E+00  0.00000000E+00
  0.00000000E+00  0.00000000E+00  0.00000000E+00
  0.00000000E+00  0.00000000E+00  0.00000000E+00
  0.00000000E+00  0.00000000E+00  0.00000000E+00
  0.00000000E+00  0.00000000E+00  0.00000000E+00
  0.00000000E+00  0.00000000E+00  0.00000000E+00
  0.00000000E+00  0.00000000E+00  0.00000000E+00
  0.00000000E+00  0.00000000E+00  0.00000000E+00
  0.00000000E+00  0.00000000E+00  0.00000000E+00
  0.00000000E+00  0.00000000E+00  0.00000000E+00
  0.00000000E+00  0.00000000E+00  0.00000000E+00
  0.00000000E+00  0.00000000E+00  0.00000000E+00
  0.00000000E+00  0.00000000E+00  0.00000000E+00
  0.00000000E+00  0.00000000E+00  0.00000000E+00
  0.00000000E+00  0.00000000E+00  0.00000000E+00
  0.00000000E+00  0.00000000E+00  0.00000000E+00
  0.00000000E+00  0.00000000E+00  0.00000000E+00
  0.00000000E+00  0.00000000E+00  0.00000000E+00
  0.00000000E+00  0.00000000E+00  0.00000000E+00
  0.00000000E+00  0.00000000E+00  0.00000000E+00
  0.00000000E+00  0.00000000E+00  0.00000000E+00
  0.00000000E+00  0.00000000E+00  0.00000000E+00
  0.00000000E+00  0.00000000E+00  0.00000000E+00
  0.00000000E+00  0.00000000E+00  0.00000000E+00
  0.00000000E+00  0.00000000E+00  0.00000000E+00
  0.00000000E+00  0.00000000E+00  0.00000000E+00
  0.00000000E+00  0.00000000E+00  0.00000000E+00
  0.00000000E+00  0.00000000E+00  0.00000000E+00
  0.00000000E+00  0.00000000E+00  0.00000000E+00
  0.00000000E+00  0.00000000E+00  0.00000000E+00
  0.00000000E+00  0.00000000E+00  0.00000000E+00
