  97  97   0   0
  0.2315679E+02  0.1293663E-08  0.1293663E-08  0.1549806E-08  0.3000000E-15
  1.000000000000000E-004
  CAR 
 Zr96H tetrahedral-site 4x4x3 DCU relaxat
     12.90155003    -42.42364467  301      8.95611320      1.00000000
    -42.424  0.0000E+00  0.0000E+00
    -42.239  0.0000E+00  0.0000E+00
    -42.055  0.0000E+00  0.0000E+00
    -41.870  0.0000E+00  0.0000E+00
    -41.686 -0.1964E-35 -0.3622E-36
    -41.502 -0.2787E-28 -0.5140E-29
    -41.317 -0.2999E-22 -0.5532E-23
    -41.133 -0.5991E-17 -0.1105E-17
    -40.948 -0.2162E-12 -0.3987E-13
    -40.764 -0.1507E-08 -0.2780E-09
    -40.579 -0.2009E-05 -0.3708E-06
    -40.395 -0.5184E-03 -0.9597E-04
    -40.211 -0.2474E-01 -0.4659E-02
    -40.026 -0.1163E+00 -0.2611E-01
    -39.842  0.1304E+01  0.2143E+00
    -39.657  0.3387E+01  0.8389E+00
    -39.473  0.8027E+00  0.9869E+00
    -39.289 -0.1334E+00  0.9623E+00
    -39.104 -0.1236E-01  0.9600E+00
    -38.920 -0.1297E-03  0.9600E+00
    -38.735 -0.2223E-06  0.9600E+00
    -38.551 -0.6663E-10  0.9600E+00
    -38.366 -0.3613E-14  0.9600E+00
    -38.182  0.0000E+00  0.9600E+00
    -37.998  0.0000E+00  0.9600E+00
    -37.813  0.0000E+00  0.9600E+00
    -37.629  0.0000E+00  0.9600E+00
    -37.444  0.0000E+00  0.9600E+00
    -37.260  0.0000E+00  0.9600E+00
    -37.076  0.0000E+00  0.9600E+00
    -36.891  0.0000E+00  0.9600E+00
    -36.707  0.0000E+00  0.9600E+00
    -36.522  0.0000E+00  0.9600E+00
    -36.338  0.0000E+00  0.9600E+00
    -36.153  0.0000E+00  0.9600E+00
    -35.969  0.0000E+00  0.9600E+00
    -35.785  0.0000E+00  0.9600E+00
    -35.600  0.0000E+00  0.9600E+00
    -35.416  0.0000E+00  0.9600E+00
    -35.231  0.0000E+00  0.9600E+00
    -35.047  0.0000E+00  0.9600E+00
    -34.863  0.0000E+00  0.9600E+00
    -34.678  0.0000E+00  0.9600E+00
    -34.494  0.0000E+00  0.9600E+00
    -34.309  0.0000E+00  0.9600E+00
    -34.125  0.0000E+00  0.9600E+00
    -33.940  0.0000E+00  0.9600E+00
    -33.756  0.0000E+00  0.9600E+00
    -33.572  0.0000E+00  0.9600E+00
    -33.387  0.0000E+00  0.9600E+00
    -33.203  0.0000E+00  0.9600E+00
    -33.018  0.0000E+00  0.9600E+00
    -32.834  0.0000E+00  0.9600E+00
    -32.650  0.0000E+00  0.9600E+00
    -32.465  0.0000E+00  0.9600E+00
    -32.281  0.0000E+00  0.9600E+00
    -32.096  0.0000E+00  0.9600E+00
    -31.912  0.0000E+00  0.9600E+00
    -31.727  0.0000E+00  0.9600E+00
    -31.543  0.0000E+00  0.9600E+00
    -31.359  0.0000E+00  0.9600E+00
    -31.174  0.0000E+00  0.9600E+00
    -30.990  0.0000E+00  0.9600E+00
    -30.805  0.0000E+00  0.9600E+00
    -30.621  0.0000E+00  0.9600E+00
    -30.437  0.0000E+00  0.9600E+00
    -30.252  0.0000E+00  0.9600E+00
    -30.068  0.0000E+00  0.9600E+00
    -29.883  0.0000E+00  0.9600E+00
    -29.699  0.0000E+00  0.9600E+00
    -29.514  0.0000E+00  0.9600E+00
    -29.330  0.0000E+00  0.9600E+00
    -29.146  0.0000E+00  0.9600E+00
    -28.961  0.0000E+00  0.9600E+00
    -28.777  0.0000E+00  0.9600E+00
    -28.592  0.0000E+00  0.9600E+00
    -28.408  0.0000E+00  0.9600E+00
    -28.224  0.0000E+00  0.9600E+00
    -28.039  0.0000E+00  0.9600E+00
    -27.855  0.0000E+00  0.9600E+00
    -27.670  0.0000E+00  0.9600E+00
    -27.486  0.0000E+00  0.9600E+00
    -27.301  0.0000E+00  0.9600E+00
    -27.117  0.0000E+00  0.9600E+00
    -26.933  0.0000E+00  0.9600E+00
    -26.748  0.0000E+00  0.9600E+00
    -26.564  0.0000E+00  0.9600E+00
    -26.379  0.0000E+00  0.9600E+00
    -26.195  0.0000E+00  0.9600E+00
    -26.011  0.0000E+00  0.9600E+00
    -25.826  0.0000E+00  0.9600E+00
    -25.642  0.0000E+00  0.9600E+00
    -25.457  0.0000E+00  0.9600E+00
    -25.273  0.0000E+00  0.9600E+00
    -25.088  0.0000E+00  0.9600E+00
    -24.904  0.0000E+00  0.9600E+00
    -24.720  0.0000E+00  0.9600E+00
    -24.535  0.0000E+00  0.9600E+00
    -24.351  0.0000E+00  0.9600E+00
    -24.166  0.0000E+00  0.9600E+00
    -23.982  0.0000E+00  0.9600E+00
    -23.797  0.0000E+00  0.9600E+00
    -23.613  0.0000E+00  0.9600E+00
    -23.429  0.0000E+00  0.9600E+00
    -23.244  0.0000E+00  0.9600E+00
    -23.060  0.0000E+00  0.9600E+00
    -22.875  0.0000E+00  0.9600E+00
    -22.691  0.0000E+00  0.9600E+00
    -22.507  0.0000E+00  0.9600E+00
    -22.322  0.0000E+00  0.9600E+00
    -22.138  0.0000E+00  0.9600E+00
    -21.953  0.0000E+00  0.9600E+00
    -21.769  0.0000E+00  0.9600E+00
    -21.584  0.0000E+00  0.9600E+00
    -21.400  0.0000E+00  0.9600E+00
    -21.216  0.0000E+00  0.9600E+00
    -21.031  0.0000E+00  0.9600E+00
    -20.847  0.0000E+00  0.9600E+00
    -20.662  0.0000E+00  0.9600E+00
    -20.478  0.0000E+00  0.9600E+00
    -20.294  0.0000E+00  0.9600E+00
    -20.109 -0.1123E-32  0.9600E+00
    -19.925 -0.3019E-26  0.9600E+00
    -19.740 -0.1506E-20  0.9600E+00
    -19.556 -0.1377E-15  0.9600E+00
    -19.371 -0.2434E-11  0.9600E+00
    -19.187 -0.8426E-08  0.9600E+00
    -19.003 -0.5883E-05  0.9600E+00
    -18.818 -0.8519E-03  0.9598E+00
    -18.634 -0.2413E-01  0.9554E+00
    -18.449 -0.4264E-01  0.9475E+00
    -18.265  0.9946E+00  0.1131E+01
    -18.081  0.2483E+01  0.1589E+01
    -17.896  0.2216E+01  0.1997E+01
    -17.712  0.3336E+01  0.2613E+01
    -17.527  0.4756E+01  0.3490E+01
    -17.343  0.2013E+01  0.3861E+01
    -17.158 -0.6273E-01  0.3850E+01
    -16.974 -0.5015E-01  0.3840E+01
    -16.790 -0.1745E-02  0.3840E+01
    -16.605 -0.1052E-04  0.3840E+01
    -16.421 -0.1183E-07  0.3840E+01
    -16.236 -0.2488E-11  0.3840E+01
    -16.052 -0.9055E-16  0.3840E+01
    -15.868  0.0000E+00  0.3840E+01
    -15.683  0.0000E+00  0.3840E+01
    -15.499  0.0000E+00  0.3840E+01
    -15.314  0.0000E+00  0.3840E+01
    -15.130  0.0000E+00  0.3840E+01
    -14.945  0.0000E+00  0.3840E+01
    -14.761  0.0000E+00  0.3840E+01
    -14.577  0.0000E+00  0.3840E+01
    -14.392  0.0000E+00  0.3840E+01
    -14.208  0.0000E+00  0.3840E+01
    -14.023  0.0000E+00  0.3840E+01
    -13.839  0.0000E+00  0.3840E+01
    -13.655  0.0000E+00  0.3840E+01
    -13.470  0.0000E+00  0.3840E+01
    -13.286  0.0000E+00  0.3840E+01
    -13.101  0.0000E+00  0.3840E+01
    -12.917  0.0000E+00  0.3840E+01
    -12.732  0.0000E+00  0.3840E+01
    -12.548  0.0000E+00  0.3840E+01
    -12.364  0.0000E+00  0.3840E+01
    -12.179  0.0000E+00  0.3840E+01
    -11.995  0.0000E+00  0.3840E+01
    -11.810  0.0000E+00  0.3840E+01
    -11.626  0.0000E+00  0.3840E+01
    -11.442  0.0000E+00  0.3840E+01
    -11.257  0.0000E+00  0.3840E+01
    -11.073  0.0000E+00  0.3840E+01
    -10.888  0.0000E+00  0.3840E+01
    -10.704  0.0000E+00  0.3840E+01
    -10.519  0.0000E+00  0.3840E+01
    -10.335  0.0000E+00  0.3840E+01
    -10.151  0.0000E+00  0.3840E+01
     -9.966  0.0000E+00  0.3840E+01
     -9.782  0.0000E+00  0.3840E+01
     -9.597  0.0000E+00  0.3840E+01
     -9.413  0.0000E+00  0.3840E+01
     -9.229  0.0000E+00  0.3840E+01
     -9.044  0.0000E+00  0.3840E+01
     -8.860  0.0000E+00  0.3840E+01
     -8.675  0.0000E+00  0.3840E+01
     -8.491  0.0000E+00  0.3840E+01
     -8.306  0.0000E+00  0.3840E+01
     -8.122  0.0000E+00  0.3840E+01
     -7.938  0.0000E+00  0.3840E+01
     -7.753  0.0000E+00  0.3840E+01
     -7.569  0.0000E+00  0.3840E+01
     -7.384  0.0000E+00  0.3840E+01
     -7.200  0.0000E+00  0.3840E+01
     -7.016  0.0000E+00  0.3840E+01
     -6.831  0.0000E+00  0.3840E+01
     -6.647  0.0000E+00  0.3840E+01
     -6.462  0.0000E+00  0.3840E+01
     -6.278  0.0000E+00  0.3840E+01
     -6.093  0.0000E+00  0.3840E+01
     -5.909  0.0000E+00  0.3840E+01
     -5.725  0.0000E+00  0.3840E+01
     -5.540  0.0000E+00  0.3840E+01
     -5.356  0.0000E+00  0.3840E+01
     -5.171  0.0000E+00  0.3840E+01
     -4.987  0.0000E+00  0.3840E+01
     -4.803  0.0000E+00  0.3840E+01
     -4.618  0.0000E+00  0.3840E+01
     -4.434  0.0000E+00  0.3840E+01
     -4.249  0.0000E+00  0.3840E+01
     -4.065  0.0000E+00  0.3840E+01
     -3.880  0.0000E+00  0.3840E+01
     -3.696  0.0000E+00  0.3840E+01
     -3.512  0.0000E+00  0.3840E+01
     -3.327  0.0000E+00  0.3840E+01
     -3.143  0.0000E+00  0.3840E+01
     -2.958  0.0000E+00  0.3840E+01
     -2.774  0.0000E+00  0.3840E+01
     -2.590  0.0000E+00  0.3840E+01
     -2.405  0.0000E+00  0.3840E+01
     -2.221  0.0000E+00  0.3840E+01
     -2.036  0.0000E+00  0.3840E+01
     -1.852  0.0000E+00  0.3840E+01
     -1.667  0.0000E+00  0.3840E+01
     -1.483  0.0000E+00  0.3840E+01
     -1.299  0.0000E+00  0.3840E+01
     -1.114  0.0000E+00  0.3840E+01
     -0.930  0.0000E+00  0.3840E+01
     -0.745  0.0000E+00  0.3840E+01
     -0.561  0.0000E+00  0.3840E+01
     -0.376  0.0000E+00  0.3840E+01
     -0.192  0.0000E+00  0.3840E+01
     -0.008  0.0000E+00  0.3840E+01
      0.177  0.0000E+00  0.3840E+01
      0.361  0.0000E+00  0.3840E+01
      0.546  0.0000E+00  0.3840E+01
      0.730 -0.9793E-33  0.3840E+01
      0.914 -0.2864E-26  0.3840E+01
      1.099 -0.1511E-20  0.3840E+01
      1.283 -0.1388E-15  0.3840E+01
      1.468 -0.2322E-11  0.3840E+01
      1.652 -0.6786E-08  0.3840E+01
      1.837 -0.3355E-05  0.3840E+01
      2.021 -0.2550E-03  0.3840E+01
      2.205 -0.1659E-02  0.3840E+01
      2.390  0.1564E-01  0.3843E+01
      2.574  0.3650E-01  0.3849E+01
      2.759  0.5415E-02  0.3850E+01
      2.943 -0.1343E-02  0.3850E+01
      3.127 -0.3162E-03  0.3850E+01
      3.312 -0.1448E-03  0.3850E+01
      3.496  0.8627E-02  0.3852E+01
      3.681  0.2202E-01  0.3856E+01
      3.865  0.3338E-01  0.3862E+01
      4.050  0.3647E-01  0.3868E+01
      4.234  0.4918E-01  0.3878E+01
      4.418  0.5012E-01  0.3887E+01
      4.603  0.6393E-01  0.3899E+01
      4.787  0.7267E-01  0.3912E+01
      4.972  0.7978E-01  0.3927E+01
      5.156  0.8321E-01  0.3942E+01
      5.340  0.1238E+00  0.3965E+01
      5.525  0.1098E+00  0.3985E+01
      5.709  0.1399E+00  0.4011E+01
      5.894  0.2631E+00  0.4059E+01
      6.078  0.3932E+00  0.4132E+01
      6.263  0.4756E+00  0.4220E+01
      6.447  0.5084E+00  0.4313E+01
      6.631  0.5495E+00  0.4415E+01
      6.816  0.6082E+00  0.4527E+01
      7.000  0.7023E+00  0.4656E+01
      7.185  0.5668E+00  0.4761E+01
      7.369  0.5065E+00  0.4854E+01
      7.553  0.4655E+00  0.4940E+01
      7.738  0.5921E+00  0.5049E+01
      7.922  0.6528E+00  0.5170E+01
      8.107  0.7171E+00  0.5302E+01
      8.291  0.8243E+00  0.5454E+01
      8.476  0.7752E+00  0.5597E+01
      8.660  0.3693E+00  0.5665E+01
      8.844  0.2922E+00  0.5719E+01
      9.029  0.4691E+00  0.5806E+01
      9.213  0.8346E+00  0.5959E+01
      9.398  0.8736E+00  0.6121E+01
      9.582  0.7809E+00  0.6265E+01
      9.766  0.8246E+00  0.6417E+01
      9.951  0.8841E+00  0.6580E+01
     10.135  0.9605E+00  0.6757E+01
     10.320  0.7366E+00  0.6893E+01
     10.504  0.1731E+00  0.6925E+01
     10.689 -0.2064E-01  0.6921E+01
     10.873 -0.4090E-02  0.6920E+01
     11.057 -0.9120E-04  0.6920E+01
     11.242 -0.3699E-06  0.6920E+01
     11.426 -0.2872E-09  0.6920E+01
     11.611 -0.4263E-13  0.6920E+01
     11.795  0.0000E+00  0.6920E+01
     11.979  0.0000E+00  0.6920E+01
     12.164  0.0000E+00  0.6920E+01
     12.348  0.0000E+00  0.6920E+01
     12.533  0.0000E+00  0.6920E+01
     12.717  0.0000E+00  0.6920E+01
     12.902  0.0000E+00  0.6920E+01
