   97   97  200    1
  0.2315679E+02  0.1293663E-08  0.1293663E-08  0.1549806E-08  0.3000000E-15
  1.000000000000000E-004
  CAR 
 Zr96H tetrahedral-site 4x4x3 DCU relaxat
   1153     26    692
 
  0.0000000E+00  0.0000000E+00  0.0000000E+00  0.2083333E-01
      1        -39.908863   1.000000
      2        -39.877830   1.000000
      3        -39.868486   1.000000
      4        -39.855178   1.000000
      5        -39.854945   1.000000
      6        -39.853205   1.000000
      7        -39.841449   1.000000
      8        -39.841372   1.000000
      9        -39.841224   1.000000
     10        -39.831046   1.000000
     11        -39.828416   1.000000
     12        -39.828071   1.000000
     13        -39.827375   1.000000
     14        -39.816648   1.000000
     15        -39.816421   1.000000
     16        -39.814949   1.000000
     17        -39.814358   1.000000
     18        -39.814255   1.000000
     19        -39.812923   1.000000
     20        -39.812758   1.000000
     21        -39.812599   1.000000
     22        -39.800466   1.000000
     23        -39.794826   1.000000
     24        -39.794669   1.000000
     25        -39.790132   1.000000
     26        -39.784490   1.000000
     27        -39.777540   1.000000
     28        -39.770457   1.000000
     29        -39.770425   1.000000
     30        -39.769022   1.000000
     31        -39.768891   1.000000
     32        -39.768323   1.000000
     33        -39.768184   1.000000
     34        -39.767462   1.000000
     35        -39.767313   1.000000
     36        -39.766684   1.000000
     37        -39.762991   1.000000
     38        -39.762523   1.000000
     39        -39.762372   1.000000
     40        -39.760492   1.000000
     41        -39.760343   1.000000
     42        -39.760291   1.000000
     43        -39.759703   1.000000
     44        -39.759299   1.000000
     45        -39.759211   1.000000
     46        -39.758867   1.000000
     47        -39.758625   1.000000
     48        -39.757355   1.000000
     49        -39.757292   1.000000
     50        -39.757131   1.000000
     51        -39.756356   1.000000
     52        -39.756116   1.000000
     53        -39.756007   1.000000
     54        -39.755737   1.000000
     55        -39.754130   1.000000
     56        -39.754042   1.000000
     57        -39.752887   1.000000
     58        -39.751282   1.000000
     59        -39.751181   1.000000
     60        -39.750813   1.000000
     61        -39.750691   1.000000
     62        -39.750420   1.000000
     63        -39.748488   1.000000
     64        -39.741199   1.000000
     65        -39.740559   1.000000
     66        -39.740536   1.000000
     67        -39.736963   1.000000
     68        -39.735186   1.000000
     69        -39.735009   1.000000
     70        -39.733488   1.000000
     71        -39.733239   1.000000
     72        -39.732337   1.000000
     73        -39.732324   1.000000
     74        -39.732075   1.000000
     75        -39.732040   1.000000
     76        -39.731731   1.000000
     77        -39.731554   1.000000
     78        -39.729464   1.000000
     79        -39.729264   1.000000
     80        -39.728370   1.000000
     81        -39.727265   1.000000
     82        -39.726452   1.000000
     83        -39.726235   1.000000
     84        -39.724667   1.000000
     85        -39.723525   1.000000
     86        -39.723416   1.000000
     87        -39.723240   1.000000
     88        -39.723127   1.000000
     89        -39.718929   1.000000
     90        -39.718844   1.000000
     91        -39.714794   1.000000
     92        -39.714731   1.000000
     93        -39.713731   1.000000
     94        -39.713543   1.000000
     95        -39.713439   1.000000
     96        -39.712060   1.000000
     97        -18.418464   1.000000
     98        -18.354603   1.000000
     99        -18.333901   1.000000
    100        -18.333874   1.000000
    101        -18.333229   1.000000
    102        -18.332619   1.000000
    103        -18.332577   1.000000
    104        -18.273989   1.000000
    105        -18.251872   1.000000
    106        -18.248936   1.000000
    107        -18.248886   1.000000
    108        -18.245300   1.000000
    109        -18.245216   1.000000
    110        -18.243816   1.000000
    111        -18.243805   1.000000
    112        -18.243481   1.000000
    113        -18.243037   1.000000
    114        -18.239478   1.000000
    115        -18.239294   1.000000
    116        -18.237109   1.000000
    117        -18.235133   1.000000
    118        -18.235058   1.000000
    119        -18.215002   1.000000
    120        -18.209160   1.000000
    121        -18.206773   1.000000
    122        -18.206545   1.000000
    123        -18.204999   1.000000
    124        -18.204996   1.000000
    125        -18.203397   1.000000
    126        -18.203322   1.000000
    127        -18.202645   1.000000
    128        -18.201895   1.000000
    129        -18.200510   1.000000
    130        -18.200357   1.000000
    131        -18.186637   1.000000
    132        -18.183459   1.000000
    133        -18.174010   1.000000
    134        -18.170984   1.000000
    135        -18.170931   1.000000
    136        -18.167654   1.000000
    137        -18.166402   1.000000
    138        -18.166317   1.000000
    139        -18.165594   1.000000
    140        -18.165447   1.000000
    141        -18.164988   1.000000
    142        -18.162869   1.000000
    143        -18.162802   1.000000
    144        -18.162496   1.000000
    145        -18.162483   1.000000
    146        -18.161810   1.000000
    147        -18.161680   1.000000
    148        -18.161649   1.000000
    149        -18.160474   1.000000
    150        -18.160376   1.000000
    151        -18.160168   1.000000
    152        -18.159136   1.000000
    153        -18.159043   1.000000
    154        -18.159018   1.000000
    155        -18.157629   1.000000
    156        -18.157565   1.000000
    157        -18.105038   1.000000
    158        -18.104906   1.000000
    159        -18.104506   1.000000
    160        -18.100362   1.000000
    161        -18.100016   1.000000
    162        -18.099915   1.000000
    163        -18.081440   1.000000
    164        -18.078131   1.000000
    165        -18.078059   1.000000
    166        -18.032652   1.000000
    167        -18.029810   1.000000
    168        -18.027943   1.000000
    169        -18.027807   1.000000
    170        -18.024939   1.000000
    171        -18.024899   1.000000
    172        -18.006618   1.000000
    173        -18.002062   1.000000
    174        -18.001709   1.000000
    175        -17.993961   1.000000
    176        -17.993789   1.000000
    177        -17.992719   1.000000
    178        -17.990032   1.000000
    179        -17.989898   1.000000
    180        -17.989817   1.000000
    181        -17.950894   1.000000
    182        -17.950854   1.000000
    183        -17.946478   1.000000
    184        -17.942781   1.000000
    185        -17.940329   1.000000
    186        -17.940188   1.000000
    187        -17.938301   1.000000
    188        -17.938183   1.000000
    189        -17.936792   1.000000
    190        -17.936542   1.000000
    191        -17.935571   1.000000
    192        -17.935215   1.000000
    193        -17.912052   1.000000
    194        -17.912032   1.000000
    195        -17.906850   1.000000
    196        -17.904023   1.000000
    197        -17.903870   1.000000
    198        -17.899797   1.000000
    199        -17.891413   1.000000
    200        -17.891272   1.000000
    201        -17.886388   1.000000
    202        -17.884973   1.000000
    203        -17.884820   1.000000
    204        -17.882328   1.000000
    205        -17.880505   1.000000
    206        -17.879978   1.000000
    207        -17.879895   1.000000
    208        -17.879727   1.000000
    209        -17.877973   1.000000
    210        -17.877897   1.000000
    211        -17.833158   1.000000
    212        -17.830798   1.000000
    213        -17.828599   1.000000
    214        -17.828388   1.000000
    215        -17.826247   1.000000
    216        -17.825922   1.000000
    217        -17.812158   1.000000
    218        -17.811937   1.000000
    219        -17.806191   1.000000
    220        -17.801964   1.000000
    221        -17.801573   1.000000
    222        -17.799253   1.000000
    223        -17.796825   1.000000
    224        -17.796567   1.000000
    225        -17.796129   1.000000
    226        -17.795941   1.000000
    227        -17.795437   1.000000
    228        -17.795212   1.000000
    229        -17.784777   1.000000
    230        -17.778504   1.000000
    231        -17.778411   1.000000
    232        -17.775974   1.000000
    233        -17.775833   1.000000
    234        -17.775462   1.000000
    235        -17.774898   1.000000
    236        -17.774597   1.000000
    237        -17.766833   1.000000
    238        -17.765925   1.000000
    239        -17.765759   1.000000
    240        -17.764611   1.000000
    241        -17.763977   1.000000
    242        -17.763768   1.000000
    243        -17.762952   1.000000
    244        -17.762921   1.000000
    245        -17.762270   1.000000
    246        -17.760864   1.000000
    247        -17.760350   1.000000
    248        -17.760343   1.000000
    249        -17.758465   1.000000
    250        -17.758306   1.000000
    251        -17.758042   1.000000
    252        -17.756772   1.000000
    253        -17.756590   1.000000
    254        -17.755207   1.000000
    255        -17.754251   1.000000
    256        -17.709318   1.000000
    257        -17.709251   1.000000
    258        -17.708901   1.000000
    259        -17.707702   1.000000
    260        -17.707668   1.000000
    261        -17.703385   1.000000
    262        -17.702261   1.000000
    263        -17.688190   1.000000
    264        -17.687605   1.000000
    265        -17.687497   1.000000
    266        -17.685549   1.000000
    267        -17.684881   1.000000
    268        -17.681631   1.000000
    269        -17.681605   1.000000
    270        -17.679040   1.000000
    271        -17.677695   1.000000
    272        -17.677599   1.000000
    273        -17.673445   1.000000
    274        -17.673366   1.000000
    275        -17.670642   1.000000
    276        -17.670560   1.000000
    277        -17.670048   1.000000
    278        -17.669757   1.000000
    279        -17.669312   1.000000
    280        -17.669154   1.000000
    281        -17.668652   1.000000
    282        -17.668537   1.000000
    283        -17.667849   1.000000
    284        -17.667806   1.000000
    285        -17.667765   1.000000
    286        -17.667459   1.000000
    287        -17.666583   1.000000
    288        -17.664726   1.000000
    289        -17.664554   1.000000
    290        -17.662733   1.000000
    291        -17.662691   1.000000
    292        -17.662637   1.000000
    293        -17.661647   1.000000
    294        -17.660937   1.000000
    295        -17.660849   1.000000
    296        -17.658698   1.000000
    297        -17.631219   1.000000
    298        -17.630552   1.000000
    299        -17.629774   1.000000
    300        -17.629764   1.000000
    301        -17.626526   1.000000
    302        -17.626484   1.000000
    303        -17.623025   1.000000
    304        -17.622991   1.000000
    305        -17.621559   1.000000
    306        -17.619680   1.000000
    307        -17.618866   1.000000
    308        -17.618785   1.000000
    309        -17.615777   1.000000
    310        -17.615712   1.000000
    311        -17.614677   1.000000
    312        -17.614604   1.000000
    313        -17.613675   1.000000
    314        -17.607954   1.000000
    315        -17.591505   1.000000
    316        -17.591358   1.000000
    317        -17.589373   1.000000
    318        -17.585637   1.000000
    319        -17.585635   1.000000
    320        -17.584259   1.000000
    321        -17.581568   1.000000
    322        -17.578678   1.000000
    323        -17.578537   1.000000
    324        -17.576913   1.000000
    325        -17.575368   1.000000
    326        -17.575218   1.000000
    327        -17.574934   1.000000
    328        -17.573581   1.000000
    329        -17.573537   1.000000
    330        -17.571749   1.000000
    331        -17.571596   1.000000
    332        -17.570035   1.000000
    333        -17.569734   1.000000
    334        -17.567386   1.000000
    335        -17.567356   1.000000
    336        -17.565558   1.000000
    337        -17.565239   1.000000
    338        -17.562907   1.000000
    339        -17.562886   1.000000
    340        -17.562685   1.000000
    341        -17.562471   1.000000
    342        -17.561158   1.000000
    343        -17.560529   1.000000
    344        -17.560314   1.000000
    345        -17.556734   1.000000
    346        -17.556643   1.000000
    347        -17.531388   1.000000
    348        -17.531304   1.000000
    349        -17.528497   1.000000
    350        -17.527429   1.000000
    351        -17.527310   1.000000
    352        -17.524665   1.000000
    353        -17.524615   1.000000
    354        -17.522260   1.000000
    355        -17.520820   1.000000
    356        -17.520415   1.000000
    357        -17.520387   1.000000
    358        -17.519474   1.000000
    359        -17.519275   1.000000
    360        -17.517169   1.000000
    361        -17.517150   1.000000
    362        -17.516850   1.000000
    363        -17.516839   1.000000
    364        -17.514627   1.000000
    365        -17.514612   1.000000
    366        -17.511920   1.000000
    367        -17.511651   1.000000
    368        -17.510291   1.000000
    369        -17.509095   1.000000
    370        -17.506676   1.000000
    371        -17.506592   1.000000
    372        -17.472916   1.000000
    373        -17.472768   1.000000
    374        -17.472630   1.000000
    375        -17.469720   1.000000
    376        -17.469553   1.000000
    377        -17.464688   1.000000
    378        -17.454832   1.000000
    379        -17.454809   1.000000
    380        -17.451502   1.000000
    381        -17.451423   1.000000
    382        -17.429966   1.000000
    383        -17.419061   1.000000
    384        -17.419017   1.000000
    385          2.437939   1.000000
    386          3.385673   1.000000
    387          4.152330   1.000000
    388          4.227645   1.000000
    389          4.812313   1.000000
    390          4.812408   1.000000
    391          4.815428   1.000000
    392          4.815462   1.000000
    393          4.817520   1.000000
    394          4.947796   1.000000
    395          5.386714   1.000000
    396          5.386929   1.000000
    397          5.388224   1.000000
    398          5.393454   1.000000
    399          5.393503   1.000000
    400          5.393956   1.000000
    401          5.394002   1.000000
    402          5.394478   1.000000
    403          5.394599   1.000000
    404          5.395760   1.000000
    405          5.396944   1.000000
    406          5.567176   1.000000
    407          5.659986   1.000000
    408          5.728007   1.000000
    409          5.903240   1.000000
    410          5.905501   1.000000
    411          5.905534   1.000000
    412          5.910304   1.000000
    413          5.910376   1.000000
    414          5.918984   1.000000
    415          6.013749   1.000000
    416          6.395362   1.000000
    417          6.395372   1.000000
    418          6.401622   1.000000
    419          6.421434   1.000000
    420          6.421612   1.000000
    421          6.422678   1.000000
    422          6.424771   1.000000
    423          6.424912   1.000000
    424          6.429141   1.000000
    425          6.443055   1.000000
    426          6.443381   1.000000
    427          6.494739   1.000000
    428          6.706223   1.000000
    429          6.713900   1.000000
    430          6.714004   1.000000
    431          6.716299   1.000000
    432          6.716436   1.000000
    433          6.719996   1.000000
    434          6.720086   1.000000
    435          6.722457   1.000000
    436          6.724631   1.000000
    437          6.724804   1.000000
    438          6.727365   1.000000
    439          6.755925   1.000000
    440          6.785254   1.000000
    441          6.785295   1.000000
    442          6.787361   1.000000
    443          6.788285   1.000000
    444          6.788464   1.000000
    445          6.789104   1.000000
    446          6.789650   1.000000
    447          6.791430   1.000000
    448          6.791614   1.000000
    449          6.795948   1.000000
    450          6.796033   1.000000
    451          6.811562   1.000000
    452          6.813712   1.000000
    453          6.814249   1.000000
    454          6.827090   1.000000
    455          6.862683   1.000000
    456          6.863009   1.000000
    457          6.866057   1.000000
    458          6.866767   1.000000
    459          6.867066   1.000000
    460          6.888879   1.000000
    461          6.897060   1.000000
    462          6.897585   1.000000
    463          6.900397   1.000000
    464          6.900678   1.000000
    465          6.901017   1.000000
    466          6.901055   1.000000
    467          6.902339   1.000000
    468          6.904212   1.000000
    469          6.908562   1.000000
    470          6.909057   1.000000
    471          6.909113   1.000000
    472          6.916914   1.000000
    473          6.930457   1.000000
    474          6.930509   1.000000
    475          6.931375   1.000000
    476          6.931500   1.000000
    477          6.938574   1.000000
    478          7.031917   1.000000
    479          7.032840   1.000000
    480          7.033902   1.000000
    481          7.039488   1.000000
    482          7.039932   1.000000
    483          7.040535   1.000000
    484          7.314399   1.000000
    485          7.569407   1.000000
    486          7.569427   1.000000
    487          7.571042   1.000000
    488          7.571309   1.000000
    489          7.575050   1.000000
    490          7.582007   1.000000
    491          7.655540   1.000000
    492          7.671042   1.000000
    493          7.671129   1.000000
    494          7.680317   1.000000
    495          7.680354   1.000000
    496          7.682808   1.000000
    497          7.690285   1.000000
    498          7.690423   1.000000
    499          7.693717   1.000000
    500          7.695431   1.000000
    501          7.695807   1.000000
    502          7.723807   1.000000
    503          7.738880   1.000000
    504          7.759647   1.000000
    505          7.760530   1.000000
    506          7.763456   1.000000
    507          7.764007   1.000000
    508          7.769669   1.000000
    509          7.770120   1.000000
    510          7.770146   1.000000
    511          7.771051   1.000000
    512          7.771683   1.000000
    513          7.775418   1.000000
    514          7.835117   1.000000
    515          7.860879   1.000000
    516          7.861167   1.000000
    517          7.862958   1.000000
    518          7.862994   1.000000
    519          7.863619   1.000000
    520          7.867354   1.000000
    521          7.868796   1.000000
    522          7.869367   1.000000
    523          7.872242   1.000000
    524          7.872567   1.000000
    525          7.873613   1.000000
    526          7.978103   1.000000
    527          8.008801   1.000000
    528          8.014558   1.000000
    529          8.014784   1.000000
    530          8.017055   1.000000
    531          8.017468   1.000000
    532          8.033357   1.000000
    533          8.041910   1.000000
    534          8.042264   1.000000
    535          8.046469   1.000000
    536          8.046519   1.000000
    537          8.049182   1.000000
    538          8.208236   1.000001
    539          8.355565   1.000092
    540          8.356183   1.000094
    541          8.357024   1.000096
    542          8.361078   1.000107
    543          8.362826   1.000113
    544          8.362970   1.000113
    545          8.366067   1.000123
    546          8.366732   1.000125
    547          8.367639   1.000128
    548          8.371360   1.000142
    549          8.371529   1.000143
    550          8.411815   1.000407
    551          8.412246   1.000411
    552          8.414779   1.000438
    553          8.421950   1.000522
    554          8.422344   1.000527
    555          8.431890   1.000663
    556          8.540342   1.006145
    557          8.579814   1.011501
    558          8.579932   1.011521
    559          8.586451   1.012645
    560          8.586677   1.012685
    561          8.595028   1.014224
    562          8.595233   1.014263
    563          8.595842   1.014379
    564          8.597692   1.014737
    565          8.598109   1.014818
    566          8.600170   1.015223
    567          8.609374   1.017104
    568          8.706490   1.035376
    569          8.728439   1.034168
    570          8.728686   1.034129
    571          8.826268   0.940883
    572          8.877382   0.806244
    573          8.882168   0.790440
    574          8.882394   0.789683
    575          8.888307   0.769450
    576          8.888715   0.768027
    577          8.889807   0.764203
    578          8.890983   0.760055
    579          8.891754   0.757325
    580          8.892149   0.755920
    581          8.908192   0.696461
    582          8.908390   0.695698
    583          9.000311   0.317951
    584          9.051206   0.143676
    585          9.063074   0.111389
    586          9.065760   0.104570
    587          9.066040   0.103869
    588          9.067427   0.100428
    589          9.067860   0.099364
    590          9.075449   0.081482
    591          9.104845   0.025802
    592          9.106049   0.023969
    593          9.106702   0.022989
    594          9.110219   0.017881
    595          9.113861   0.012889
    596          9.115195   0.011137
    597          9.118376   0.007114
    598          9.118895   0.006479
    599          9.122204   0.002566
    600          9.125594  -0.001200
    601          9.125804  -0.001426
    602          9.127759  -0.003481
    603          9.146981  -0.019716
    604          9.166660  -0.029770
    605          9.166735  -0.029797
    606          9.167258  -0.029985
    607          9.169692  -0.030814
    608          9.170354  -0.031026
    609          9.173792  -0.032036
    610          9.175674  -0.032526
    611          9.175798  -0.032557
    612          9.180934  -0.033675
    613          9.181137  -0.033713
    614          9.185518  -0.034425
    615          9.323861  -0.012987
    616          9.344745  -0.009565
    617          9.492839  -0.000490
    618          9.492989  -0.000489
    619          9.498841  -0.000423
    620          9.599994  -0.000026
    621          9.600343  -0.000026
    622          9.620869  -0.000014
    623          9.620967  -0.000014
    624          9.624645  -0.000012
    625          9.625029  -0.000012
    626          9.625261  -0.000012
    627          9.632176  -0.000010
    628          9.632777  -0.000009
    629          9.642471  -0.000007
    630          9.676643  -0.000002
    631          9.703038  -0.000001
    632          9.704129  -0.000001
    633          9.746417  -0.000000
    634          9.758086  -0.000000
    635          9.766190  -0.000000
    636          9.766915  -0.000000
    637          9.785682  -0.000000
    638          9.785685  -0.000000
    639          9.804555  -0.000000
    640          9.804613  -0.000000
    641          9.833333  -0.000000
    642          9.833461  -0.000000
    643          9.834535  -0.000000
    644          9.850115  -0.000000
    645          9.850197  -0.000000
    646          9.852331  -0.000000
    647          9.857409  -0.000000
    648          9.858221  -0.000000
    649          9.861379  -0.000000
    650          9.865844  -0.000000
    651          9.866446  -0.000000
    652          9.873810  -0.000000
    653          9.928240  -0.000000
    654          9.989048  -0.000000
    655          9.989589  -0.000000
    656          9.996374  -0.000000
    657          9.996850  -0.000000
    658         10.027451  -0.000000
    659         10.055601  -0.000000
    660         10.055609  -0.000000
    661         10.060177  -0.000000
    662         10.061187  -0.000000
    663         10.061362  -0.000000
    664         10.079710  -0.000000
    665         10.123996  -0.000000
    666         10.125305  -0.000000
    667         10.127095  -0.000000
    668         10.137692  -0.000000
    669         10.137892  -0.000000
    670         10.139468  -0.000000
    671         10.169582  -0.000000
    672         10.169734  -0.000000
    673         10.197719  -0.000000
    674         10.197742  -0.000000
    675         10.201954  -0.000000
    676         10.205686  -0.000000
    677         10.212317  -0.000000
    678         10.214564  -0.000000
    679         10.215498  -0.000000
    680         10.221738  -0.000000
    681         10.223263  -0.000000
    682         10.230876  -0.000000
    683         10.245204  -0.000000
    684         10.245358  -0.000000
    685         10.249478  -0.000000
    686         10.251167  -0.000000
    687         10.251827  -0.000000
    688         10.263622  -0.000000
    689         10.266571  -0.000000
    690         10.267166  -0.000000
    691         10.269025  -0.000000
    692         10.272670  -0.000000
 
  0.2500000E+00  0.1345275E-16  0.0000000E+00  0.4166667E-01
      1        -39.905177   1.000000
      2        -39.878724   1.000000
      3        -39.866647   1.000000
      4        -39.864658   1.000000
      5        -39.858644   1.000000
      6        -39.855003   1.000000
      7        -39.843950   1.000000
      8        -39.839590   1.000000
      9        -39.838262   1.000000
     10        -39.837791   1.000000
     11        -39.827975   1.000000
     12        -39.825479   1.000000
     13        -39.825229   1.000000
     14        -39.822748   1.000000
     15        -39.822123   1.000000
     16        -39.814029   1.000000
     17        -39.809981   1.000000
     18        -39.809539   1.000000
     19        -39.803827   1.000000
     20        -39.802994   1.000000
     21        -39.798590   1.000000
     22        -39.795186   1.000000
     23        -39.794381   1.000000
     24        -39.792126   1.000000
     25        -39.787291   1.000000
     26        -39.785130   1.000000
     27        -39.784600   1.000000
     28        -39.781317   1.000000
     29        -39.778442   1.000000
     30        -39.775183   1.000000
     31        -39.772800   1.000000
     32        -39.772322   1.000000
     33        -39.770136   1.000000
     34        -39.770070   1.000000
     35        -39.768966   1.000000
     36        -39.768659   1.000000
     37        -39.767648   1.000000
     38        -39.767136   1.000000
     39        -39.765138   1.000000
     40        -39.763664   1.000000
     41        -39.763163   1.000000
     42        -39.762819   1.000000
     43        -39.761413   1.000000
     44        -39.760403   1.000000
     45        -39.760244   1.000000
     46        -39.758980   1.000000
     47        -39.758112   1.000000
     48        -39.757075   1.000000
     49        -39.756306   1.000000
     50        -39.754727   1.000000
     51        -39.754034   1.000000
     52        -39.753438   1.000000
     53        -39.752846   1.000000
     54        -39.752261   1.000000
     55        -39.752250   1.000000
     56        -39.750006   1.000000
     57        -39.749270   1.000000
     58        -39.749076   1.000000
     59        -39.747116   1.000000
     60        -39.746734   1.000000
     61        -39.745331   1.000000
     62        -39.745155   1.000000
     63        -39.742955   1.000000
     64        -39.742349   1.000000
     65        -39.740110   1.000000
     66        -39.739559   1.000000
     67        -39.738278   1.000000
     68        -39.737230   1.000000
     69        -39.735277   1.000000
     70        -39.734580   1.000000
     71        -39.734210   1.000000
     72        -39.733988   1.000000
     73        -39.733206   1.000000
     74        -39.732878   1.000000
     75        -39.732225   1.000000
     76        -39.732071   1.000000
     77        -39.731373   1.000000
     78        -39.730831   1.000000
     79        -39.729461   1.000000
     80        -39.728599   1.000000
     81        -39.727313   1.000000
     82        -39.727064   1.000000
     83        -39.725967   1.000000
     84        -39.724766   1.000000
     85        -39.724302   1.000000
     86        -39.723471   1.000000
     87        -39.722721   1.000000
     88        -39.721082   1.000000
     89        -39.719194   1.000000
     90        -39.718397   1.000000
     91        -39.715259   1.000000
     92        -39.715024   1.000000
     93        -39.714016   1.000000
     94        -39.713935   1.000000
     95        -39.713478   1.000000
     96        -39.712320   1.000000
     97        -18.406781   1.000000
     98        -18.342146   1.000000
     99        -18.320492   1.000000
    100        -18.320140   1.000000
    101        -18.319172   1.000000
    102        -18.317226   1.000000
    103        -18.316017   1.000000
    104        -18.312905   1.000000
    105        -18.278013   1.000000
    106        -18.275049   1.000000
    107        -18.262546   1.000000
    108        -18.236087   1.000000
    109        -18.234271   1.000000
    110        -18.233647   1.000000
    111        -18.232202   1.000000
    112        -18.231420   1.000000
    113        -18.229269   1.000000
    114        -18.227023   1.000000
    115        -18.225268   1.000000
    116        -18.223166   1.000000
    117        -18.222962   1.000000
    118        -18.218975   1.000000
    119        -18.214185   1.000000
    120        -18.210504   1.000000
    121        -18.208173   1.000000
    122        -18.207083   1.000000
    123        -18.205958   1.000000
    124        -18.204395   1.000000
    125        -18.203603   1.000000
    126        -18.203482   1.000000
    127        -18.202289   1.000000
    128        -18.202002   1.000000
    129        -18.201479   1.000000
    130        -18.199282   1.000000
    131        -18.199196   1.000000
    132        -18.185171   1.000000
    133        -18.181527   1.000000
    134        -18.181515   1.000000
    135        -18.178109   1.000000
    136        -18.178086   1.000000
    137        -18.175201   1.000000
    138        -18.171174   1.000000
    139        -18.168992   1.000000
    140        -18.168356   1.000000
    141        -18.166407   1.000000
    142        -18.166300   1.000000
    143        -18.165124   1.000000
    144        -18.164997   1.000000
    145        -18.164703   1.000000
    146        -18.164048   1.000000
    147        -18.161420   1.000000
    148        -18.159345   1.000000
    149        -18.158577   1.000000
    150        -18.156176   1.000000
    151        -18.155778   1.000000
    152        -18.153836   1.000000
    153        -18.139991   1.000000
    154        -18.137776   1.000000
    155        -18.133361   1.000000
    156        -18.132204   1.000000
    157        -18.126152   1.000000
    158        -18.125964   1.000000
    159        -18.124233   1.000000
    160        -18.123759   1.000000
    161        -18.073783   1.000000
    162        -18.070757   1.000000
    163        -18.070630   1.000000
    164        -18.066800   1.000000
    165        -18.064783   1.000000
    166        -18.064197   1.000000
    167        -18.058606   1.000000
    168        -18.054295   1.000000
    169        -18.053390   1.000000
    170        -18.037345   1.000000
    171        -18.021139   1.000000
    172        -18.020307   1.000000
    173        -18.018421   1.000000
    174        -18.013052   1.000000
    175        -18.012148   1.000000
    176        -18.006646   1.000000
    177        -18.005301   1.000000
    178        -18.004209   1.000000
    179        -18.002878   1.000000
    180        -18.001264   1.000000
    181        -17.999908   1.000000
    182        -17.998294   1.000000
    183        -17.995540   1.000000
    184        -17.990841   1.000000
    185        -17.990766   1.000000
    186        -17.972848   1.000000
    187        -17.969476   1.000000
    188        -17.954342   1.000000
    189        -17.949801   1.000000
    190        -17.949763   1.000000
    191        -17.948769   1.000000
    192        -17.929953   1.000000
    193        -17.926090   1.000000
    194        -17.897037   1.000000
    195        -17.896662   1.000000
    196        -17.893254   1.000000
    197        -17.892904   1.000000
    198        -17.890817   1.000000
    199        -17.890591   1.000000
    200        -17.885984   1.000000
    201        -17.877638   1.000000
    202        -17.872941   1.000000
    203        -17.872168   1.000000
    204        -17.869634   1.000000
    205        -17.851821   1.000000
    206        -17.848290   1.000000
    207        -17.843208   1.000000
    208        -17.841496   1.000000
    209        -17.835818   1.000000
    210        -17.834544   1.000000
    211        -17.831178   1.000000
    212        -17.829179   1.000000
    213        -17.828586   1.000000
    214        -17.826795   1.000000
    215        -17.825309   1.000000
    216        -17.824803   1.000000
    217        -17.818124   1.000000
    218        -17.815578   1.000000
    219        -17.815305   1.000000
    220        -17.812460   1.000000
    221        -17.806275   1.000000
    222        -17.801667   1.000000
    223        -17.799632   1.000000
    224        -17.797378   1.000000
    225        -17.794865   1.000000
    226        -17.794316   1.000000
    227        -17.786800   1.000000
    228        -17.786371   1.000000
    229        -17.785771   1.000000
    230        -17.784644   1.000000
    231        -17.783410   1.000000
    232        -17.781773   1.000000
    233        -17.779320   1.000000
    234        -17.778536   1.000000
    235        -17.774505   1.000000
    236        -17.773120   1.000000
    237        -17.771759   1.000000
    238        -17.769924   1.000000
    239        -17.769063   1.000000
    240        -17.768232   1.000000
    241        -17.767692   1.000000
    242        -17.767172   1.000000
    243        -17.766946   1.000000
    244        -17.766273   1.000000
    245        -17.761954   1.000000
    246        -17.755024   1.000000
    247        -17.742286   1.000000
    248        -17.734975   1.000000
    249        -17.733011   1.000000
    250        -17.732500   1.000000
    251        -17.730596   1.000000
    252        -17.728196   1.000000
    253        -17.728056   1.000000
    254        -17.727107   1.000000
    255        -17.724946   1.000000
    256        -17.723971   1.000000
    257        -17.707715   1.000000
    258        -17.705357   1.000000
    259        -17.704413   1.000000
    260        -17.702617   1.000000
    261        -17.701794   1.000000
    262        -17.701222   1.000000
    263        -17.699381   1.000000
    264        -17.698843   1.000000
    265        -17.697063   1.000000
    266        -17.692314   1.000000
    267        -17.688743   1.000000
    268        -17.685102   1.000000
    269        -17.684157   1.000000
    270        -17.682738   1.000000
    271        -17.676475   1.000000
    272        -17.675072   1.000000
    273        -17.673584   1.000000
    274        -17.670675   1.000000
    275        -17.669627   1.000000
    276        -17.668997   1.000000
    277        -17.668532   1.000000
    278        -17.664105   1.000000
    279        -17.662864   1.000000
    280        -17.660479   1.000000
    281        -17.660227   1.000000
    282        -17.659021   1.000000
    283        -17.655977   1.000000
    284        -17.654880   1.000000
    285        -17.654622   1.000000
    286        -17.654094   1.000000
    287        -17.653147   1.000000
    288        -17.651746   1.000000
    289        -17.650398   1.000000
    290        -17.649189   1.000000
    291        -17.648742   1.000000
    292        -17.647787   1.000000
    293        -17.647250   1.000000
    294        -17.646486   1.000000
    295        -17.646014   1.000000
    296        -17.644520   1.000000
    297        -17.643836   1.000000
    298        -17.643271   1.000000
    299        -17.636659   1.000000
    300        -17.631497   1.000000
    301        -17.630470   1.000000
    302        -17.625813   1.000000
    303        -17.625450   1.000000
    304        -17.621143   1.000000
    305        -17.619317   1.000000
    306        -17.618627   1.000000
    307        -17.618040   1.000000
    308        -17.617857   1.000000
    309        -17.615078   1.000000
    310        -17.614386   1.000000
    311        -17.612612   1.000000
    312        -17.611745   1.000000
    313        -17.595472   1.000000
    314        -17.593418   1.000000
    315        -17.592307   1.000000
    316        -17.591091   1.000000
    317        -17.586926   1.000000
    318        -17.586563   1.000000
    319        -17.585365   1.000000
    320        -17.583717   1.000000
    321        -17.583600   1.000000
    322        -17.582379   1.000000
    323        -17.581416   1.000000
    324        -17.581002   1.000000
    325        -17.580917   1.000000
    326        -17.580323   1.000000
    327        -17.579543   1.000000
    328        -17.576611   1.000000
    329        -17.576354   1.000000
    330        -17.575820   1.000000
    331        -17.575061   1.000000
    332        -17.572382   1.000000
    333        -17.572283   1.000000
    334        -17.571750   1.000000
    335        -17.571645   1.000000
    336        -17.565428   1.000000
    337        -17.562016   1.000000
    338        -17.560877   1.000000
    339        -17.560151   1.000000
    340        -17.559247   1.000000
    341        -17.555836   1.000000
    342        -17.553344   1.000000
    343        -17.550260   1.000000
    344        -17.548836   1.000000
    345        -17.546372   1.000000
    346        -17.546245   1.000000
    347        -17.545108   1.000000
    348        -17.544871   1.000000
    349        -17.543428   1.000000
    350        -17.543126   1.000000
    351        -17.542177   1.000000
    352        -17.539173   1.000000
    353        -17.538072   1.000000
    354        -17.537143   1.000000
    355        -17.537045   1.000000
    356        -17.535581   1.000000
    357        -17.535415   1.000000
    358        -17.534280   1.000000
    359        -17.534195   1.000000
    360        -17.531101   1.000000
    361        -17.528115   1.000000
    362        -17.522304   1.000000
    363        -17.516173   1.000000
    364        -17.515444   1.000000
    365        -17.513381   1.000000
    366        -17.512497   1.000000
    367        -17.497354   1.000000
    368        -17.497161   1.000000
    369        -17.495209   1.000000
    370        -17.495017   1.000000
    371        -17.494015   1.000000
    372        -17.490993   1.000000
    373        -17.489901   1.000000
    374        -17.475477   1.000000
    375        -17.474667   1.000000
    376        -17.470267   1.000000
    377        -17.469104   1.000000
    378        -17.465648   1.000000
    379        -17.460295   1.000000
    380        -17.457306   1.000000
    381        -17.448281   1.000000
    382        -17.446084   1.000000
    383        -17.434841   1.000000
    384        -17.422446   1.000000
    385          2.446152   1.000000
    386          3.481084   1.000000
    387          4.222977   1.000000
    388          4.251470   1.000000
    389          4.336035   1.000000
    390          4.575914   1.000000
    391          4.643019   1.000000
    392          4.944778   1.000000
    393          4.983676   1.000000
    394          5.201131   1.000000
    395          5.212391   1.000000
    396          5.231775   1.000000
    397          5.233595   1.000000
    398          5.234742   1.000000
    399          5.332370   1.000000
    400          5.459723   1.000000
    401          5.651657   1.000000
    402          5.653661   1.000000
    403          5.654772   1.000000
    404          5.690423   1.000000
    405          5.742805   1.000000
    406          5.751091   1.000000
    407          5.764193   1.000000
    408          5.823724   1.000000
    409          5.914842   1.000000
    410          5.932125   1.000000
    411          5.978255   1.000000
    412          5.978741   1.000000
    413          5.984008   1.000000
    414          6.005292   1.000000
    415          6.065505   1.000000
    416          6.267508   1.000000
    417          6.306419   1.000000
    418          6.325192   1.000000
    419          6.393222   1.000000
    420          6.395201   1.000000
    421          6.395366   1.000000
    422          6.408399   1.000000
    423          6.434249   1.000000
    424          6.437671   1.000000
    425          6.442676   1.000000
    426          6.457066   1.000000
    427          6.463711   1.000000
    428          6.473759   1.000000
    429          6.500837   1.000000
    430          6.500890   1.000000
    431          6.506854   1.000000
    432          6.510395   1.000000
    433          6.517004   1.000000
    434          6.518729   1.000000
    435          6.519759   1.000000
    436          6.531556   1.000000
    437          6.548105   1.000000
    438          6.558236   1.000000
    439          6.603868   1.000000
    440          6.675776   1.000000
    441          6.676033   1.000000
    442          6.678223   1.000000
    443          6.681070   1.000000
    444          6.695606   1.000000
    445          6.704915   1.000000
    446          6.735935   1.000000
    447          6.772718   1.000000
    448          6.788308   1.000000
    449          6.800928   1.000000
    450          6.803058   1.000000
    451          6.805410   1.000000
    452          6.831748   1.000000
    453          6.842584   1.000000
    454          6.850437   1.000000
    455          6.863456   1.000000
    456          6.863632   1.000000
    457          6.866059   1.000000
    458          6.880529   1.000000
    459          6.893033   1.000000
    460          6.897687   1.000000
    461          6.902462   1.000000
    462          6.902596   1.000000
    463          6.903865   1.000000
    464          6.906261   1.000000
    465          6.907000   1.000000
    466          6.914087   1.000000
    467          6.915679   1.000000
    468          6.974040   1.000000
    469          6.992864   1.000000
    470          6.994324   1.000000
    471          6.996256   1.000000
    472          6.998409   1.000000
    473          7.002585   1.000000
    474          7.015534   1.000000
    475          7.028415   1.000000
    476          7.114962   1.000000
    477          7.199854   1.000000
    478          7.201433   1.000000
    479          7.202803   1.000000
    480          7.204365   1.000000
    481          7.205894   1.000000
    482          7.212912   1.000000
    483          7.219699   1.000000
    484          7.226804   1.000000
    485          7.228103   1.000000
    486          7.338255   1.000000
    487          7.406310   1.000000
    488          7.432200   1.000000
    489          7.483240   1.000000
    490          7.497001   1.000000
    491          7.529787   1.000000
    492          7.628311   1.000000
    493          7.645848   1.000000
    494          7.648644   1.000000
    495          7.659587   1.000000
    496          7.664718   1.000000
    497          7.673550   1.000000
    498          7.681825   1.000000
    499          7.686416   1.000000
    500          7.688581   1.000000
    501          7.689818   1.000000
    502          7.692899   1.000000
    503          7.703321   1.000000
    504          7.707296   1.000000
    505          7.709737   1.000000
    506          7.716192   1.000000
    507          7.748737   1.000000
    508          7.750131   1.000000
    509          7.769662   1.000000
    510          7.789441   1.000000
    511          7.791934   1.000000
    512          7.792950   1.000000
    513          7.809839   1.000000
    514          7.833103   1.000000
    515          7.835006   1.000000
    516          7.840210   1.000000
    517          7.843647   1.000000
    518          7.846000   1.000000
    519          7.848325   1.000000
    520          7.851975   1.000000
    521          7.855099   1.000000
    522          7.855755   1.000000
    523          7.877227   1.000000
    524          7.881829   1.000000
    525          7.998735   1.000000
    526          8.039008   1.000000
    527          8.051804   1.000000
    528          8.054061   1.000000
    529          8.071601   1.000000
    530          8.083786   1.000000
    531          8.089803   1.000000
    532          8.091631   1.000000
    533          8.092909   1.000000
    534          8.096367   1.000000
    535          8.178967   1.000000
    536          8.207018   1.000001
    537          8.207345   1.000001
    538          8.211446   1.000001
    539          8.257816   1.000005
    540          8.295007   1.000015
    541          8.297225   1.000016
    542          8.302280   1.000019
    543          8.304814   1.000021
    544          8.321932   1.000035
    545          8.322115   1.000035
    546          8.324517   1.000038
    547          8.385361   1.000207
    548          8.409730   1.000386
    549          8.415457   1.000445
    550          8.424883   1.000560
    551          8.438303   1.000771
    552          8.445418   1.000909
    553          8.445642   1.000914
    554          8.452013   1.001056
    555          8.455713   1.001148
    556          8.484499   1.002132
    557          8.493364   1.002555
    558          8.494535   1.002616
    559          8.500200   1.002928
    560          8.604647   1.016124
    561          8.627870   1.021172
    562          8.640055   1.023978
    563          8.643072   1.024676
    564          8.644791   1.025074
    565          8.646653   1.025503
    566          8.648044   1.025823
    567          8.652870   1.026923
    568          8.666521   1.029896
    569          8.772211   1.014633
    570          8.812192   0.966532
    571          8.813849   0.963764
    572          8.816900   0.958492
    573          8.828285   0.936806
    574          8.838685   0.914160
    575          8.844944   0.899216
    576          8.875884   0.811087
    577          8.899040   0.730940
    578          8.902478   0.718154
    579          8.905466   0.706876
    580          8.911893   0.682134
    581          9.035989   0.190049
    582          9.071522   0.090553
    583          9.076392   0.079362
    584          9.080122   0.071194
    585          9.082379   0.066422
    586          9.092087   0.047353
    587          9.095345   0.041474
    588          9.097102   0.038413
    589          9.102333   0.029737
    590          9.105816   0.024322
    591          9.117284   0.008470
    592          9.119157   0.006161
    593          9.125178  -0.000752
    594          9.126416  -0.002078
    595          9.139115  -0.013911
    596          9.141215  -0.015570
    597          9.154520  -0.024281
    598          9.167023  -0.029901
    599          9.168952  -0.030571
    600          9.171520  -0.031385
    601          9.177041  -0.032856
    602          9.178717  -0.033230
    603          9.189667  -0.034918
    604          9.199862  -0.035452
    605          9.267513  -0.025056
    606          9.274151  -0.023520
    607          9.279922  -0.022187
    608          9.281843  -0.021746
    609          9.293566  -0.019106
    610          9.297439  -0.018260
    611          9.301901  -0.017305
    612          9.314958  -0.014655
    613          9.359408  -0.007577
    614          9.372511  -0.006079
    615          9.373565  -0.005970
    616          9.374121  -0.005913
    617          9.447659  -0.001396
    618          9.450800  -0.001303
    619          9.494638  -0.000469
    620          9.509371  -0.000325
    621          9.513477  -0.000293
    622          9.515574  -0.000277
    623          9.518003  -0.000260
    624          9.538323  -0.000152
    625          9.601625  -0.000025
    626          9.612014  -0.000018
    627          9.624743  -0.000012
    628          9.626003  -0.000012
    629          9.634495  -0.000009
    630          9.634684  -0.000009
    631          9.677260  -0.000002
    632          9.683415  -0.000002
    633          9.694526  -0.000001
    634          9.696275  -0.000001
    635          9.698143  -0.000001
    636          9.703911  -0.000001
    637          9.713900  -0.000001
    638          9.731469  -0.000000
    639          9.739833  -0.000000
    640          9.756165  -0.000000
    641          9.767021  -0.000000
    642          9.769210  -0.000000
    643          9.782940  -0.000000
    644          9.783158  -0.000000
    645          9.790120  -0.000000
    646          9.790950  -0.000000
    647          9.802102  -0.000000
    648          9.808363  -0.000000
    649          9.814138  -0.000000
    650          9.814583  -0.000000
    651          9.819312  -0.000000
    652          9.853311  -0.000000
    653          9.867885  -0.000000
    654          9.896953  -0.000000
    655          9.901957  -0.000000
    656          9.909364  -0.000000
    657          9.910246  -0.000000
    658          9.910944  -0.000000
    659          9.943644  -0.000000
    660          9.953854  -0.000000
    661          9.974627  -0.000000
    662          9.982889  -0.000000
    663         10.007340  -0.000000
    664         10.007356  -0.000000
    665         10.019352  -0.000000
    666         10.028146  -0.000000
    667         10.029868  -0.000000
    668         10.033135  -0.000000
    669         10.037801  -0.000000
    670         10.069940  -0.000000
    671         10.078668  -0.000000
    672         10.154091  -0.000000
    673         10.162143  -0.000000
    674         10.171929  -0.000000
    675         10.173389  -0.000000
    676         10.178829  -0.000000
    677         10.188866  -0.000000
    678         10.194519  -0.000000
    679         10.245008  -0.000000
    680         10.247859  -0.000000
    681         10.261831  -0.000000
    682         10.269924  -0.000000
    683         10.273201  -0.000000
    684         10.279624  -0.000000
    685         10.292644  -0.000000
    686         10.322207  -0.000000
    687         10.331878  -0.000000
    688         10.334429  -0.000000
    689         10.336210  -0.000000
    690         10.368983  -0.000000
    691         10.372446  -0.000000
    692         10.380754  -0.000000
 
  0.1345275E-16  0.2500000E+00  0.0000000E+00  0.4166667E-01
      1        -39.905182   1.000000
      2        -39.878676   1.000000
      3        -39.866605   1.000000
      4        -39.864715   1.000000
      5        -39.858772   1.000000
      6        -39.854998   1.000000
      7        -39.843869   1.000000
      8        -39.839491   1.000000
      9        -39.838363   1.000000
     10        -39.837648   1.000000
     11        -39.828133   1.000000
     12        -39.825580   1.000000
     13        -39.825186   1.000000
     14        -39.822850   1.000000
     15        -39.822044   1.000000
     16        -39.813907   1.000000
     17        -39.810107   1.000000
     18        -39.809438   1.000000
     19        -39.803659   1.000000
     20        -39.803016   1.000000
     21        -39.798650   1.000000
     22        -39.795143   1.000000
     23        -39.794429   1.000000
     24        -39.792102   1.000000
     25        -39.787271   1.000000
     26        -39.785123   1.000000
     27        -39.784725   1.000000
     28        -39.781302   1.000000
     29        -39.778440   1.000000
     30        -39.775307   1.000000
     31        -39.772889   1.000000
     32        -39.772191   1.000000
     33        -39.770186   1.000000
     34        -39.769992   1.000000
     35        -39.768905   1.000000
     36        -39.768649   1.000000
     37        -39.767481   1.000000
     38        -39.767338   1.000000
     39        -39.765175   1.000000
     40        -39.763770   1.000000
     41        -39.763047   1.000000
     42        -39.762914   1.000000
     43        -39.761485   1.000000
     44        -39.760535   1.000000
     45        -39.760330   1.000000
     46        -39.758834   1.000000
     47        -39.758040   1.000000
     48        -39.756671   1.000000
     49        -39.756494   1.000000
     50        -39.754799   1.000000
     51        -39.754073   1.000000
     52        -39.753312   1.000000
     53        -39.752922   1.000000
     54        -39.752268   1.000000
     55        -39.752083   1.000000
     56        -39.749951   1.000000
     57        -39.749329   1.000000
     58        -39.748903   1.000000
     59        -39.747128   1.000000
     60        -39.746866   1.000000
     61        -39.745402   1.000000
     62        -39.745196   1.000000
     63        -39.742918   1.000000
     64        -39.742300   1.000000
     65        -39.740033   1.000000
     66        -39.739605   1.000000
     67        -39.738309   1.000000
     68        -39.737080   1.000000
     69        -39.735595   1.000000
     70        -39.734578   1.000000
     71        -39.734410   1.000000
     72        -39.734075   1.000000
     73        -39.733100   1.000000
     74        -39.732806   1.000000
     75        -39.732153   1.000000
     76        -39.731933   1.000000
     77        -39.731521   1.000000
     78        -39.730887   1.000000
     79        -39.729408   1.000000
     80        -39.728579   1.000000
     81        -39.727361   1.000000
     82        -39.727102   1.000000
     83        -39.725695   1.000000
     84        -39.724827   1.000000
     85        -39.724254   1.000000
     86        -39.723527   1.000000
     87        -39.722598   1.000000
     88        -39.721251   1.000000
     89        -39.719205   1.000000
     90        -39.718351   1.000000
     91        -39.715295   1.000000
     92        -39.715004   1.000000
     93        -39.714101   1.000000
     94        -39.713833   1.000000
     95        -39.713530   1.000000
     96        -39.712286   1.000000
     97        -18.406778   1.000000
     98        -18.342136   1.000000
     99        -18.320469   1.000000
    100        -18.320123   1.000000
    101        -18.319138   1.000000
    102        -18.317210   1.000000
    103        -18.315996   1.000000
    104        -18.312978   1.000000
    105        -18.278098   1.000000
    106        -18.275050   1.000000
    107        -18.262554   1.000000
    108        -18.236093   1.000000
    109        -18.234259   1.000000
    110        -18.233591   1.000000
    111        -18.232201   1.000000
    112        -18.231411   1.000000
    113        -18.229256   1.000000
    114        -18.226813   1.000000
    115        -18.225225   1.000000
    116        -18.223074   1.000000
    117        -18.223007   1.000000
    118        -18.218990   1.000000
    119        -18.214334   1.000000
    120        -18.210538   1.000000
    121        -18.208156   1.000000
    122        -18.207241   1.000000
    123        -18.205893   1.000000
    124        -18.204419   1.000000
    125        -18.203590   1.000000
    126        -18.203568   1.000000
    127        -18.202303   1.000000
    128        -18.202042   1.000000
    129        -18.201534   1.000000
    130        -18.199300   1.000000
    131        -18.199186   1.000000
    132        -18.185026   1.000000
    133        -18.181614   1.000000
    134        -18.181504   1.000000
    135        -18.178253   1.000000
    136        -18.178012   1.000000
    137        -18.175215   1.000000
    138        -18.171155   1.000000
    139        -18.168979   1.000000
    140        -18.168363   1.000000
    141        -18.166404   1.000000
    142        -18.166261   1.000000
    143        -18.165131   1.000000
    144        -18.164974   1.000000
    145        -18.164691   1.000000
    146        -18.163978   1.000000
    147        -18.161336   1.000000
    148        -18.159334   1.000000
    149        -18.158569   1.000000
    150        -18.156277   1.000000
    151        -18.155747   1.000000
    152        -18.153833   1.000000
    153        -18.140002   1.000000
    154        -18.137721   1.000000
    155        -18.133387   1.000000
    156        -18.132278   1.000000
    157        -18.126158   1.000000
    158        -18.125922   1.000000
    159        -18.124277   1.000000
    160        -18.123756   1.000000
    161        -18.073735   1.000000
    162        -18.070774   1.000000
    163        -18.070638   1.000000
    164        -18.066751   1.000000
    165        -18.064775   1.000000
    166        -18.064140   1.000000
    167        -18.058723   1.000000
    168        -18.054378   1.000000
    169        -18.053391   1.000000
    170        -18.037369   1.000000
    171        -18.021046   1.000000
    172        -18.020233   1.000000
    173        -18.018311   1.000000
    174        -18.013065   1.000000
    175        -18.012150   1.000000
    176        -18.006700   1.000000
    177        -18.005288   1.000000
    178        -18.004219   1.000000
    179        -18.002895   1.000000
    180        -18.001425   1.000000
    181        -17.999904   1.000000
    182        -17.998367   1.000000
    183        -17.995779   1.000000
    184        -17.990887   1.000000
    185        -17.990720   1.000000
    186        -17.972745   1.000000
    187        -17.969520   1.000000
    188        -17.954255   1.000000
    189        -17.949774   1.000000
    190        -17.949682   1.000000
    191        -17.948698   1.000000
    192        -17.929895   1.000000
    193        -17.925979   1.000000
    194        -17.896995   1.000000
    195        -17.896619   1.000000
    196        -17.893140   1.000000
    197        -17.892781   1.000000
    198        -17.890919   1.000000
    199        -17.890544   1.000000
    200        -17.886009   1.000000
    201        -17.877644   1.000000
    202        -17.872999   1.000000
    203        -17.872301   1.000000
    204        -17.869690   1.000000
    205        -17.851809   1.000000
    206        -17.848240   1.000000
    207        -17.843165   1.000000
    208        -17.841428   1.000000
    209        -17.835734   1.000000
    210        -17.834629   1.000000
    211        -17.831386   1.000000
    212        -17.829166   1.000000
    213        -17.828634   1.000000
    214        -17.826801   1.000000
    215        -17.825271   1.000000
    216        -17.824851   1.000000
    217        -17.818016   1.000000
    218        -17.815691   1.000000
    219        -17.815247   1.000000
    220        -17.812484   1.000000
    221        -17.806415   1.000000
    222        -17.801617   1.000000
    223        -17.799586   1.000000
    224        -17.797309   1.000000
    225        -17.794950   1.000000
    226        -17.794419   1.000000
    227        -17.786710   1.000000
    228        -17.786278   1.000000
    229        -17.785598   1.000000
    230        -17.784631   1.000000
    231        -17.783454   1.000000
    232        -17.781693   1.000000
    233        -17.779309   1.000000
    234        -17.778473   1.000000
    235        -17.774466   1.000000
    236        -17.773244   1.000000
    237        -17.771826   1.000000
    238        -17.770051   1.000000
    239        -17.768922   1.000000
    240        -17.768153   1.000000
    241        -17.767730   1.000000
    242        -17.767217   1.000000
    243        -17.767151   1.000000
    244        -17.766246   1.000000
    245        -17.761988   1.000000
    246        -17.755051   1.000000
    247        -17.742241   1.000000
    248        -17.734996   1.000000
    249        -17.733102   1.000000
    250        -17.732662   1.000000
    251        -17.730318   1.000000
    252        -17.728185   1.000000
    253        -17.728044   1.000000
    254        -17.727187   1.000000
    255        -17.724962   1.000000
    256        -17.724098   1.000000
    257        -17.707745   1.000000
    258        -17.705301   1.000000
    259        -17.704385   1.000000
    260        -17.702629   1.000000
    261        -17.701889   1.000000
    262        -17.701236   1.000000
    263        -17.699409   1.000000
    264        -17.698812   1.000000
    265        -17.697009   1.000000
    266        -17.692272   1.000000
    267        -17.688754   1.000000
    268        -17.685102   1.000000
    269        -17.684323   1.000000
    270        -17.682783   1.000000
    271        -17.676417   1.000000
    272        -17.675030   1.000000
    273        -17.673641   1.000000
    274        -17.670771   1.000000
    275        -17.669547   1.000000
    276        -17.668854   1.000000
    277        -17.668067   1.000000
    278        -17.664173   1.000000
    279        -17.662713   1.000000
    280        -17.660397   1.000000
    281        -17.660199   1.000000
    282        -17.659030   1.000000
    283        -17.655958   1.000000
    284        -17.654968   1.000000
    285        -17.654494   1.000000
    286        -17.653980   1.000000
    287        -17.653071   1.000000
    288        -17.651731   1.000000
    289        -17.650487   1.000000
    290        -17.649137   1.000000
    291        -17.648786   1.000000
    292        -17.647754   1.000000
    293        -17.647320   1.000000
    294        -17.646502   1.000000
    295        -17.646013   1.000000
    296        -17.644491   1.000000
    297        -17.643854   1.000000
    298        -17.643418   1.000000
    299        -17.636742   1.000000
    300        -17.631532   1.000000
    301        -17.630495   1.000000
    302        -17.625862   1.000000
    303        -17.625421   1.000000
    304        -17.621281   1.000000
    305        -17.619235   1.000000
    306        -17.618619   1.000000
    307        -17.618035   1.000000
    308        -17.617889   1.000000
    309        -17.615030   1.000000
    310        -17.614549   1.000000
    311        -17.612683   1.000000
    312        -17.611851   1.000000
    313        -17.595379   1.000000
    314        -17.593381   1.000000
    315        -17.592235   1.000000
    316        -17.591206   1.000000
    317        -17.586990   1.000000
    318        -17.586707   1.000000
    319        -17.585307   1.000000
    320        -17.583837   1.000000
    321        -17.583663   1.000000
    322        -17.582413   1.000000
    323        -17.581418   1.000000
    324        -17.581080   1.000000
    325        -17.580859   1.000000
    326        -17.580303   1.000000
    327        -17.579553   1.000000
    328        -17.576490   1.000000
    329        -17.576168   1.000000
    330        -17.575809   1.000000
    331        -17.575009   1.000000
    332        -17.572489   1.000000
    333        -17.572299   1.000000
    334        -17.571814   1.000000
    335        -17.571664   1.000000
    336        -17.565407   1.000000
    337        -17.562008   1.000000
    338        -17.560910   1.000000
    339        -17.560188   1.000000
    340        -17.559332   1.000000
    341        -17.555809   1.000000
    342        -17.553346   1.000000
    343        -17.550216   1.000000
    344        -17.548773   1.000000
    345        -17.546374   1.000000
    346        -17.546245   1.000000
    347        -17.545107   1.000000
    348        -17.544947   1.000000
    349        -17.543366   1.000000
    350        -17.543104   1.000000
    351        -17.542179   1.000000
    352        -17.539038   1.000000
    353        -17.538061   1.000000
    354        -17.537292   1.000000
    355        -17.537007   1.000000
    356        -17.535610   1.000000
    357        -17.535356   1.000000
    358        -17.534386   1.000000
    359        -17.534098   1.000000
    360        -17.531071   1.000000
    361        -17.528100   1.000000
    362        -17.522293   1.000000
    363        -17.516198   1.000000
    364        -17.515418   1.000000
    365        -17.513296   1.000000
    366        -17.512524   1.000000
    367        -17.497146   1.000000
    368        -17.497063   1.000000
    369        -17.495270   1.000000
    370        -17.495060   1.000000
    371        -17.494014   1.000000
    372        -17.491085   1.000000
    373        -17.489972   1.000000
    374        -17.475502   1.000000
    375        -17.474682   1.000000
    376        -17.470296   1.000000
    377        -17.469081   1.000000
    378        -17.465535   1.000000
    379        -17.460310   1.000000
    380        -17.457242   1.000000
    381        -17.448404   1.000000
    382        -17.446060   1.000000
    383        -17.434838   1.000000
    384        -17.422471   1.000000
    385          2.446153   1.000000
    386          3.481079   1.000000
    387          4.222987   1.000000
    388          4.251474   1.000000
    389          4.336056   1.000000
    390          4.575980   1.000000
    391          4.642889   1.000000
    392          4.944767   1.000000
    393          4.983686   1.000000
    394          5.201155   1.000000
    395          5.212279   1.000000
    396          5.231918   1.000000
    397          5.233550   1.000000
    398          5.234753   1.000000
    399          5.332366   1.000000
    400          5.459748   1.000000
    401          5.651794   1.000000
    402          5.653629   1.000000
    403          5.654820   1.000000
    404          5.690385   1.000000
    405          5.742760   1.000000
    406          5.751037   1.000000
    407          5.764200   1.000000
    408          5.823678   1.000000
    409          5.914814   1.000000
    410          5.932190   1.000000
    411          5.978293   1.000000
    412          5.978768   1.000000
    413          5.983960   1.000000
    414          6.005302   1.000000
    415          6.065484   1.000000
    416          6.267685   1.000000
    417          6.306429   1.000000
    418          6.325191   1.000000
    419          6.393353   1.000000
    420          6.395175   1.000000
    421          6.395481   1.000000
    422          6.408195   1.000000
    423          6.434125   1.000000
    424          6.437785   1.000000
    425          6.442760   1.000000
    426          6.456809   1.000000
    427          6.463486   1.000000
    428          6.473869   1.000000
    429          6.500801   1.000000
    430          6.501074   1.000000
    431          6.506780   1.000000
    432          6.510375   1.000000
    433          6.517120   1.000000
    434          6.518827   1.000000
    435          6.519891   1.000000
    436          6.531815   1.000000
    437          6.548124   1.000000
    438          6.558142   1.000000
    439          6.603576   1.000000
    440          6.675709   1.000000
    441          6.675870   1.000000
    442          6.678149   1.000000
    443          6.681014   1.000000
    444          6.695639   1.000000
    445          6.704924   1.000000
    446          6.735896   1.000000
    447          6.772622   1.000000
    448          6.788119   1.000000
    449          6.800956   1.000000
    450          6.802985   1.000000
    451          6.805595   1.000000
    452          6.831567   1.000000
    453          6.842207   1.000000
    454          6.850258   1.000000
    455          6.863518   1.000000
    456          6.863725   1.000000
    457          6.866043   1.000000
    458          6.880793   1.000000
    459          6.893421   1.000000
    460          6.897536   1.000000
    461          6.902444   1.000000
    462          6.902706   1.000000
    463          6.904044   1.000000
    464          6.906283   1.000000
    465          6.907017   1.000000
    466          6.914289   1.000000
    467          6.915946   1.000000
    468          6.974139   1.000000
    469          6.992944   1.000000
    470          6.994350   1.000000
    471          6.996339   1.000000
    472          6.998080   1.000000
    473          7.002208   1.000000
    474          7.015304   1.000000
    475          7.028423   1.000000
    476          7.114911   1.000000
    477          7.199834   1.000000
    478          7.201313   1.000000
    479          7.202895   1.000000
    480          7.204397   1.000000
    481          7.205708   1.000000
    482          7.212862   1.000000
    483          7.219877   1.000000
    484          7.226804   1.000000
    485          7.228298   1.000000
    486          7.338168   1.000000
    487          7.406311   1.000000
    488          7.431890   1.000000
    489          7.483307   1.000000
    490          7.497216   1.000000
    491          7.530237   1.000000
    492          7.628347   1.000000
    493          7.645859   1.000000
    494          7.648630   1.000000
    495          7.659237   1.000000
    496          7.664808   1.000000
    497          7.673563   1.000000
    498          7.681970   1.000000
    499          7.686413   1.000000
    500          7.688528   1.000000
    501          7.689778   1.000000
    502          7.693053   1.000000
    503          7.703489   1.000000
    504          7.707707   1.000000
    505          7.709959   1.000000
    506          7.716247   1.000000
    507          7.748256   1.000000
    508          7.750231   1.000000
    509          7.769594   1.000000
    510          7.789510   1.000000
    511          7.791761   1.000000
    512          7.793142   1.000000
    513          7.809608   1.000000
    514          7.833262   1.000000
    515          7.835173   1.000000
    516          7.840117   1.000000
    517          7.843561   1.000000
    518          7.846152   1.000000
    519          7.848061   1.000000
    520          7.852159   1.000000
    521          7.855127   1.000000
    522          7.855524   1.000000
    523          7.877088   1.000000
    524          7.881752   1.000000
    525          7.998382   1.000000
    526          8.039135   1.000000
    527          8.052009   1.000000
    528          8.054088   1.000000
    529          8.071491   1.000000
    530          8.084053   1.000000
    531          8.089974   1.000000
    532          8.091405   1.000000
    533          8.092645   1.000000
    534          8.096078   1.000000
    535          8.178787   1.000000
    536          8.207115   1.000001
    537          8.207782   1.000001
    538          8.211855   1.000001
    539          8.257494   1.000005
    540          8.295244   1.000015
    541          8.297015   1.000016
    542          8.302034   1.000019
    543          8.304640   1.000021
    544          8.321487   1.000034
    545          8.322261   1.000035
    546          8.324831   1.000038
    547          8.385233   1.000206
    548          8.410098   1.000390
    549          8.415125   1.000442
    550          8.424742   1.000559
    551          8.438426   1.000773
    552          8.445343   1.000907
    553          8.445686   1.000914
    554          8.451652   1.001048
    555          8.455274   1.001136
    556          8.484389   1.002127
    557          8.493537   1.002564
    558          8.494473   1.002612
    559          8.500016   1.002917
    560          8.604621   1.016119
    561          8.628012   1.021204
    562          8.640289   1.024032
    563          8.643083   1.024679
    564          8.644668   1.025045
    565          8.647028   1.025589
    566          8.647696   1.025743
    567          8.652739   1.026893
    568          8.666435   1.029878
    569          8.771873   1.014899
    570          8.812212   0.966499
    571          8.813738   0.963951
    572          8.817243   0.957887
    573          8.828511   0.936343
    574          8.838461   0.914677
    575          8.845321   0.898285
    576          8.875977   0.810790
    577          8.898815   0.731769
    578          8.902709   0.717285
    579          8.905587   0.706415
    580          8.912058   0.681493
    581          9.035904   0.190324
    582          9.071969   0.089502
    583          9.076554   0.078999
    584          9.080403   0.070594
    585          9.082503   0.066164
    586          9.092255   0.047043
    587          9.095854   0.040579
    588          9.097216   0.038216
    589          9.102860   0.028899
    590          9.105660   0.024558
    591          9.117116   0.008681
    592          9.119628   0.005592
    593          9.124972  -0.000527
    594          9.126613  -0.002286
    595          9.138845  -0.013692
    596          9.141151  -0.015521
    597          9.154335  -0.024180
    598          9.167066  -0.029917
    599          9.168808  -0.030522
    600          9.171624  -0.031416
    601          9.177173  -0.032886
    602          9.178848  -0.033258
    603          9.189098  -0.034860
    604          9.199581  -0.035449
    605          9.267186  -0.025131
    606          9.274510  -0.023437
    607          9.279299  -0.022331
    608          9.282480  -0.021601
    609          9.293528  -0.019114
    610          9.297045  -0.018345
    611          9.301544  -0.017380
    612          9.314978  -0.014651
    613          9.359457  -0.007571
    614          9.372644  -0.006065
    615          9.373635  -0.005962
    616          9.374269  -0.005897
    617          9.447582  -0.001398
    618          9.450710  -0.001305
    619          9.494487  -0.000471
    620          9.509520  -0.000324
    621          9.513487  -0.000293
    622          9.515391  -0.000279
    623          9.517509  -0.000264
    624          9.538370  -0.000152
    625          9.601749  -0.000025
    626          9.612021  -0.000018
    627          9.624683  -0.000012
    628          9.626142  -0.000012
    629          9.634458  -0.000009
    630          9.634923  -0.000009
    631          9.676994  -0.000002
    632          9.683799  -0.000002
    633          9.694286  -0.000001
    634          9.696655  -0.000001
    635          9.698669  -0.000001
    636          9.704100  -0.000001
    637          9.713106  -0.000001
    638          9.730771  -0.000000
    639          9.739785  -0.000000
    640          9.756466  -0.000000
    641          9.766709  -0.000000
    642          9.769250  -0.000000
    643          9.782632  -0.000000
    644          9.783894  -0.000000
    645          9.790256  -0.000000
    646          9.791166  -0.000000
    647          9.802501  -0.000000
    648          9.808033  -0.000000
    649          9.813997  -0.000000
    650          9.815009  -0.000000
    651          9.819293  -0.000000
    652          9.852990  -0.000000
    653          9.868088  -0.000000
    654          9.896866  -0.000000
    655          9.902520  -0.000000
    656          9.909496  -0.000000
    657          9.910454  -0.000000
    658          9.911018  -0.000000
    659          9.942863  -0.000000
    660          9.953609  -0.000000
    661          9.975088  -0.000000
    662          9.982443  -0.000000
    663         10.006643  -0.000000
    664         10.007672  -0.000000
    665         10.019466  -0.000000
    666         10.028896  -0.000000
    667         10.030199  -0.000000
    668         10.033175  -0.000000
    669         10.037924  -0.000000
    670         10.069566  -0.000000
    671         10.078310  -0.000000
    672         10.154321  -0.000000
    673         10.162325  -0.000000
    674         10.172499  -0.000000
    675         10.173176  -0.000000
    676         10.178617  -0.000000
    677         10.188608  -0.000000
    678         10.194424  -0.000000
    679         10.244814  -0.000000
    680         10.247930  -0.000000
    681         10.262651  -0.000000
    682         10.270058  -0.000000
    683         10.273137  -0.000000
    684         10.279764  -0.000000
    685         10.292298  -0.000000
    686         10.321714  -0.000000
    687         10.331750  -0.000000
    688         10.334274  -0.000000
    689         10.336145  -0.000000
    690         10.369696  -0.000000
    691         10.373005  -0.000000
    692         10.386768  -0.000000
 
 -0.2500000E+00  0.2500000E+00  0.0000000E+00  0.4166667E-01
      1        -39.905182   1.000000
      2        -39.878676   1.000000
      3        -39.866605   1.000000
      4        -39.864715   1.000000
      5        -39.858772   1.000000
      6        -39.854998   1.000000
      7        -39.843869   1.000000
      8        -39.839491   1.000000
      9        -39.838363   1.000000
     10        -39.837648   1.000000
     11        -39.828133   1.000000
     12        -39.825580   1.000000
     13        -39.825186   1.000000
     14        -39.822850   1.000000
     15        -39.822044   1.000000
     16        -39.813907   1.000000
     17        -39.810107   1.000000
     18        -39.809438   1.000000
     19        -39.803659   1.000000
     20        -39.803016   1.000000
     21        -39.798650   1.000000
     22        -39.795143   1.000000
     23        -39.794429   1.000000
     24        -39.792101   1.000000
     25        -39.787271   1.000000
     26        -39.785123   1.000000
     27        -39.784725   1.000000
     28        -39.781302   1.000000
     29        -39.778440   1.000000
     30        -39.775307   1.000000
     31        -39.772889   1.000000
     32        -39.772191   1.000000
     33        -39.770186   1.000000
     34        -39.769992   1.000000
     35        -39.768905   1.000000
     36        -39.768649   1.000000
     37        -39.767481   1.000000
     38        -39.767338   1.000000
     39        -39.765175   1.000000
     40        -39.763769   1.000000
     41        -39.763047   1.000000
     42        -39.762914   1.000000
     43        -39.761485   1.000000
     44        -39.760535   1.000000
     45        -39.760330   1.000000
     46        -39.758834   1.000000
     47        -39.758040   1.000000
     48        -39.756671   1.000000
     49        -39.756494   1.000000
     50        -39.754799   1.000000
     51        -39.754073   1.000000
     52        -39.753312   1.000000
     53        -39.752922   1.000000
     54        -39.752268   1.000000
     55        -39.752083   1.000000
     56        -39.749951   1.000000
     57        -39.749329   1.000000
     58        -39.748903   1.000000
     59        -39.747128   1.000000
     60        -39.746866   1.000000
     61        -39.745402   1.000000
     62        -39.745196   1.000000
     63        -39.742918   1.000000
     64        -39.742300   1.000000
     65        -39.740033   1.000000
     66        -39.739605   1.000000
     67        -39.738309   1.000000
     68        -39.737080   1.000000
     69        -39.735595   1.000000
     70        -39.734578   1.000000
     71        -39.734410   1.000000
     72        -39.734075   1.000000
     73        -39.733100   1.000000
     74        -39.732806   1.000000
     75        -39.732153   1.000000
     76        -39.731933   1.000000
     77        -39.731521   1.000000
     78        -39.730886   1.000000
     79        -39.729408   1.000000
     80        -39.728579   1.000000
     81        -39.727361   1.000000
     82        -39.727102   1.000000
     83        -39.725695   1.000000
     84        -39.724827   1.000000
     85        -39.724254   1.000000
     86        -39.723527   1.000000
     87        -39.722598   1.000000
     88        -39.721251   1.000000
     89        -39.719205   1.000000
     90        -39.718351   1.000000
     91        -39.715295   1.000000
     92        -39.715004   1.000000
     93        -39.714101   1.000000
     94        -39.713833   1.000000
     95        -39.713530   1.000000
     96        -39.712286   1.000000
     97        -18.406778   1.000000
     98        -18.342136   1.000000
     99        -18.320469   1.000000
    100        -18.320123   1.000000
    101        -18.319138   1.000000
    102        -18.317210   1.000000
    103        -18.315996   1.000000
    104        -18.312978   1.000000
    105        -18.278098   1.000000
    106        -18.275050   1.000000
    107        -18.262554   1.000000
    108        -18.236093   1.000000
    109        -18.234259   1.000000
    110        -18.233591   1.000000
    111        -18.232201   1.000000
    112        -18.231411   1.000000
    113        -18.229256   1.000000
    114        -18.226813   1.000000
    115        -18.225225   1.000000
    116        -18.223074   1.000000
    117        -18.223007   1.000000
    118        -18.218990   1.000000
    119        -18.214334   1.000000
    120        -18.210538   1.000000
    121        -18.208156   1.000000
    122        -18.207241   1.000000
    123        -18.205893   1.000000
    124        -18.204419   1.000000
    125        -18.203590   1.000000
    126        -18.203568   1.000000
    127        -18.202303   1.000000
    128        -18.202042   1.000000
    129        -18.201534   1.000000
    130        -18.199300   1.000000
    131        -18.199186   1.000000
    132        -18.185026   1.000000
    133        -18.181614   1.000000
    134        -18.181504   1.000000
    135        -18.178253   1.000000
    136        -18.178012   1.000000
    137        -18.175215   1.000000
    138        -18.171155   1.000000
    139        -18.168979   1.000000
    140        -18.168363   1.000000
    141        -18.166404   1.000000
    142        -18.166261   1.000000
    143        -18.165131   1.000000
    144        -18.164974   1.000000
    145        -18.164691   1.000000
    146        -18.163978   1.000000
    147        -18.161336   1.000000
    148        -18.159334   1.000000
    149        -18.158569   1.000000
    150        -18.156277   1.000000
    151        -18.155747   1.000000
    152        -18.153833   1.000000
    153        -18.140002   1.000000
    154        -18.137721   1.000000
    155        -18.133387   1.000000
    156        -18.132278   1.000000
    157        -18.126158   1.000000
    158        -18.125922   1.000000
    159        -18.124277   1.000000
    160        -18.123756   1.000000
    161        -18.073735   1.000000
    162        -18.070774   1.000000
    163        -18.070638   1.000000
    164        -18.066751   1.000000
    165        -18.064775   1.000000
    166        -18.064140   1.000000
    167        -18.058723   1.000000
    168        -18.054377   1.000000
    169        -18.053391   1.000000
    170        -18.037369   1.000000
    171        -18.021046   1.000000
    172        -18.020233   1.000000
    173        -18.018311   1.000000
    174        -18.013065   1.000000
    175        -18.012150   1.000000
    176        -18.006700   1.000000
    177        -18.005288   1.000000
    178        -18.004219   1.000000
    179        -18.002895   1.000000
    180        -18.001425   1.000000
    181        -17.999904   1.000000
    182        -17.998367   1.000000
    183        -17.995779   1.000000
    184        -17.990887   1.000000
    185        -17.990720   1.000000
    186        -17.972745   1.000000
    187        -17.969520   1.000000
    188        -17.954255   1.000000
    189        -17.949774   1.000000
    190        -17.949682   1.000000
    191        -17.948698   1.000000
    192        -17.929895   1.000000
    193        -17.925979   1.000000
    194        -17.896995   1.000000
    195        -17.896619   1.000000
    196        -17.893140   1.000000
    197        -17.892781   1.000000
    198        -17.890919   1.000000
    199        -17.890544   1.000000
    200        -17.886009   1.000000
    201        -17.877644   1.000000
    202        -17.872999   1.000000
    203        -17.872301   1.000000
    204        -17.869690   1.000000
    205        -17.851809   1.000000
    206        -17.848240   1.000000
    207        -17.843165   1.000000
    208        -17.841428   1.000000
    209        -17.835734   1.000000
    210        -17.834629   1.000000
    211        -17.831386   1.000000
    212        -17.829166   1.000000
    213        -17.828634   1.000000
    214        -17.826801   1.000000
    215        -17.825271   1.000000
    216        -17.824851   1.000000
    217        -17.818016   1.000000
    218        -17.815691   1.000000
    219        -17.815247   1.000000
    220        -17.812484   1.000000
    221        -17.806415   1.000000
    222        -17.801617   1.000000
    223        -17.799586   1.000000
    224        -17.797309   1.000000
    225        -17.794950   1.000000
    226        -17.794419   1.000000
    227        -17.786710   1.000000
    228        -17.786278   1.000000
    229        -17.785598   1.000000
    230        -17.784631   1.000000
    231        -17.783454   1.000000
    232        -17.781693   1.000000
    233        -17.779309   1.000000
    234        -17.778473   1.000000
    235        -17.774466   1.000000
    236        -17.773244   1.000000
    237        -17.771826   1.000000
    238        -17.770051   1.000000
    239        -17.768922   1.000000
    240        -17.768153   1.000000
    241        -17.767730   1.000000
    242        -17.767217   1.000000
    243        -17.767151   1.000000
    244        -17.766246   1.000000
    245        -17.761988   1.000000
    246        -17.755051   1.000000
    247        -17.742241   1.000000
    248        -17.734996   1.000000
    249        -17.733102   1.000000
    250        -17.732662   1.000000
    251        -17.730318   1.000000
    252        -17.728185   1.000000
    253        -17.728044   1.000000
    254        -17.727187   1.000000
    255        -17.724962   1.000000
    256        -17.724098   1.000000
    257        -17.707745   1.000000
    258        -17.705301   1.000000
    259        -17.704385   1.000000
    260        -17.702629   1.000000
    261        -17.701889   1.000000
    262        -17.701236   1.000000
    263        -17.699409   1.000000
    264        -17.698812   1.000000
    265        -17.697009   1.000000
    266        -17.692272   1.000000
    267        -17.688754   1.000000
    268        -17.685102   1.000000
    269        -17.684323   1.000000
    270        -17.682783   1.000000
    271        -17.676417   1.000000
    272        -17.675030   1.000000
    273        -17.673641   1.000000
    274        -17.670771   1.000000
    275        -17.669547   1.000000
    276        -17.668854   1.000000
    277        -17.668067   1.000000
    278        -17.664173   1.000000
    279        -17.662713   1.000000
    280        -17.660397   1.000000
    281        -17.660199   1.000000
    282        -17.659030   1.000000
    283        -17.655958   1.000000
    284        -17.654968   1.000000
    285        -17.654494   1.000000
    286        -17.653980   1.000000
    287        -17.653071   1.000000
    288        -17.651731   1.000000
    289        -17.650487   1.000000
    290        -17.649137   1.000000
    291        -17.648786   1.000000
    292        -17.647754   1.000000
    293        -17.647320   1.000000
    294        -17.646502   1.000000
    295        -17.646013   1.000000
    296        -17.644491   1.000000
    297        -17.643854   1.000000
    298        -17.643418   1.000000
    299        -17.636742   1.000000
    300        -17.631532   1.000000
    301        -17.630495   1.000000
    302        -17.625862   1.000000
    303        -17.625421   1.000000
    304        -17.621281   1.000000
    305        -17.619235   1.000000
    306        -17.618619   1.000000
    307        -17.618035   1.000000
    308        -17.617889   1.000000
    309        -17.615030   1.000000
    310        -17.614549   1.000000
    311        -17.612683   1.000000
    312        -17.611851   1.000000
    313        -17.595379   1.000000
    314        -17.593381   1.000000
    315        -17.592235   1.000000
    316        -17.591206   1.000000
    317        -17.586990   1.000000
    318        -17.586707   1.000000
    319        -17.585307   1.000000
    320        -17.583837   1.000000
    321        -17.583663   1.000000
    322        -17.582413   1.000000
    323        -17.581418   1.000000
    324        -17.581080   1.000000
    325        -17.580859   1.000000
    326        -17.580303   1.000000
    327        -17.579553   1.000000
    328        -17.576490   1.000000
    329        -17.576168   1.000000
    330        -17.575809   1.000000
    331        -17.575009   1.000000
    332        -17.572489   1.000000
    333        -17.572299   1.000000
    334        -17.571814   1.000000
    335        -17.571664   1.000000
    336        -17.565407   1.000000
    337        -17.562008   1.000000
    338        -17.560910   1.000000
    339        -17.560188   1.000000
    340        -17.559332   1.000000
    341        -17.555809   1.000000
    342        -17.553346   1.000000
    343        -17.550216   1.000000
    344        -17.548773   1.000000
    345        -17.546374   1.000000
    346        -17.546245   1.000000
    347        -17.545107   1.000000
    348        -17.544947   1.000000
    349        -17.543366   1.000000
    350        -17.543104   1.000000
    351        -17.542179   1.000000
    352        -17.539038   1.000000
    353        -17.538061   1.000000
    354        -17.537292   1.000000
    355        -17.537007   1.000000
    356        -17.535610   1.000000
    357        -17.535356   1.000000
    358        -17.534386   1.000000
    359        -17.534098   1.000000
    360        -17.531071   1.000000
    361        -17.528100   1.000000
    362        -17.522293   1.000000
    363        -17.516198   1.000000
    364        -17.515418   1.000000
    365        -17.513296   1.000000
    366        -17.512524   1.000000
    367        -17.497146   1.000000
    368        -17.497063   1.000000
    369        -17.495270   1.000000
    370        -17.495060   1.000000
    371        -17.494014   1.000000
    372        -17.491085   1.000000
    373        -17.489972   1.000000
    374        -17.475502   1.000000
    375        -17.474682   1.000000
    376        -17.470296   1.000000
    377        -17.469081   1.000000
    378        -17.465535   1.000000
    379        -17.460310   1.000000
    380        -17.457242   1.000000
    381        -17.448404   1.000000
    382        -17.446060   1.000000
    383        -17.434838   1.000000
    384        -17.422471   1.000000
    385          2.446153   1.000000
    386          3.481079   1.000000
    387          4.222987   1.000000
    388          4.251474   1.000000
    389          4.336056   1.000000
    390          4.575980   1.000000
    391          4.642889   1.000000
    392          4.944767   1.000000
    393          4.983686   1.000000
    394          5.201155   1.000000
    395          5.212279   1.000000
    396          5.231918   1.000000
    397          5.233550   1.000000
    398          5.234753   1.000000
    399          5.332366   1.000000
    400          5.459747   1.000000
    401          5.651794   1.000000
    402          5.653629   1.000000
    403          5.654820   1.000000
    404          5.690385   1.000000
    405          5.742759   1.000000
    406          5.751037   1.000000
    407          5.764200   1.000000
    408          5.823678   1.000000
    409          5.914814   1.000000
    410          5.932190   1.000000
    411          5.978293   1.000000
    412          5.978768   1.000000
    413          5.983960   1.000000
    414          6.005302   1.000000
    415          6.065484   1.000000
    416          6.267684   1.000000
    417          6.306429   1.000000
    418          6.325191   1.000000
    419          6.393353   1.000000
    420          6.395175   1.000000
    421          6.395481   1.000000
    422          6.408195   1.000000
    423          6.434125   1.000000
    424          6.437785   1.000000
    425          6.442760   1.000000
    426          6.456809   1.000000
    427          6.463486   1.000000
    428          6.473869   1.000000
    429          6.500801   1.000000
    430          6.501074   1.000000
    431          6.506780   1.000000
    432          6.510375   1.000000
    433          6.517120   1.000000
    434          6.518827   1.000000
    435          6.519891   1.000000
    436          6.531815   1.000000
    437          6.548124   1.000000
    438          6.558142   1.000000
    439          6.603576   1.000000
    440          6.675709   1.000000
    441          6.675870   1.000000
    442          6.678149   1.000000
    443          6.681014   1.000000
    444          6.695639   1.000000
    445          6.704924   1.000000
    446          6.735896   1.000000
    447          6.772622   1.000000
    448          6.788119   1.000000
    449          6.800956   1.000000
    450          6.802985   1.000000
    451          6.805595   1.000000
    452          6.831567   1.000000
    453          6.842207   1.000000
    454          6.850258   1.000000
    455          6.863518   1.000000
    456          6.863725   1.000000
    457          6.866043   1.000000
    458          6.880793   1.000000
    459          6.893421   1.000000
    460          6.897536   1.000000
    461          6.902444   1.000000
    462          6.902706   1.000000
    463          6.904044   1.000000
    464          6.906283   1.000000
    465          6.907017   1.000000
    466          6.914289   1.000000
    467          6.915946   1.000000
    468          6.974139   1.000000
    469          6.992944   1.000000
    470          6.994350   1.000000
    471          6.996339   1.000000
    472          6.998080   1.000000
    473          7.002208   1.000000
    474          7.015304   1.000000
    475          7.028423   1.000000
    476          7.114911   1.000000
    477          7.199834   1.000000
    478          7.201313   1.000000
    479          7.202895   1.000000
    480          7.204397   1.000000
    481          7.205708   1.000000
    482          7.212862   1.000000
    483          7.219877   1.000000
    484          7.226804   1.000000
    485          7.228298   1.000000
    486          7.338168   1.000000
    487          7.406311   1.000000
    488          7.431890   1.000000
    489          7.483307   1.000000
    490          7.497216   1.000000
    491          7.530237   1.000000
    492          7.628347   1.000000
    493          7.645859   1.000000
    494          7.648630   1.000000
    495          7.659237   1.000000
    496          7.664808   1.000000
    497          7.673563   1.000000
    498          7.681970   1.000000
    499          7.686413   1.000000
    500          7.688528   1.000000
    501          7.689778   1.000000
    502          7.693053   1.000000
    503          7.703489   1.000000
    504          7.707707   1.000000
    505          7.709959   1.000000
    506          7.716247   1.000000
    507          7.748256   1.000000
    508          7.750232   1.000000
    509          7.769594   1.000000
    510          7.789509   1.000000
    511          7.791761   1.000000
    512          7.793142   1.000000
    513          7.809608   1.000000
    514          7.833262   1.000000
    515          7.835173   1.000000
    516          7.840117   1.000000
    517          7.843561   1.000000
    518          7.846152   1.000000
    519          7.848061   1.000000
    520          7.852159   1.000000
    521          7.855127   1.000000
    522          7.855524   1.000000
    523          7.877088   1.000000
    524          7.881752   1.000000
    525          7.998382   1.000000
    526          8.039135   1.000000
    527          8.052009   1.000000
    528          8.054088   1.000000
    529          8.071491   1.000000
    530          8.084053   1.000000
    531          8.089974   1.000000
    532          8.091405   1.000000
    533          8.092645   1.000000
    534          8.096078   1.000000
    535          8.178787   1.000000
    536          8.207115   1.000001
    537          8.207782   1.000001
    538          8.211855   1.000001
    539          8.257494   1.000005
    540          8.295244   1.000015
    541          8.297015   1.000016
    542          8.302034   1.000019
    543          8.304640   1.000021
    544          8.321487   1.000034
    545          8.322261   1.000035
    546          8.324831   1.000038
    547          8.385233   1.000206
    548          8.410098   1.000390
    549          8.415125   1.000442
    550          8.424742   1.000559
    551          8.438426   1.000773
    552          8.445343   1.000907
    553          8.445686   1.000914
    554          8.451652   1.001048
    555          8.455274   1.001136
    556          8.484389   1.002127
    557          8.493537   1.002564
    558          8.494473   1.002612
    559          8.500016   1.002917
    560          8.604621   1.016119
    561          8.628012   1.021204
    562          8.640289   1.024032
    563          8.643083   1.024679
    564          8.644668   1.025045
    565          8.647028   1.025589
    566          8.647696   1.025743
    567          8.652739   1.026893
    568          8.666435   1.029878
    569          8.771873   1.014899
    570          8.812212   0.966499
    571          8.813738   0.963951
    572          8.817243   0.957887
    573          8.828511   0.936343
    574          8.838461   0.914677
    575          8.845321   0.898285
    576          8.875977   0.810790
    577          8.898815   0.731769
    578          8.902709   0.717285
    579          8.905587   0.706415
    580          8.912058   0.681493
    581          9.035904   0.190324
    582          9.071969   0.089502
    583          9.076554   0.078999
    584          9.080403   0.070594
    585          9.082503   0.066164
    586          9.092255   0.047043
    587          9.095854   0.040579
    588          9.097216   0.038216
    589          9.102860   0.028899
    590          9.105660   0.024558
    591          9.117116   0.008681
    592          9.119628   0.005592
    593          9.124972  -0.000527
    594          9.126613  -0.002286
    595          9.138845  -0.013692
    596          9.141151  -0.015521
    597          9.154335  -0.024180
    598          9.167066  -0.029917
    599          9.168808  -0.030522
    600          9.171624  -0.031416
    601          9.177173  -0.032886
    602          9.178848  -0.033258
    603          9.189098  -0.034860
    604          9.199581  -0.035449
    605          9.267186  -0.025131
    606          9.274510  -0.023437
    607          9.279299  -0.022331
    608          9.282480  -0.021601
    609          9.293528  -0.019114
    610          9.297045  -0.018345
    611          9.301544  -0.017380
    612          9.314978  -0.014651
    613          9.359457  -0.007571
    614          9.372644  -0.006065
    615          9.373635  -0.005962
    616          9.374269  -0.005897
    617          9.447582  -0.001398
    618          9.450710  -0.001305
    619          9.494487  -0.000471
    620          9.509520  -0.000324
    621          9.513487  -0.000293
    622          9.515391  -0.000279
    623          9.517509  -0.000264
    624          9.538370  -0.000152
    625          9.601749  -0.000025
    626          9.612021  -0.000018
    627          9.624683  -0.000012
    628          9.626142  -0.000012
    629          9.634459  -0.000009
    630          9.634923  -0.000009
    631          9.676994  -0.000002
    632          9.683799  -0.000002
    633          9.694286  -0.000001
    634          9.696655  -0.000001
    635          9.698669  -0.000001
    636          9.704100  -0.000001
    637          9.713106  -0.000001
    638          9.730771  -0.000000
    639          9.739785  -0.000000
    640          9.756466  -0.000000
    641          9.766709  -0.000000
    642          9.769250  -0.000000
    643          9.782631  -0.000000
    644          9.783894  -0.000000
    645          9.790256  -0.000000
    646          9.791166  -0.000000
    647          9.802501  -0.000000
    648          9.808033  -0.000000
    649          9.813997  -0.000000
    650          9.815009  -0.000000
    651          9.819293  -0.000000
    652          9.852990  -0.000000
    653          9.868088  -0.000000
    654          9.896866  -0.000000
    655          9.902520  -0.000000
    656          9.909496  -0.000000
    657          9.910454  -0.000000
    658          9.911018  -0.000000
    659          9.942863  -0.000000
    660          9.953609  -0.000000
    661          9.975088  -0.000000
    662          9.982443  -0.000000
    663         10.006643  -0.000000
    664         10.007672  -0.000000
    665         10.019466  -0.000000
    666         10.028896  -0.000000
    667         10.030199  -0.000000
    668         10.033175  -0.000000
    669         10.037924  -0.000000
    670         10.069566  -0.000000
    671         10.078310  -0.000000
    672         10.154321  -0.000000
    673         10.162325  -0.000000
    674         10.172499  -0.000000
    675         10.173176  -0.000000
    676         10.178617  -0.000000
    677         10.188608  -0.000000
    678         10.194424  -0.000000
    679         10.244814  -0.000000
    680         10.247930  -0.000000
    681         10.262651  -0.000000
    682         10.270058  -0.000000
    683         10.273137  -0.000000
    684         10.279764  -0.000000
    685         10.292297  -0.000000
    686         10.321714  -0.000000
    687         10.331750  -0.000000
    688         10.334273  -0.000000
    689         10.336145  -0.000000
    690         10.369039  -0.000000
    691         10.372763  -0.000000
    692         10.378909  -0.000000
 
  0.5000000E+00  0.2690550E-16  0.0000000E+00  0.2083333E-01
      1        -39.898640   1.000000
      2        -39.886222   1.000000
      3        -39.868179   1.000000
      4        -39.861101   1.000000
      5        -39.856734   1.000000
      6        -39.854445   1.000000
      7        -39.854279   1.000000
      8        -39.850828   1.000000
      9        -39.837899   1.000000
     10        -39.833357   1.000000
     11        -39.830809   1.000000
     12        -39.826572   1.000000
     13        -39.826446   1.000000
     14        -39.815839   1.000000
     15        -39.815673   1.000000
     16        -39.808609   1.000000
     17        -39.808454   1.000000
     18        -39.804237   1.000000
     19        -39.799694   1.000000
     20        -39.797602   1.000000
     21        -39.793240   1.000000
     22        -39.791444   1.000000
     23        -39.788807   1.000000
     24        -39.788412   1.000000
     25        -39.787587   1.000000
     26        -39.787080   1.000000
     27        -39.785960   1.000000
     28        -39.782184   1.000000
     29        -39.781926   1.000000
     30        -39.779738   1.000000
     31        -39.778418   1.000000
     32        -39.778169   1.000000
     33        -39.776762   1.000000
     34        -39.775715   1.000000
     35        -39.774205   1.000000
     36        -39.773568   1.000000
     37        -39.769782   1.000000
     38        -39.769035   1.000000
     39        -39.768132   1.000000
     40        -39.767576   1.000000
     41        -39.764942   1.000000
     42        -39.764234   1.000000
     43        -39.763058   1.000000
     44        -39.761867   1.000000
     45        -39.760993   1.000000
     46        -39.759009   1.000000
     47        -39.757423   1.000000
     48        -39.756898   1.000000
     49        -39.755737   1.000000
     50        -39.754773   1.000000
     51        -39.753898   1.000000
     52        -39.750466   1.000000
     53        -39.749951   1.000000
     54        -39.748858   1.000000
     55        -39.747439   1.000000
     56        -39.746589   1.000000
     57        -39.745145   1.000000
     58        -39.745093   1.000000
     59        -39.744476   1.000000
     60        -39.744111   1.000000
     61        -39.742862   1.000000
     62        -39.742098   1.000000
     63        -39.741508   1.000000
     64        -39.740612   1.000000
     65        -39.740251   1.000000
     66        -39.739819   1.000000
     67        -39.737768   1.000000
     68        -39.737585   1.000000
     69        -39.736512   1.000000
     70        -39.735973   1.000000
     71        -39.735092   1.000000
     72        -39.735079   1.000000
     73        -39.734365   1.000000
     74        -39.733120   1.000000
     75        -39.732495   1.000000
     76        -39.732401   1.000000
     77        -39.732138   1.000000
     78        -39.731587   1.000000
     79        -39.730017   1.000000
     80        -39.729882   1.000000
     81        -39.727934   1.000000
     82        -39.727311   1.000000
     83        -39.725815   1.000000
     84        -39.725538   1.000000
     85        -39.724796   1.000000
     86        -39.722689   1.000000
     87        -39.722368   1.000000
     88        -39.721360   1.000000
     89        -39.718824   1.000000
     90        -39.717393   1.000000
     91        -39.715816   1.000000
     92        -39.715010   1.000000
     93        -39.714671   1.000000
     94        -39.714185   1.000000
     95        -39.713498   1.000000
     96        -39.712682   1.000000
     97        -18.376076   1.000000
     98        -18.368931   1.000000
     99        -18.318988   1.000000
    100        -18.287671   1.000000
    101        -18.287088   1.000000
    102        -18.284892   1.000000
    103        -18.282697   1.000000
    104        -18.282154   1.000000
    105        -18.281207   1.000000
    106        -18.281205   1.000000
    107        -18.280663   1.000000
    108        -18.280254   1.000000
    109        -18.271346   1.000000
    110        -18.265072   1.000000
    111        -18.263010   1.000000
    112        -18.261797   1.000000
    113        -18.230191   1.000000
    114        -18.209929   1.000000
    115        -18.208008   1.000000
    116        -18.207619   1.000000
    117        -18.205815   1.000000
    118        -18.201386   1.000000
    119        -18.198363   1.000000
    120        -18.198159   1.000000
    121        -18.197211   1.000000
    122        -18.196077   1.000000
    123        -18.195995   1.000000
    124        -18.195657   1.000000
    125        -18.195466   1.000000
    126        -18.194410   1.000000
    127        -18.194327   1.000000
    128        -18.193578   1.000000
    129        -18.193200   1.000000
    130        -18.193117   1.000000
    131        -18.192418   1.000000
    132        -18.192024   1.000000
    133        -18.191641   1.000000
    134        -18.190249   1.000000
    135        -18.189893   1.000000
    136        -18.189277   1.000000
    137        -18.172973   1.000000
    138        -18.170461   1.000000
    139        -18.167357   1.000000
    140        -18.166396   1.000000
    141        -18.164672   1.000000
    142        -18.158073   1.000000
    143        -18.157748   1.000000
    144        -18.157569   1.000000
    145        -18.156357   1.000000
    146        -18.156154   1.000000
    147        -18.153605   1.000000
    148        -18.153254   1.000000
    149        -18.152245   1.000000
    150        -18.151504   1.000000
    151        -18.150549   1.000000
    152        -18.149107   1.000000
    153        -18.147031   1.000000
    154        -18.145233   1.000000
    155        -18.142828   1.000000
    156        -18.142029   1.000000
    157        -18.141125   1.000000
    158        -18.139636   1.000000
    159        -18.139565   1.000000
    160        -18.138210   1.000000
    161        -18.089407   1.000000
    162        -18.084305   1.000000
    163        -18.075115   1.000000
    164        -18.074794   1.000000
    165        -18.070508   1.000000
    166        -18.070331   1.000000
    167        -18.069854   1.000000
    168        -18.068811   1.000000
    169        -18.067875   1.000000
    170        -18.067820   1.000000
    171        -18.043798   1.000000
    172        -18.037552   1.000000
    173        -18.034510   1.000000
    174        -18.033917   1.000000
    175        -18.028670   1.000000
    176        -18.024929   1.000000
    177        -18.024820   1.000000
    178        -18.022521   1.000000
    179        -18.000054   1.000000
    180        -17.995935   1.000000
    181        -17.994836   1.000000
    182        -17.991433   1.000000
    183        -17.991142   1.000000
    184        -17.988061   1.000000
    185        -17.985436   1.000000
    186        -17.983446   1.000000
    187        -17.982599   1.000000
    188        -17.980193   1.000000
    189        -17.979161   1.000000
    190        -17.977490   1.000000
    191        -17.939066   1.000000
    192        -17.937353   1.000000
    193        -17.933677   1.000000
    194        -17.932401   1.000000
    195        -17.930357   1.000000
    196        -17.930091   1.000000
    197        -17.894317   1.000000
    198        -17.889347   1.000000
    199        -17.879418   1.000000
    200        -17.875304   1.000000
    201        -17.872893   1.000000
    202        -17.872813   1.000000
    203        -17.855534   1.000000
    204        -17.852849   1.000000
    205        -17.841675   1.000000
    206        -17.839324   1.000000
    207        -17.838739   1.000000
    208        -17.838165   1.000000
    209        -17.836747   1.000000
    210        -17.836422   1.000000
    211        -17.835498   1.000000
    212        -17.834893   1.000000
    213        -17.832386   1.000000
    214        -17.830607   1.000000
    215        -17.814538   1.000000
    216        -17.813126   1.000000
    217        -17.811157   1.000000
    218        -17.806190   1.000000
    219        -17.804379   1.000000
    220        -17.803454   1.000000
    221        -17.802602   1.000000
    222        -17.799118   1.000000
    223        -17.797921   1.000000
    224        -17.797013   1.000000
    225        -17.795458   1.000000
    226        -17.795449   1.000000
    227        -17.793999   1.000000
    228        -17.793218   1.000000
    229        -17.792051   1.000000
    230        -17.791649   1.000000
    231        -17.790655   1.000000
    232        -17.789739   1.000000
    233        -17.762573   1.000000
    234        -17.758249   1.000000
    235        -17.757559   1.000000
    236        -17.754230   1.000000
    237        -17.751610   1.000000
    238        -17.747103   1.000000
    239        -17.745830   1.000000
    240        -17.744188   1.000000
    241        -17.742784   1.000000
    242        -17.741707   1.000000
    243        -17.738131   1.000000
    244        -17.735473   1.000000
    245        -17.731240   1.000000
    246        -17.727741   1.000000
    247        -17.722815   1.000000
    248        -17.722534   1.000000
    249        -17.720082   1.000000
    250        -17.718891   1.000000
    251        -17.716975   1.000000
    252        -17.716879   1.000000
    253        -17.716482   1.000000
    254        -17.716424   1.000000
    255        -17.715814   1.000000
    256        -17.714686   1.000000
    257        -17.714424   1.000000
    258        -17.714282   1.000000
    259        -17.713456   1.000000
    260        -17.713145   1.000000
    261        -17.710739   1.000000
    262        -17.710230   1.000000
    263        -17.709971   1.000000
    264        -17.708477   1.000000
    265        -17.708395   1.000000
    266        -17.708169   1.000000
    267        -17.707562   1.000000
    268        -17.703817   1.000000
    269        -17.686740   1.000000
    270        -17.683397   1.000000
    271        -17.680139   1.000000
    272        -17.679754   1.000000
    273        -17.679363   1.000000
    274        -17.677293   1.000000
    275        -17.676235   1.000000
    276        -17.673165   1.000000
    277        -17.671540   1.000000
    278        -17.671504   1.000000
    279        -17.670113   1.000000
    280        -17.670103   1.000000
    281        -17.667790   1.000000
    282        -17.667414   1.000000
    283        -17.666878   1.000000
    284        -17.665789   1.000000
    285        -17.664712   1.000000
    286        -17.656922   1.000000
    287        -17.653862   1.000000
    288        -17.652173   1.000000
    289        -17.652059   1.000000
    290        -17.650918   1.000000
    291        -17.636528   1.000000
    292        -17.631527   1.000000
    293        -17.627953   1.000000
    294        -17.627154   1.000000
    295        -17.618916   1.000000
    296        -17.617949   1.000000
    297        -17.615968   1.000000
    298        -17.611706   1.000000
    299        -17.610808   1.000000
    300        -17.610415   1.000000
    301        -17.608245   1.000000
    302        -17.607732   1.000000
    303        -17.607469   1.000000
    304        -17.605967   1.000000
    305        -17.605717   1.000000
    306        -17.605303   1.000000
    307        -17.604557   1.000000
    308        -17.603589   1.000000
    309        -17.603146   1.000000
    310        -17.602324   1.000000
    311        -17.601741   1.000000
    312        -17.601433   1.000000
    313        -17.600397   1.000000
    314        -17.600342   1.000000
    315        -17.599553   1.000000
    316        -17.599158   1.000000
    317        -17.597261   1.000000
    318        -17.596427   1.000000
    319        -17.592426   1.000000
    320        -17.592398   1.000000
    321        -17.589976   1.000000
    322        -17.588214   1.000000
    323        -17.585936   1.000000
    324        -17.584665   1.000000
    325        -17.580456   1.000000
    326        -17.578652   1.000000
    327        -17.577166   1.000000
    328        -17.576526   1.000000
    329        -17.575611   1.000000
    330        -17.574333   1.000000
    331        -17.574079   1.000000
    332        -17.572730   1.000000
    333        -17.572387   1.000000
    334        -17.572314   1.000000
    335        -17.571287   1.000000
    336        -17.570425   1.000000
    337        -17.568706   1.000000
    338        -17.567312   1.000000
    339        -17.565540   1.000000
    340        -17.564199   1.000000
    341        -17.556932   1.000000
    342        -17.556771   1.000000
    343        -17.553388   1.000000
    344        -17.551228   1.000000
    345        -17.550991   1.000000
    346        -17.550947   1.000000
    347        -17.550063   1.000000
    348        -17.549752   1.000000
    349        -17.549664   1.000000
    350        -17.549438   1.000000
    351        -17.548931   1.000000
    352        -17.546887   1.000000
    353        -17.546819   1.000000
    354        -17.545115   1.000000
    355        -17.543776   1.000000
    356        -17.543589   1.000000
    357        -17.534380   1.000000
    358        -17.528203   1.000000
    359        -17.527519   1.000000
    360        -17.526607   1.000000
    361        -17.525936   1.000000
    362        -17.525520   1.000000
    363        -17.523506   1.000000
    364        -17.520739   1.000000
    365        -17.519647   1.000000
    366        -17.518374   1.000000
    367        -17.510443   1.000000
    368        -17.508539   1.000000
    369        -17.506858   1.000000
    370        -17.505112   1.000000
    371        -17.502859   1.000000
    372        -17.499157   1.000000
    373        -17.491505   1.000000
    374        -17.489268   1.000000
    375        -17.480832   1.000000
    376        -17.479529   1.000000
    377        -17.477596   1.000000
    378        -17.472258   1.000000
    379        -17.471047   1.000000
    380        -17.468701   1.000000
    381        -17.451876   1.000000
    382        -17.447782   1.000000
    383        -17.434307   1.000000
    384        -17.431178   1.000000
    385          2.454320   1.000000
    386          3.722492   1.000000
    387          3.825303   1.000000
    388          4.495907   1.000000
    389          4.508562   1.000000
    390          4.531722   1.000000
    391          4.533546   1.000000
    392          4.533836   1.000000
    393          4.709475   1.000000
    394          5.178904   1.000000
    395          5.180645   1.000000
    396          5.181807   1.000000
    397          5.268051   1.000000
    398          5.713868   1.000000
    399          5.715167   1.000000
    400          5.717275   1.000000
    401          5.758119   1.000000
    402          5.893907   1.000000
    403          5.900579   1.000000
    404          5.901421   1.000000
    405          5.910758   1.000000
    406          5.946332   1.000000
    407          5.958002   1.000000
    408          5.993996   1.000000
    409          5.995033   1.000000
    410          5.999287   1.000000
    411          5.999407   1.000000
    412          6.000830   1.000000
    413          6.001106   1.000000
    414          6.003268   1.000000
    415          6.031235   1.000000
    416          6.052795   1.000000
    417          6.053820   1.000000
    418          6.055440   1.000000
    419          6.130430   1.000000
    420          6.185495   1.000000
    421          6.186339   1.000000
    422          6.191199   1.000000
    423          6.191534   1.000000
    424          6.192795   1.000000
    425          6.192980   1.000000
    426          6.197127   1.000000
    427          6.262901   1.000000
    428          6.304359   1.000000
    429          6.379292   1.000000
    430          6.566233   1.000000
    431          6.570287   1.000000
    432          6.571538   1.000000
    433          6.574101   1.000000
    434          6.580613   1.000000
    435          6.583457   1.000000
    436          6.584600   1.000000
    437          6.621692   1.000000
    438          6.667721   1.000000
    439          6.669126   1.000000
    440          6.672917   1.000000
    441          6.697442   1.000000
    442          6.707345   1.000000
    443          6.730922   1.000000
    444          6.763266   1.000000
    445          6.765568   1.000000
    446          6.766880   1.000000
    447          6.767694   1.000000
    448          6.770498   1.000000
    449          6.770836   1.000000
    450          6.773019   1.000000
    451          6.793607   1.000000
    452          6.828110   1.000000
    453          6.832287   1.000000
    454          6.832555   1.000000
    455          6.844859   1.000000
    456          6.861824   1.000000
    457          6.862675   1.000000
    458          6.863000   1.000000
    459          6.868592   1.000000
    460          6.872505   1.000000
    461          6.878885   1.000000
    462          6.880184   1.000000
    463          6.881175   1.000000
    464          6.882416   1.000000
    465          6.883462   1.000000
    466          6.884724   1.000000
    467          6.888724   1.000000
    468          6.890445   1.000000
    469          6.901759   1.000000
    470          6.909073   1.000000
    471          6.910712   1.000000
    472          6.916522   1.000000
    473          6.919329   1.000000
    474          6.919714   1.000000
    475          7.080006   1.000000
    476          7.136132   1.000000
    477          7.143383   1.000000
    478          7.198137   1.000000
    479          7.202627   1.000000
    480          7.202739   1.000000
    481          7.260390   1.000000
    482          7.326590   1.000000
    483          7.365414   1.000000
    484          7.423604   1.000000
    485          7.425794   1.000000
    486          7.427687   1.000000
    487          7.428756   1.000000
    488          7.430600   1.000000
    489          7.453189   1.000000
    490          7.465610   1.000000
    491          7.473618   1.000000
    492          7.473752   1.000000
    493          7.493287   1.000000
    494          7.599414   1.000000
    495          7.613594   1.000000
    496          7.616294   1.000000
    497          7.632296   1.000000
    498          7.657438   1.000000
    499          7.669389   1.000000
    500          7.675749   1.000000
    501          7.676383   1.000000
    502          7.680656   1.000000
    503          7.681909   1.000000
    504          7.687232   1.000000
    505          7.694933   1.000000
    506          7.703642   1.000000
    507          7.705724   1.000000
    508          7.709867   1.000000
    509          7.710674   1.000000
    510          7.710675   1.000000
    511          7.716302   1.000000
    512          7.717929   1.000000
    513          7.795074   1.000000
    514          7.797518   1.000000
    515          7.803971   1.000000
    516          7.806704   1.000000
    517          7.869108   1.000000
    518          7.879151   1.000000
    519          7.885410   1.000000
    520          7.888325   1.000000
    521          7.930071   1.000000
    522          7.939924   1.000000
    523          7.943356   1.000000
    524          7.943482   1.000000
    525          7.993363   1.000000
    526          8.008668   1.000000
    527          8.049088   1.000000
    528          8.078328   1.000000
    529          8.081027   1.000000
    530          8.085072   1.000000
    531          8.151293   1.000000
    532          8.245858   1.000003
    533          8.247216   1.000003
    534          8.250997   1.000004
    535          8.265955   1.000006
    536          8.289337   1.000013
    537          8.290952   1.000013
    538          8.292717   1.000014
    539          8.293415   1.000015
    540          8.295398   1.000015
    541          8.297043   1.000016
    542          8.301584   1.000019
    543          8.345164   1.000069
    544          8.375309   1.000158
    545          8.385784   1.000209
    546          8.390172   1.000234
    547          8.392803   1.000251
    548          8.395766   1.000271
    549          8.397965   1.000287
    550          8.398189   1.000288
    551          8.402502   1.000322
    552          8.404061   1.000335
    553          8.406470   1.000356
    554          8.407304   1.000363
    555          8.408636   1.000376
    556          8.410289   1.000392
    557          8.410965   1.000398
    558          8.416317   1.000455
    559          8.443332   1.000866
    560          8.459842   1.001258
    561          8.463010   1.001349
    562          8.474084   1.001714
    563          8.490312   1.002402
    564          8.510598   1.003582
    565          8.623679   1.020224
    566          8.633857   1.022545
    567          8.637432   1.023371
    568          8.646708   1.025515
    569          8.826925   0.939566
    570          8.875445   0.812498
    571          8.877491   0.805892
    572          8.879883   0.798048
    573          8.999186   0.322346
    574          9.048243   0.152274
    575          9.057741   0.125464
    576          9.058605   0.123137
    577          9.061889   0.114454
    578          9.063432   0.110470
    579          9.067572   0.100071
    580          9.071866   0.089743
    581          9.073460   0.086028
    582          9.080565   0.070247
    583          9.103324   0.028167
    584          9.123725   0.000846
    585          9.124315   0.000192
    586          9.132598  -0.008234
    587          9.134458  -0.009938
    588          9.138033  -0.013025
    589          9.140385  -0.014924
    590          9.140988  -0.015395
    591          9.142873  -0.016823
    592          9.147063  -0.019771
    593          9.147702  -0.020194
    594          9.149943  -0.021622
    595          9.150031  -0.021676
    596          9.150819  -0.022158
    597          9.154627  -0.024339
    598          9.155612  -0.024865
    599          9.157206  -0.025685
    600          9.158565  -0.026353
    601          9.158850  -0.026490
    602          9.162681  -0.028208
    603          9.162817  -0.028265
    604          9.169851  -0.030865
    605          9.277080  -0.022842
    606          9.293134  -0.019201
    607          9.296929  -0.018370
    608          9.304462  -0.016767
    609          9.305907  -0.016467
    610          9.311398  -0.015354
    611          9.314458  -0.014752
    612          9.316819  -0.014296
    613          9.321859  -0.013352
    614          9.327739  -0.012299
    615          9.375633  -0.005759
    616          9.377269  -0.005597
    617          9.407328  -0.003210
    618          9.416515  -0.002678
    619          9.421525  -0.002421
    620          9.422629  -0.002367
    621          9.556697  -0.000092
    622          9.579268  -0.000048
    623          9.582368  -0.000044
    624          9.583765  -0.000042
    625          9.593356  -0.000032
    626          9.595157  -0.000030
    627          9.600258  -0.000026
    628          9.606569  -0.000021
    629          9.664258  -0.000003
    630          9.664665  -0.000003
    631          9.672194  -0.000003
    632          9.696533  -0.000001
    633          9.700461  -0.000001
    634          9.704876  -0.000001
    635          9.710189  -0.000001
    636          9.712245  -0.000001
    637          9.714221  -0.000001
    638          9.716982  -0.000001
    639          9.720121  -0.000000
    640          9.720484  -0.000000
    641          9.724236  -0.000000
    642          9.725096  -0.000000
    643          9.730431  -0.000000
    644          9.745321  -0.000000
    645          9.762703  -0.000000
    646          9.768004  -0.000000
    647          9.774454  -0.000000
    648          9.775542  -0.000000
    649          9.830878  -0.000000
    650          9.845748  -0.000000
    651          9.905632  -0.000000
    652          9.908194  -0.000000
    653          9.911221  -0.000000
    654          9.913928  -0.000000
    655          9.918844  -0.000000
    656          9.925772  -0.000000
    657          9.949553  -0.000000
    658          9.960162  -0.000000
    659          9.960653  -0.000000
    660          9.966813  -0.000000
    661          9.967809  -0.000000
    662          9.968696  -0.000000
    663          9.971754  -0.000000
    664          9.975120  -0.000000
    665          9.986288  -0.000000
    666         10.010634  -0.000000
    667         10.014560  -0.000000
    668         10.021132  -0.000000
    669         10.030299  -0.000000
    670         10.033092  -0.000000
    671         10.108008  -0.000000
    672         10.126577  -0.000000
    673         10.193320  -0.000000
    674         10.203593  -0.000000
    675         10.205327  -0.000000
    676         10.207188  -0.000000
    677         10.210411  -0.000000
    678         10.220828  -0.000000
    679         10.223883  -0.000000
    680         10.230904  -0.000000
    681         10.248379  -0.000000
    682         10.250876  -0.000000
    683         10.255022  -0.000000
    684         10.264670  -0.000000
    685         10.272699  -0.000000
    686         10.278927  -0.000000
    687         10.279381  -0.000000
    688         10.280450  -0.000000
    689         10.282249  -0.000000
    690         10.291344  -0.000000
    691         10.307994  -0.000000
    692         10.311763  -0.000000
 
  0.2690550E-16  0.5000000E+00  0.0000000E+00  0.2083333E-01
      1        -39.898677   1.000000
      2        -39.886103   1.000000
      3        -39.868284   1.000000
      4        -39.861214   1.000000
      5        -39.856869   1.000000
      6        -39.854372   1.000000
      7        -39.854147   1.000000
      8        -39.850685   1.000000
      9        -39.838056   1.000000
     10        -39.833237   1.000000
     11        -39.830903   1.000000
     12        -39.826580   1.000000
     13        -39.826468   1.000000
     14        -39.816014   1.000000
     15        -39.815376   1.000000
     16        -39.808707   1.000000
     17        -39.808406   1.000000
     18        -39.804177   1.000000
     19        -39.799709   1.000000
     20        -39.797436   1.000000
     21        -39.793216   1.000000
     22        -39.791444   1.000000
     23        -39.788930   1.000000
     24        -39.788357   1.000000
     25        -39.787613   1.000000
     26        -39.787218   1.000000
     27        -39.785865   1.000000
     28        -39.782285   1.000000
     29        -39.781797   1.000000
     30        -39.779883   1.000000
     31        -39.778497   1.000000
     32        -39.778101   1.000000
     33        -39.776854   1.000000
     34        -39.775564   1.000000
     35        -39.774323   1.000000
     36        -39.773543   1.000000
     37        -39.769925   1.000000
     38        -39.768937   1.000000
     39        -39.768301   1.000000
     40        -39.767352   1.000000
     41        -39.765064   1.000000
     42        -39.764091   1.000000
     43        -39.763252   1.000000
     44        -39.762040   1.000000
     45        -39.761098   1.000000
     46        -39.758866   1.000000
     47        -39.757221   1.000000
     48        -39.756471   1.000000
     49        -39.756023   1.000000
     50        -39.754789   1.000000
     51        -39.753918   1.000000
     52        -39.750337   1.000000
     53        -39.749887   1.000000
     54        -39.748667   1.000000
     55        -39.747381   1.000000
     56        -39.746559   1.000000
     57        -39.745344   1.000000
     58        -39.745015   1.000000
     59        -39.744521   1.000000
     60        -39.744113   1.000000
     61        -39.742980   1.000000
     62        -39.742267   1.000000
     63        -39.741410   1.000000
     64        -39.740365   1.000000
     65        -39.740166   1.000000
     66        -39.739706   1.000000
     67        -39.737890   1.000000
     68        -39.737646   1.000000
     69        -39.736450   1.000000
     70        -39.736139   1.000000
     71        -39.735212   1.000000
     72        -39.735179   1.000000
     73        -39.734756   1.000000
     74        -39.732982   1.000000
     75        -39.732477   1.000000
     76        -39.732412   1.000000
     77        -39.732237   1.000000
     78        -39.731482   1.000000
     79        -39.730099   1.000000
     80        -39.729784   1.000000
     81        -39.727837   1.000000
     82        -39.727362   1.000000
     83        -39.725715   1.000000
     84        -39.725542   1.000000
     85        -39.724646   1.000000
     86        -39.722652   1.000000
     87        -39.722278   1.000000
     88        -39.721415   1.000000
     89        -39.718937   1.000000
     90        -39.717431   1.000000
     91        -39.715801   1.000000
     92        -39.714954   1.000000
     93        -39.714756   1.000000
     94        -39.714172   1.000000
     95        -39.713567   1.000000
     96        -39.712592   1.000000
     97        -18.376097   1.000000
     98        -18.368879   1.000000
     99        -18.318946   1.000000
    100        -18.287910   1.000000
    101        -18.286947   1.000000
    102        -18.284880   1.000000
    103        -18.282685   1.000000
    104        -18.282038   1.000000
    105        -18.281233   1.000000
    106        -18.281194   1.000000
    107        -18.280607   1.000000
    108        -18.280276   1.000000
    109        -18.271459   1.000000
    110        -18.265086   1.000000
    111        -18.262949   1.000000
    112        -18.261845   1.000000
    113        -18.230280   1.000000
    114        -18.209811   1.000000
    115        -18.208069   1.000000
    116        -18.207529   1.000000
    117        -18.205819   1.000000
    118        -18.201383   1.000000
    119        -18.198361   1.000000
    120        -18.198162   1.000000
    121        -18.197243   1.000000
    122        -18.196175   1.000000
    123        -18.195881   1.000000
    124        -18.195612   1.000000
    125        -18.195321   1.000000
    126        -18.194604   1.000000
    127        -18.194415   1.000000
    128        -18.193444   1.000000
    129        -18.193173   1.000000
    130        -18.193138   1.000000
    131        -18.192326   1.000000
    132        -18.192078   1.000000
    133        -18.191525   1.000000
    134        -18.190311   1.000000
    135        -18.189892   1.000000
    136        -18.189219   1.000000
    137        -18.173034   1.000000
    138        -18.170625   1.000000
    139        -18.167175   1.000000
    140        -18.166364   1.000000
    141        -18.164656   1.000000
    142        -18.158212   1.000000
    143        -18.157986   1.000000
    144        -18.157440   1.000000
    145        -18.156356   1.000000
    146        -18.156103   1.000000
    147        -18.153590   1.000000
    148        -18.153261   1.000000
    149        -18.152382   1.000000
    150        -18.151522   1.000000
    151        -18.150554   1.000000
    152        -18.149192   1.000000
    153        -18.146972   1.000000
    154        -18.145299   1.000000
    155        -18.142812   1.000000
    156        -18.142009   1.000000
    157        -18.140964   1.000000
    158        -18.139846   1.000000
    159        -18.139694   1.000000
    160        -18.138190   1.000000
    161        -18.089347   1.000000
    162        -18.084052   1.000000
    163        -18.075097   1.000000
    164        -18.074611   1.000000
    165        -18.070540   1.000000
    166        -18.070384   1.000000
    167        -18.069948   1.000000
    168        -18.068825   1.000000
    169        -18.067874   1.000000
    170        -18.067837   1.000000
    171        -18.043919   1.000000
    172        -18.037587   1.000000
    173        -18.034348   1.000000
    174        -18.033845   1.000000
    175        -18.028692   1.000000
    176        -18.024993   1.000000
    177        -18.024666   1.000000
    178        -18.022550   1.000000
    179        -18.000289   1.000000
    180        -17.996223   1.000000
    181        -17.994812   1.000000
    182        -17.991471   1.000000
    183        -17.991103   1.000000
    184        -17.988083   1.000000
    185        -17.985323   1.000000
    186        -17.983452   1.000000
    187        -17.982724   1.000000
    188        -17.980083   1.000000
    189        -17.979039   1.000000
    190        -17.977582   1.000000
    191        -17.938880   1.000000
    192        -17.937301   1.000000
    193        -17.933696   1.000000
    194        -17.932402   1.000000
    195        -17.930410   1.000000
    196        -17.930163   1.000000
    197        -17.894176   1.000000
    198        -17.889147   1.000000
    199        -17.879368   1.000000
    200        -17.875186   1.000000
    201        -17.872883   1.000000
    202        -17.872754   1.000000
    203        -17.855425   1.000000
    204        -17.852697   1.000000
    205        -17.841772   1.000000
    206        -17.839414   1.000000
    207        -17.838819   1.000000
    208        -17.837988   1.000000
    209        -17.836966   1.000000
    210        -17.836445   1.000000
    211        -17.835387   1.000000
    212        -17.834971   1.000000
    213        -17.832473   1.000000
    214        -17.830751   1.000000
    215        -17.814545   1.000000
    216        -17.813307   1.000000
    217        -17.811238   1.000000
    218        -17.806463   1.000000
    219        -17.804467   1.000000
    220        -17.803391   1.000000
    221        -17.802453   1.000000
    222        -17.798951   1.000000
    223        -17.797703   1.000000
    224        -17.796911   1.000000
    225        -17.795255   1.000000
    226        -17.795068   1.000000
    227        -17.793925   1.000000
    228        -17.793201   1.000000
    229        -17.792035   1.000000
    230        -17.791629   1.000000
    231        -17.791065   1.000000
    232        -17.789744   1.000000
    233        -17.762669   1.000000
    234        -17.758302   1.000000
    235        -17.757867   1.000000
    236        -17.754419   1.000000
    237        -17.751775   1.000000
    238        -17.746955   1.000000
    239        -17.746058   1.000000
    240        -17.744207   1.000000
    241        -17.742726   1.000000
    242        -17.741772   1.000000
    243        -17.738128   1.000000
    244        -17.735345   1.000000
    245        -17.731301   1.000000
    246        -17.727799   1.000000
    247        -17.722746   1.000000
    248        -17.722356   1.000000
    249        -17.719862   1.000000
    250        -17.719022   1.000000
    251        -17.717227   1.000000
    252        -17.717173   1.000000
    253        -17.716535   1.000000
    254        -17.716239   1.000000
    255        -17.715641   1.000000
    256        -17.714755   1.000000
    257        -17.714335   1.000000
    258        -17.714255   1.000000
    259        -17.713615   1.000000
    260        -17.713244   1.000000
    261        -17.710588   1.000000
    262        -17.710224   1.000000
    263        -17.709961   1.000000
    264        -17.708770   1.000000
    265        -17.708376   1.000000
    266        -17.707955   1.000000
    267        -17.707344   1.000000
    268        -17.703930   1.000000
    269        -17.686785   1.000000
    270        -17.683350   1.000000
    271        -17.679954   1.000000
    272        -17.679612   1.000000
    273        -17.679383   1.000000
    274        -17.677351   1.000000
    275        -17.676263   1.000000
    276        -17.673117   1.000000
    277        -17.671658   1.000000
    278        -17.671264   1.000000
    279        -17.670009   1.000000
    280        -17.669915   1.000000
    281        -17.667740   1.000000
    282        -17.667203   1.000000
    283        -17.666666   1.000000
    284        -17.665872   1.000000
    285        -17.664871   1.000000
    286        -17.656832   1.000000
    287        -17.653700   1.000000
    288        -17.652201   1.000000
    289        -17.651990   1.000000
    290        -17.650806   1.000000
    291        -17.636675   1.000000
    292        -17.631555   1.000000
    293        -17.628119   1.000000
    294        -17.627487   1.000000
    295        -17.618837   1.000000
    296        -17.618051   1.000000
    297        -17.616119   1.000000
    298        -17.611792   1.000000
    299        -17.611006   1.000000
    300        -17.610166   1.000000
    301        -17.608430   1.000000
    302        -17.607845   1.000000
    303        -17.607445   1.000000
    304        -17.606082   1.000000
    305        -17.605904   1.000000
    306        -17.605280   1.000000
    307        -17.604478   1.000000
    308        -17.603636   1.000000
    309        -17.603050   1.000000
    310        -17.602391   1.000000
    311        -17.601727   1.000000
    312        -17.601506   1.000000
    313        -17.600448   1.000000
    314        -17.600215   1.000000
    315        -17.599635   1.000000
    316        -17.599195   1.000000
    317        -17.597240   1.000000
    318        -17.596503   1.000000
    319        -17.592651   1.000000
    320        -17.592462   1.000000
    321        -17.590006   1.000000
    322        -17.588020   1.000000
    323        -17.585772   1.000000
    324        -17.584437   1.000000
    325        -17.580485   1.000000
    326        -17.578606   1.000000
    327        -17.577316   1.000000
    328        -17.576501   1.000000
    329        -17.575529   1.000000
    330        -17.574338   1.000000
    331        -17.574114   1.000000
    332        -17.572878   1.000000
    333        -17.572514   1.000000
    334        -17.572245   1.000000
    335        -17.571477   1.000000
    336        -17.570338   1.000000
    337        -17.568577   1.000000
    338        -17.567312   1.000000
    339        -17.565415   1.000000
    340        -17.564191   1.000000
    341        -17.557052   1.000000
    342        -17.556906   1.000000
    343        -17.553482   1.000000
    344        -17.551300   1.000000
    345        -17.550774   1.000000
    346        -17.550717   1.000000
    347        -17.550049   1.000000
    348        -17.549853   1.000000
    349        -17.549634   1.000000
    350        -17.549357   1.000000
    351        -17.549061   1.000000
    352        -17.546871   1.000000
    353        -17.546784   1.000000
    354        -17.544971   1.000000
    355        -17.543738   1.000000
    356        -17.543592   1.000000
    357        -17.534378   1.000000
    358        -17.528216   1.000000
    359        -17.527444   1.000000
    360        -17.526553   1.000000
    361        -17.525952   1.000000
    362        -17.525633   1.000000
    363        -17.523551   1.000000
    364        -17.520538   1.000000
    365        -17.519783   1.000000
    366        -17.518126   1.000000
    367        -17.510505   1.000000
    368        -17.508483   1.000000
    369        -17.506961   1.000000
    370        -17.505014   1.000000
    371        -17.503003   1.000000
    372        -17.499042   1.000000
    373        -17.491345   1.000000
    374        -17.489327   1.000000
    375        -17.480676   1.000000
    376        -17.479583   1.000000
    377        -17.477688   1.000000
    378        -17.472105   1.000000
    379        -17.471249   1.000000
    380        -17.468599   1.000000
    381        -17.452101   1.000000
    382        -17.447622   1.000000
    383        -17.434504   1.000000
    384        -17.431076   1.000000
    385          2.454321   1.000000
    386          3.722403   1.000000
    387          3.825412   1.000000
    388          4.495977   1.000000
    389          4.508514   1.000000
    390          4.531766   1.000000
    391          4.533499   1.000000
    392          4.533766   1.000000
    393          4.709481   1.000000
    394          5.179045   1.000000
    395          5.180596   1.000000
    396          5.181812   1.000000
    397          5.267971   1.000000
    398          5.713803   1.000000
    399          5.715025   1.000000
    400          5.717346   1.000000
    401          5.758104   1.000000
    402          5.893906   1.000000
    403          5.900543   1.000000
    404          5.901174   1.000000
    405          5.910719   1.000000
    406          5.946496   1.000000
    407          5.958218   1.000000
    408          5.994184   1.000000
    409          5.995153   1.000000
    410          5.999114   1.000000
    411          5.999566   1.000000
    412          6.000764   1.000000
    413          6.001260   1.000000
    414          6.003240   1.000000
    415          6.031240   1.000000
    416          6.052764   1.000000
    417          6.053906   1.000000
    418          6.055543   1.000000
    419          6.130685   1.000000
    420          6.185716   1.000000
    421          6.186463   1.000000
    422          6.191098   1.000000
    423          6.191413   1.000000
    424          6.192604   1.000000
    425          6.192872   1.000000
    426          6.197223   1.000000
    427          6.263015   1.000000
    428          6.304247   1.000000
    429          6.379142   1.000000
    430          6.566030   1.000000
    431          6.570228   1.000000
    432          6.571444   1.000000
    433          6.573831   1.000000
    434          6.580464   1.000000
    435          6.583334   1.000000
    436          6.584439   1.000000
    437          6.621590   1.000000
    438          6.667703   1.000000
    439          6.668844   1.000000
    440          6.672816   1.000000
    441          6.697872   1.000000
    442          6.707302   1.000000
    443          6.730992   1.000000
    444          6.763656   1.000000
    445          6.765910   1.000000
    446          6.767099   1.000000
    447          6.767847   1.000000
    448          6.770342   1.000000
    449          6.770692   1.000000
    450          6.772947   1.000000
    451          6.793729   1.000000
    452          6.828120   1.000000
    453          6.832171   1.000000
    454          6.832495   1.000000
    455          6.844218   1.000000
    456          6.862118   1.000000
    457          6.862426   1.000000
    458          6.863227   1.000000
    459          6.868617   1.000000
    460          6.872632   1.000000
    461          6.878771   1.000000
    462          6.880171   1.000000
    463          6.881626   1.000000
    464          6.882608   1.000000
    465          6.883423   1.000000
    466          6.884854   1.000000
    467          6.888837   1.000000
    468          6.890293   1.000000
    469          6.902361   1.000000
    470          6.909024   1.000000
    471          6.909861   1.000000
    472          6.915931   1.000000
    473          6.918947   1.000000
    474          6.919961   1.000000
    475          7.080044   1.000000
    476          7.136598   1.000000
    477          7.144366   1.000000
    478          7.198297   1.000000
    479          7.202441   1.000000
    480          7.202679   1.000000
    481          7.259888   1.000000
    482          7.326758   1.000000
    483          7.365297   1.000000
    484          7.423524   1.000000
    485          7.425459   1.000000
    486          7.427732   1.000000
    487          7.428803   1.000000
    488          7.430328   1.000000
    489          7.453261   1.000000
    490          7.465513   1.000000
    491          7.473572   1.000000
    492          7.474083   1.000000
    493          7.492791   1.000000
    494          7.599545   1.000000
    495          7.613655   1.000000
    496          7.616310   1.000000
    497          7.632004   1.000000
    498          7.657438   1.000000
    499          7.669690   1.000000
    500          7.675916   1.000000
    501          7.676841   1.000000
    502          7.680731   1.000000
    503          7.681577   1.000000
    504          7.687102   1.000000
    505          7.695630   1.000000
    506          7.703576   1.000000
    507          7.706128   1.000000
    508          7.709803   1.000000
    509          7.710067   1.000000
    510          7.710546   1.000000
    511          7.716194   1.000000
    512          7.717763   1.000000
    513          7.794734   1.000000
    514          7.797713   1.000000
    515          7.803760   1.000000
    516          7.807147   1.000000
    517          7.868935   1.000000
    518          7.878659   1.000000
    519          7.885659   1.000000
    520          7.888504   1.000000
    521          7.930221   1.000000
    522          7.940557   1.000000
    523          7.943125   1.000000
    524          7.944235   1.000000
    525          7.993115   1.000000
    526          8.008585   1.000000
    527          8.048539   1.000000
    528          8.078684   1.000000
    529          8.081251   1.000000
    530          8.085096   1.000000
    531          8.150717   1.000000
    532          8.246314   1.000003
    533          8.247488   1.000003
    534          8.251321   1.000004
    535          8.265887   1.000006
    536          8.288948   1.000013
    537          8.290580   1.000013
    538          8.292646   1.000014
    539          8.293390   1.000015
    540          8.295221   1.000015
    541          8.296634   1.000016
    542          8.300993   1.000018
    543          8.345170   1.000069
    544          8.375529   1.000159
    545          8.385536   1.000208
    546          8.389624   1.000231
    547          8.392857   1.000251
    548          8.395351   1.000268
    549          8.397508   1.000283
    550          8.398828   1.000293
    551          8.403130   1.000327
    552          8.403726   1.000332
    553          8.406348   1.000355
    554          8.407023   1.000361
    555          8.408465   1.000374
    556          8.410374   1.000393
    557          8.411827   1.000407
    558          8.415721   1.000448
    559          8.443039   1.000860
    560          8.459498   1.001248
    561          8.463169   1.001354
    562          8.474383   1.001725
    563          8.489761   1.002375
    564          8.510877   1.003601
    565          8.623941   1.020282
    566          8.633720   1.022513
    567          8.637876   1.023473
    568          8.646148   1.025386
    569          8.827384   0.938639
    570          8.875865   0.811151
    571          8.877561   0.805665
    572          8.880367   0.796445
    573          8.998696   0.324265
    574          9.048324   0.152036
    575          9.057868   0.125122
    576          9.058485   0.123459
    577          9.061767   0.114772
    578          9.064498   0.107752
    579          9.068077   0.098831
    580          9.071914   0.089630
    581          9.073392   0.086184
    582          9.081235   0.068825
    583          9.103009   0.028664
    584          9.123615   0.000969
    585          9.124638  -0.000163
    586          9.132547  -0.008187
    587          9.134705  -0.010158
    588          9.137958  -0.012962
    589          9.139808  -0.014467
    590          9.140864  -0.015298
    591          9.142593  -0.016615
    592          9.146824  -0.019612
    593          9.147693  -0.020189
    594          9.149386  -0.021275
    595          9.149586  -0.021400
    596          9.150944  -0.022233
    597          9.154120  -0.024062
    598          9.154894  -0.024483
    599          9.157693  -0.025928
    600          9.158394  -0.026271
    601          9.159076  -0.026597
    602          9.163232  -0.028438
    603          9.163856  -0.028693
    604          9.171032  -0.031237
    605          9.276841  -0.022898
    606          9.292308  -0.019384
    607          9.296747  -0.018410
    608          9.304757  -0.016706
    609          9.306210  -0.016405
    610          9.311251  -0.015383
    611          9.313981  -0.014845
    612          9.317338  -0.014197
    613          9.321666  -0.013387
    614          9.328236  -0.012213
    615          9.374555  -0.005868
    616          9.376853  -0.005638
    617          9.407472  -0.003201
    618          9.416448  -0.002682
    619          9.422035  -0.002396
    620          9.422475  -0.002375
    621          9.556642  -0.000092
    622          9.579782  -0.000047
    623          9.582627  -0.000044
    624          9.583371  -0.000043
    625          9.593476  -0.000032
    626          9.595692  -0.000030
    627          9.599910  -0.000026
    628          9.606444  -0.000021
    629          9.664249  -0.000003
    630          9.665036  -0.000003
    631          9.671794  -0.000003
    632          9.696916  -0.000001
    633          9.700644  -0.000001
    634          9.704548  -0.000001
    635          9.711118  -0.000001
    636          9.712360  -0.000001
    637          9.714223  -0.000001
    638          9.716305  -0.000001
    639          9.720006  -0.000000
    640          9.720727  -0.000000
    641          9.724548  -0.000000
    642          9.725526  -0.000000
    643          9.730618  -0.000000
    644          9.744796  -0.000000
    645          9.763493  -0.000000
    646          9.767936  -0.000000
    647          9.774770  -0.000000
    648          9.775423  -0.000000
    649          9.829642  -0.000000
    650          9.844720  -0.000000
    651          9.905451  -0.000000
    652          9.908991  -0.000000
    653          9.911436  -0.000000
    654          9.913743  -0.000000
    655          9.919482  -0.000000
    656          9.925614  -0.000000
    657          9.949189  -0.000000
    658          9.960110  -0.000000
    659          9.961072  -0.000000
    660          9.966973  -0.000000
    661          9.967700  -0.000000
    662          9.969016  -0.000000
    663          9.972083  -0.000000
    664          9.975555  -0.000000
    665          9.986460  -0.000000
    666         10.010467  -0.000000
    667         10.014945  -0.000000
    668         10.020893  -0.000000
    669         10.030362  -0.000000
    670         10.033055  -0.000000
    671         10.107282  -0.000000
    672         10.127051  -0.000000
    673         10.192507  -0.000000
    674         10.203967  -0.000000
    675         10.205429  -0.000000
    676         10.207832  -0.000000
    677         10.210992  -0.000000
    678         10.221157  -0.000000
    679         10.223817  -0.000000
    680         10.229444  -0.000000
    681         10.248474  -0.000000
    682         10.250905  -0.000000
    683         10.255227  -0.000000
    684         10.264267  -0.000000
    685         10.272505  -0.000000
    686         10.278394  -0.000000
    687         10.279875  -0.000000
    688         10.280126  -0.000000
    689         10.282791  -0.000000
    690         10.291229  -0.000000
    691         10.303649  -0.000000
    692         10.314422  -0.000000
 
  0.5000000E+00  0.5000000E+00  0.0000000E+00  0.2083333E-01
      1        -39.898677   1.000000
      2        -39.886103   1.000000
      3        -39.868284   1.000000
      4        -39.861214   1.000000
      5        -39.856869   1.000000
      6        -39.854372   1.000000
      7        -39.854147   1.000000
      8        -39.850685   1.000000
      9        -39.838056   1.000000
     10        -39.833237   1.000000
     11        -39.830903   1.000000
     12        -39.826580   1.000000
     13        -39.826468   1.000000
     14        -39.816014   1.000000
     15        -39.815376   1.000000
     16        -39.808707   1.000000
     17        -39.808406   1.000000
     18        -39.804177   1.000000
     19        -39.799709   1.000000
     20        -39.797436   1.000000
     21        -39.793216   1.000000
     22        -39.791444   1.000000
     23        -39.788930   1.000000
     24        -39.788357   1.000000
     25        -39.787613   1.000000
     26        -39.787218   1.000000
     27        -39.785865   1.000000
     28        -39.782285   1.000000
     29        -39.781797   1.000000
     30        -39.779884   1.000000
     31        -39.778497   1.000000
     32        -39.778101   1.000000
     33        -39.776854   1.000000
     34        -39.775564   1.000000
     35        -39.774323   1.000000
     36        -39.773543   1.000000
     37        -39.769925   1.000000
     38        -39.768937   1.000000
     39        -39.768301   1.000000
     40        -39.767352   1.000000
     41        -39.765064   1.000000
     42        -39.764091   1.000000
     43        -39.763252   1.000000
     44        -39.762040   1.000000
     45        -39.761098   1.000000
     46        -39.758866   1.000000
     47        -39.757221   1.000000
     48        -39.756471   1.000000
     49        -39.756023   1.000000
     50        -39.754789   1.000000
     51        -39.753918   1.000000
     52        -39.750337   1.000000
     53        -39.749887   1.000000
     54        -39.748667   1.000000
     55        -39.747381   1.000000
     56        -39.746559   1.000000
     57        -39.745344   1.000000
     58        -39.745015   1.000000
     59        -39.744521   1.000000
     60        -39.744113   1.000000
     61        -39.742980   1.000000
     62        -39.742267   1.000000
     63        -39.741410   1.000000
     64        -39.740365   1.000000
     65        -39.740166   1.000000
     66        -39.739706   1.000000
     67        -39.737890   1.000000
     68        -39.737646   1.000000
     69        -39.736450   1.000000
     70        -39.736139   1.000000
     71        -39.735212   1.000000
     72        -39.735179   1.000000
     73        -39.734756   1.000000
     74        -39.732982   1.000000
     75        -39.732477   1.000000
     76        -39.732412   1.000000
     77        -39.732237   1.000000
     78        -39.731482   1.000000
     79        -39.730099   1.000000
     80        -39.729784   1.000000
     81        -39.727837   1.000000
     82        -39.727362   1.000000
     83        -39.725715   1.000000
     84        -39.725542   1.000000
     85        -39.724646   1.000000
     86        -39.722652   1.000000
     87        -39.722278   1.000000
     88        -39.721415   1.000000
     89        -39.718937   1.000000
     90        -39.717431   1.000000
     91        -39.715801   1.000000
     92        -39.714954   1.000000
     93        -39.714756   1.000000
     94        -39.714172   1.000000
     95        -39.713567   1.000000
     96        -39.712592   1.000000
     97        -18.376097   1.000000
     98        -18.368879   1.000000
     99        -18.318946   1.000000
    100        -18.287910   1.000000
    101        -18.286947   1.000000
    102        -18.284880   1.000000
    103        -18.282685   1.000000
    104        -18.282038   1.000000
    105        -18.281233   1.000000
    106        -18.281194   1.000000
    107        -18.280607   1.000000
    108        -18.280276   1.000000
    109        -18.271459   1.000000
    110        -18.265086   1.000000
    111        -18.262949   1.000000
    112        -18.261845   1.000000
    113        -18.230280   1.000000
    114        -18.209811   1.000000
    115        -18.208069   1.000000
    116        -18.207529   1.000000
    117        -18.205819   1.000000
    118        -18.201383   1.000000
    119        -18.198361   1.000000
    120        -18.198162   1.000000
    121        -18.197243   1.000000
    122        -18.196175   1.000000
    123        -18.195881   1.000000
    124        -18.195611   1.000000
    125        -18.195321   1.000000
    126        -18.194604   1.000000
    127        -18.194415   1.000000
    128        -18.193444   1.000000
    129        -18.193173   1.000000
    130        -18.193138   1.000000
    131        -18.192326   1.000000
    132        -18.192078   1.000000
    133        -18.191525   1.000000
    134        -18.190311   1.000000
    135        -18.189892   1.000000
    136        -18.189219   1.000000
    137        -18.173034   1.000000
    138        -18.170625   1.000000
    139        -18.167175   1.000000
    140        -18.166364   1.000000
    141        -18.164656   1.000000
    142        -18.158212   1.000000
    143        -18.157986   1.000000
    144        -18.157440   1.000000
    145        -18.156356   1.000000
    146        -18.156103   1.000000
    147        -18.153590   1.000000
    148        -18.153261   1.000000
    149        -18.152382   1.000000
    150        -18.151522   1.000000
    151        -18.150554   1.000000
    152        -18.149192   1.000000
    153        -18.146972   1.000000
    154        -18.145299   1.000000
    155        -18.142812   1.000000
    156        -18.142009   1.000000
    157        -18.140964   1.000000
    158        -18.139846   1.000000
    159        -18.139694   1.000000
    160        -18.138190   1.000000
    161        -18.089347   1.000000
    162        -18.084052   1.000000
    163        -18.075097   1.000000
    164        -18.074611   1.000000
    165        -18.070540   1.000000
    166        -18.070384   1.000000
    167        -18.069948   1.000000
    168        -18.068825   1.000000
    169        -18.067874   1.000000
    170        -18.067837   1.000000
    171        -18.043919   1.000000
    172        -18.037587   1.000000
    173        -18.034348   1.000000
    174        -18.033845   1.000000
    175        -18.028692   1.000000
    176        -18.024993   1.000000
    177        -18.024666   1.000000
    178        -18.022550   1.000000
    179        -18.000289   1.000000
    180        -17.996223   1.000000
    181        -17.994812   1.000000
    182        -17.991471   1.000000
    183        -17.991103   1.000000
    184        -17.988083   1.000000
    185        -17.985323   1.000000
    186        -17.983452   1.000000
    187        -17.982724   1.000000
    188        -17.980083   1.000000
    189        -17.979039   1.000000
    190        -17.977582   1.000000
    191        -17.938880   1.000000
    192        -17.937301   1.000000
    193        -17.933696   1.000000
    194        -17.932402   1.000000
    195        -17.930410   1.000000
    196        -17.930163   1.000000
    197        -17.894176   1.000000
    198        -17.889147   1.000000
    199        -17.879368   1.000000
    200        -17.875186   1.000000
    201        -17.872883   1.000000
    202        -17.872754   1.000000
    203        -17.855425   1.000000
    204        -17.852697   1.000000
    205        -17.841772   1.000000
    206        -17.839414   1.000000
    207        -17.838819   1.000000
    208        -17.837988   1.000000
    209        -17.836966   1.000000
    210        -17.836445   1.000000
    211        -17.835387   1.000000
    212        -17.834971   1.000000
    213        -17.832473   1.000000
    214        -17.830751   1.000000
    215        -17.814545   1.000000
    216        -17.813307   1.000000
    217        -17.811238   1.000000
    218        -17.806463   1.000000
    219        -17.804467   1.000000
    220        -17.803391   1.000000
    221        -17.802453   1.000000
    222        -17.798951   1.000000
    223        -17.797703   1.000000
    224        -17.796911   1.000000
    225        -17.795255   1.000000
    226        -17.795068   1.000000
    227        -17.793925   1.000000
    228        -17.793201   1.000000
    229        -17.792035   1.000000
    230        -17.791629   1.000000
    231        -17.791065   1.000000
    232        -17.789744   1.000000
    233        -17.762669   1.000000
    234        -17.758302   1.000000
    235        -17.757867   1.000000
    236        -17.754419   1.000000
    237        -17.751775   1.000000
    238        -17.746955   1.000000
    239        -17.746058   1.000000
    240        -17.744207   1.000000
    241        -17.742726   1.000000
    242        -17.741771   1.000000
    243        -17.738128   1.000000
    244        -17.735345   1.000000
    245        -17.731301   1.000000
    246        -17.727799   1.000000
    247        -17.722746   1.000000
    248        -17.722356   1.000000
    249        -17.719862   1.000000
    250        -17.719022   1.000000
    251        -17.717227   1.000000
    252        -17.717173   1.000000
    253        -17.716536   1.000000
    254        -17.716239   1.000000
    255        -17.715641   1.000000
    256        -17.714755   1.000000
    257        -17.714335   1.000000
    258        -17.714255   1.000000
    259        -17.713615   1.000000
    260        -17.713244   1.000000
    261        -17.710588   1.000000
    262        -17.710224   1.000000
    263        -17.709961   1.000000
    264        -17.708770   1.000000
    265        -17.708376   1.000000
    266        -17.707955   1.000000
    267        -17.707344   1.000000
    268        -17.703930   1.000000
    269        -17.686785   1.000000
    270        -17.683350   1.000000
    271        -17.679954   1.000000
    272        -17.679612   1.000000
    273        -17.679383   1.000000
    274        -17.677351   1.000000
    275        -17.676263   1.000000
    276        -17.673117   1.000000
    277        -17.671658   1.000000
    278        -17.671264   1.000000
    279        -17.670009   1.000000
    280        -17.669915   1.000000
    281        -17.667740   1.000000
    282        -17.667203   1.000000
    283        -17.666666   1.000000
    284        -17.665871   1.000000
    285        -17.664871   1.000000
    286        -17.656832   1.000000
    287        -17.653700   1.000000
    288        -17.652201   1.000000
    289        -17.651990   1.000000
    290        -17.650806   1.000000
    291        -17.636675   1.000000
    292        -17.631555   1.000000
    293        -17.628119   1.000000
    294        -17.627487   1.000000
    295        -17.618837   1.000000
    296        -17.618051   1.000000
    297        -17.616119   1.000000
    298        -17.611792   1.000000
    299        -17.611006   1.000000
    300        -17.610166   1.000000
    301        -17.608430   1.000000
    302        -17.607845   1.000000
    303        -17.607445   1.000000
    304        -17.606082   1.000000
    305        -17.605904   1.000000
    306        -17.605280   1.000000
    307        -17.604478   1.000000
    308        -17.603636   1.000000
    309        -17.603050   1.000000
    310        -17.602391   1.000000
    311        -17.601727   1.000000
    312        -17.601506   1.000000
    313        -17.600448   1.000000
    314        -17.600215   1.000000
    315        -17.599635   1.000000
    316        -17.599195   1.000000
    317        -17.597240   1.000000
    318        -17.596503   1.000000
    319        -17.592651   1.000000
    320        -17.592462   1.000000
    321        -17.590006   1.000000
    322        -17.588020   1.000000
    323        -17.585772   1.000000
    324        -17.584437   1.000000
    325        -17.580485   1.000000
    326        -17.578606   1.000000
    327        -17.577316   1.000000
    328        -17.576501   1.000000
    329        -17.575529   1.000000
    330        -17.574338   1.000000
    331        -17.574114   1.000000
    332        -17.572878   1.000000
    333        -17.572514   1.000000
    334        -17.572245   1.000000
    335        -17.571477   1.000000
    336        -17.570338   1.000000
    337        -17.568577   1.000000
    338        -17.567312   1.000000
    339        -17.565415   1.000000
    340        -17.564191   1.000000
    341        -17.557052   1.000000
    342        -17.556906   1.000000
    343        -17.553482   1.000000
    344        -17.551300   1.000000
    345        -17.550774   1.000000
    346        -17.550717   1.000000
    347        -17.550049   1.000000
    348        -17.549853   1.000000
    349        -17.549634   1.000000
    350        -17.549357   1.000000
    351        -17.549061   1.000000
    352        -17.546871   1.000000
    353        -17.546784   1.000000
    354        -17.544971   1.000000
    355        -17.543738   1.000000
    356        -17.543592   1.000000
    357        -17.534378   1.000000
    358        -17.528216   1.000000
    359        -17.527444   1.000000
    360        -17.526553   1.000000
    361        -17.525952   1.000000
    362        -17.525633   1.000000
    363        -17.523551   1.000000
    364        -17.520538   1.000000
    365        -17.519783   1.000000
    366        -17.518126   1.000000
    367        -17.510505   1.000000
    368        -17.508483   1.000000
    369        -17.506961   1.000000
    370        -17.505014   1.000000
    371        -17.503003   1.000000
    372        -17.499042   1.000000
    373        -17.491345   1.000000
    374        -17.489327   1.000000
    375        -17.480676   1.000000
    376        -17.479583   1.000000
    377        -17.477688   1.000000
    378        -17.472105   1.000000
    379        -17.471249   1.000000
    380        -17.468599   1.000000
    381        -17.452101   1.000000
    382        -17.447622   1.000000
    383        -17.434504   1.000000
    384        -17.431076   1.000000
    385          2.454321   1.000000
    386          3.722403   1.000000
    387          3.825412   1.000000
    388          4.495977   1.000000
    389          4.508514   1.000000
    390          4.531766   1.000000
    391          4.533499   1.000000
    392          4.533766   1.000000
    393          4.709481   1.000000
    394          5.179045   1.000000
    395          5.180596   1.000000
    396          5.181812   1.000000
    397          5.267971   1.000000
    398          5.713803   1.000000
    399          5.715025   1.000000
    400          5.717346   1.000000
    401          5.758104   1.000000
    402          5.893906   1.000000
    403          5.900543   1.000000
    404          5.901174   1.000000
    405          5.910719   1.000000
    406          5.946496   1.000000
    407          5.958218   1.000000
    408          5.994184   1.000000
    409          5.995153   1.000000
    410          5.999114   1.000000
    411          5.999566   1.000000
    412          6.000764   1.000000
    413          6.001260   1.000000
    414          6.003240   1.000000
    415          6.031240   1.000000
    416          6.052764   1.000000
    417          6.053906   1.000000
    418          6.055543   1.000000
    419          6.130685   1.000000
    420          6.185715   1.000000
    421          6.186463   1.000000
    422          6.191098   1.000000
    423          6.191413   1.000000
    424          6.192604   1.000000
    425          6.192872   1.000000
    426          6.197223   1.000000
    427          6.263015   1.000000
    428          6.304247   1.000000
    429          6.379142   1.000000
    430          6.566030   1.000000
    431          6.570228   1.000000
    432          6.571444   1.000000
    433          6.573830   1.000000
    434          6.580464   1.000000
    435          6.583334   1.000000
    436          6.584439   1.000000
    437          6.621590   1.000000
    438          6.667703   1.000000
    439          6.668844   1.000000
    440          6.672816   1.000000
    441          6.697872   1.000000
    442          6.707302   1.000000
    443          6.730992   1.000000
    444          6.763656   1.000000
    445          6.765910   1.000000
    446          6.767099   1.000000
    447          6.767847   1.000000
    448          6.770342   1.000000
    449          6.770693   1.000000
    450          6.772947   1.000000
    451          6.793729   1.000000
    452          6.828120   1.000000
    453          6.832171   1.000000
    454          6.832495   1.000000
    455          6.844218   1.000000
    456          6.862118   1.000000
    457          6.862426   1.000000
    458          6.863227   1.000000
    459          6.868617   1.000000
    460          6.872632   1.000000
    461          6.878771   1.000000
    462          6.880171   1.000000
    463          6.881626   1.000000
    464          6.882608   1.000000
    465          6.883423   1.000000
    466          6.884854   1.000000
    467          6.888837   1.000000
    468          6.890293   1.000000
    469          6.902361   1.000000
    470          6.909024   1.000000
    471          6.909861   1.000000
    472          6.915931   1.000000
    473          6.918948   1.000000
    474          6.919961   1.000000
    475          7.080044   1.000000
    476          7.136598   1.000000
    477          7.144366   1.000000
    478          7.198297   1.000000
    479          7.202442   1.000000
    480          7.202679   1.000000
    481          7.259888   1.000000
    482          7.326758   1.000000
    483          7.365297   1.000000
    484          7.423524   1.000000
    485          7.425459   1.000000
    486          7.427732   1.000000
    487          7.428803   1.000000
    488          7.430328   1.000000
    489          7.453260   1.000000
    490          7.465513   1.000000
    491          7.473572   1.000000
    492          7.474083   1.000000
    493          7.492791   1.000000
    494          7.599545   1.000000
    495          7.613655   1.000000
    496          7.616310   1.000000
    497          7.632004   1.000000
    498          7.657438   1.000000
    499          7.669690   1.000000
    500          7.675916   1.000000
    501          7.676841   1.000000
    502          7.680731   1.000000
    503          7.681577   1.000000
    504          7.687102   1.000000
    505          7.695630   1.000000
    506          7.703576   1.000000
    507          7.706128   1.000000
    508          7.709803   1.000000
    509          7.710067   1.000000
    510          7.710546   1.000000
    511          7.716194   1.000000
    512          7.717763   1.000000
    513          7.794734   1.000000
    514          7.797713   1.000000
    515          7.803760   1.000000
    516          7.807147   1.000000
    517          7.868935   1.000000
    518          7.878659   1.000000
    519          7.885659   1.000000
    520          7.888504   1.000000
    521          7.930221   1.000000
    522          7.940557   1.000000
    523          7.943125   1.000000
    524          7.944235   1.000000
    525          7.993115   1.000000
    526          8.008585   1.000000
    527          8.048539   1.000000
    528          8.078683   1.000000
    529          8.081251   1.000000
    530          8.085096   1.000000
    531          8.150717   1.000000
    532          8.246314   1.000003
    533          8.247488   1.000003
    534          8.251321   1.000004
    535          8.265887   1.000006
    536          8.288948   1.000013
    537          8.290580   1.000013
    538          8.292647   1.000014
    539          8.293390   1.000015
    540          8.295221   1.000015
    541          8.296634   1.000016
    542          8.300993   1.000018
    543          8.345170   1.000069
    544          8.375529   1.000159
    545          8.385536   1.000208
    546          8.389624   1.000231
    547          8.392857   1.000251
    548          8.395351   1.000268
    549          8.397508   1.000283
    550          8.398828   1.000293
    551          8.403130   1.000327
    552          8.403726   1.000332
    553          8.406348   1.000355
    554          8.407023   1.000361
    555          8.408465   1.000374
    556          8.410374   1.000393
    557          8.411827   1.000407
    558          8.415721   1.000448
    559          8.443039   1.000860
    560          8.459498   1.001248
    561          8.463169   1.001354
    562          8.474383   1.001725
    563          8.489761   1.002375
    564          8.510877   1.003601
    565          8.623941   1.020283
    566          8.633720   1.022513
    567          8.637876   1.023473
    568          8.646148   1.025386
    569          8.827384   0.938639
    570          8.875864   0.811151
    571          8.877560   0.805665
    572          8.880367   0.796445
    573          8.998696   0.324265
    574          9.048324   0.152036
    575          9.057868   0.125122
    576          9.058485   0.123459
    577          9.061767   0.114772
    578          9.064498   0.107752
    579          9.068077   0.098831
    580          9.071914   0.089631
    581          9.073392   0.086184
    582          9.081235   0.068825
    583          9.103009   0.028664
    584          9.123615   0.000969
    585          9.124638  -0.000163
    586          9.132547  -0.008187
    587          9.134705  -0.010158
    588          9.137958  -0.012962
    589          9.139808  -0.014467
    590          9.140864  -0.015298
    591          9.142593  -0.016615
    592          9.146824  -0.019612
    593          9.147693  -0.020189
    594          9.149386  -0.021275
    595          9.149586  -0.021400
    596          9.150944  -0.022233
    597          9.154120  -0.024062
    598          9.154894  -0.024483
    599          9.157693  -0.025928
    600          9.158394  -0.026271
    601          9.159076  -0.026597
    602          9.163232  -0.028438
    603          9.163856  -0.028693
    604          9.171032  -0.031237
    605          9.276841  -0.022898
    606          9.292308  -0.019384
    607          9.296747  -0.018410
    608          9.304757  -0.016706
    609          9.306210  -0.016405
    610          9.311251  -0.015383
    611          9.313981  -0.014845
    612          9.317338  -0.014197
    613          9.321666  -0.013387
    614          9.328236  -0.012213
    615          9.374555  -0.005868
    616          9.376853  -0.005638
    617          9.407472  -0.003201
    618          9.416448  -0.002682
    619          9.422035  -0.002396
    620          9.422475  -0.002375
    621          9.556642  -0.000092
    622          9.579782  -0.000047
    623          9.582627  -0.000044
    624          9.583371  -0.000043
    625          9.593476  -0.000032
    626          9.595692  -0.000030
    627          9.599910  -0.000026
    628          9.606444  -0.000021
    629          9.664249  -0.000003
    630          9.665036  -0.000003
    631          9.671794  -0.000003
    632          9.696916  -0.000001
    633          9.700644  -0.000001
    634          9.704548  -0.000001
    635          9.711118  -0.000001
    636          9.712360  -0.000001
    637          9.714223  -0.000001
    638          9.716305  -0.000001
    639          9.720006  -0.000000
    640          9.720727  -0.000000
    641          9.724548  -0.000000
    642          9.725526  -0.000000
    643          9.730618  -0.000000
    644          9.744796  -0.000000
    645          9.763493  -0.000000
    646          9.767936  -0.000000
    647          9.774770  -0.000000
    648          9.775423  -0.000000
    649          9.829642  -0.000000
    650          9.844720  -0.000000
    651          9.905451  -0.000000
    652          9.908991  -0.000000
    653          9.911437  -0.000000
    654          9.913743  -0.000000
    655          9.919482  -0.000000
    656          9.925614  -0.000000
    657          9.949189  -0.000000
    658          9.960110  -0.000000
    659          9.961072  -0.000000
    660          9.966973  -0.000000
    661          9.967700  -0.000000
    662          9.969016  -0.000000
    663          9.972083  -0.000000
    664          9.975555  -0.000000
    665          9.986460  -0.000000
    666         10.010467  -0.000000
    667         10.014945  -0.000000
    668         10.020893  -0.000000
    669         10.030362  -0.000000
    670         10.033055  -0.000000
    671         10.107282  -0.000000
    672         10.127051  -0.000000
    673         10.192507  -0.000000
    674         10.203967  -0.000000
    675         10.205429  -0.000000
    676         10.207832  -0.000000
    677         10.210992  -0.000000
    678         10.221157  -0.000000
    679         10.223817  -0.000000
    680         10.229444  -0.000000
    681         10.248474  -0.000000
    682         10.250905  -0.000000
    683         10.255227  -0.000000
    684         10.264265  -0.000000
    685         10.272516  -0.000000
    686         10.278392  -0.000000
    687         10.279887  -0.000000
    688         10.280147  -0.000000
    689         10.282751  -0.000000
    690         10.291176  -0.000000
    691         10.303879  -0.000000
    692         10.310929  -0.000000
 
  0.2500000E+00  0.2500000E+00  0.0000000E+00  0.4166667E-01
      1        -39.899288   1.000000
      2        -39.882287   1.000000
      3        -39.874544   1.000000
      4        -39.863155   1.000000
      5        -39.858183   1.000000
      6        -39.850243   1.000000
      7        -39.848896   1.000000
      8        -39.845921   1.000000
      9        -39.841661   1.000000
     10        -39.838985   1.000000
     11        -39.834378   1.000000
     12        -39.825156   1.000000
     13        -39.821994   1.000000
     14        -39.816848   1.000000
     15        -39.814022   1.000000
     16        -39.809488   1.000000
     17        -39.807597   1.000000
     18        -39.803111   1.000000
     19        -39.802326   1.000000
     20        -39.799457   1.000000
     21        -39.796533   1.000000
     22        -39.791847   1.000000
     23        -39.789072   1.000000
     24        -39.786440   1.000000
     25        -39.785792   1.000000
     26        -39.783717   1.000000
     27        -39.783249   1.000000
     28        -39.782824   1.000000
     29        -39.781333   1.000000
     30        -39.780685   1.000000
     31        -39.779935   1.000000
     32        -39.777961   1.000000
     33        -39.775957   1.000000
     34        -39.774985   1.000000
     35        -39.773554   1.000000
     36        -39.773059   1.000000
     37        -39.770902   1.000000
     38        -39.769870   1.000000
     39        -39.769190   1.000000
     40        -39.768297   1.000000
     41        -39.767322   1.000000
     42        -39.766598   1.000000
     43        -39.763115   1.000000
     44        -39.760865   1.000000
     45        -39.758784   1.000000
     46        -39.758058   1.000000
     47        -39.757006   1.000000
     48        -39.755664   1.000000
     49        -39.755132   1.000000
     50        -39.754025   1.000000
     51        -39.753475   1.000000
     52        -39.751553   1.000000
     53        -39.750985   1.000000
     54        -39.750521   1.000000
     55        -39.748465   1.000000
     56        -39.747801   1.000000
     57        -39.746192   1.000000
     58        -39.744993   1.000000
     59        -39.743985   1.000000
     60        -39.743285   1.000000
     61        -39.742641   1.000000
     62        -39.742022   1.000000
     63        -39.740976   1.000000
     64        -39.739946   1.000000
     65        -39.739603   1.000000
     66        -39.738917   1.000000
     67        -39.738334   1.000000
     68        -39.736762   1.000000
     69        -39.736348   1.000000
     70        -39.735861   1.000000
     71        -39.735221   1.000000
     72        -39.735012   1.000000
     73        -39.734924   1.000000
     74        -39.734289   1.000000
     75        -39.732969   1.000000
     76        -39.732163   1.000000
     77        -39.731624   1.000000
     78        -39.731153   1.000000
     79        -39.731081   1.000000
     80        -39.728411   1.000000
     81        -39.727655   1.000000
     82        -39.727418   1.000000
     83        -39.726440   1.000000
     84        -39.725294   1.000000
     85        -39.724370   1.000000
     86        -39.723286   1.000000
     87        -39.722570   1.000000
     88        -39.721444   1.000000
     89        -39.719001   1.000000
     90        -39.717728   1.000000
     91        -39.715443   1.000000
     92        -39.715064   1.000000
     93        -39.714443   1.000000
     94        -39.714009   1.000000
     95        -39.713803   1.000000
     96        -39.712601   1.000000
     97        -18.384093   1.000000
     98        -18.343634   1.000000
     99        -18.335730   1.000000
    100        -18.317879   1.000000
    101        -18.298658   1.000000
    102        -18.293711   1.000000
    103        -18.286004   1.000000
    104        -18.284398   1.000000
    105        -18.284104   1.000000
    106        -18.267333   1.000000
    107        -18.255981   1.000000
    108        -18.255631   1.000000
    109        -18.254186   1.000000
    110        -18.249081   1.000000
    111        -18.242891   1.000000
    112        -18.240671   1.000000
    113        -18.239580   1.000000
    114        -18.234753   1.000000
    115        -18.230562   1.000000
    116        -18.228128   1.000000
    117        -18.226571   1.000000
    118        -18.219820   1.000000
    119        -18.217842   1.000000
    120        -18.217243   1.000000
    121        -18.214055   1.000000
    122        -18.210260   1.000000
    123        -18.200340   1.000000
    124        -18.189361   1.000000
    125        -18.185942   1.000000
    126        -18.184980   1.000000
    127        -18.184028   1.000000
    128        -18.183283   1.000000
    129        -18.182492   1.000000
    130        -18.181803   1.000000
    131        -18.181563   1.000000
    132        -18.180924   1.000000
    133        -18.179735   1.000000
    134        -18.178892   1.000000
    135        -18.177539   1.000000
    136        -18.175531   1.000000
    137        -18.173655   1.000000
    138        -18.171832   1.000000
    139        -18.166878   1.000000
    140        -18.166681   1.000000
    141        -18.165821   1.000000
    142        -18.164569   1.000000
    143        -18.163434   1.000000
    144        -18.162084   1.000000
    145        -18.161798   1.000000
    146        -18.159371   1.000000
    147        -18.158636   1.000000
    148        -18.156801   1.000000
    149        -18.155145   1.000000
    150        -18.152876   1.000000
    151        -18.150320   1.000000
    152        -18.147686   1.000000
    153        -18.146640   1.000000
    154        -18.145620   1.000000
    155        -18.144607   1.000000
    156        -18.127666   1.000000
    157        -18.124665   1.000000
    158        -18.122415   1.000000
    159        -18.119403   1.000000
    160        -18.117073   1.000000
    161        -18.112213   1.000000
    162        -18.107808   1.000000
    163        -18.105975   1.000000
    164        -18.104530   1.000000
    165        -18.091972   1.000000
    166        -18.089709   1.000000
    167        -18.065294   1.000000
    168        -18.059363   1.000000
    169        -18.058311   1.000000
    170        -18.054758   1.000000
    171        -18.051868   1.000000
    172        -18.044883   1.000000
    173        -18.043653   1.000000
    174        -18.027794   1.000000
    175        -18.026589   1.000000
    176        -18.021291   1.000000
    177        -18.020325   1.000000
    178        -18.018714   1.000000
    179        -18.017751   1.000000
    180        -17.997596   1.000000
    181        -17.994125   1.000000
    182        -17.983234   1.000000
    183        -17.976997   1.000000
    184        -17.973037   1.000000
    185        -17.971978   1.000000
    186        -17.971399   1.000000
    187        -17.967116   1.000000
    188        -17.965246   1.000000
    189        -17.960940   1.000000
    190        -17.951777   1.000000
    191        -17.946547   1.000000
    192        -17.942971   1.000000
    193        -17.942373   1.000000
    194        -17.940433   1.000000
    195        -17.912617   1.000000
    196        -17.908335   1.000000
    197        -17.906433   1.000000
    198        -17.904317   1.000000
    199        -17.903411   1.000000
    200        -17.902705   1.000000
    201        -17.880347   1.000000
    202        -17.873312   1.000000
    203        -17.872296   1.000000
    204        -17.869398   1.000000
    205        -17.861779   1.000000
    206        -17.855354   1.000000
    207        -17.851557   1.000000
    208        -17.845509   1.000000
    209        -17.842831   1.000000
    210        -17.828905   1.000000
    211        -17.821550   1.000000
    212        -17.818805   1.000000
    213        -17.815879   1.000000
    214        -17.814911   1.000000
    215        -17.813543   1.000000
    216        -17.809623   1.000000
    217        -17.805243   1.000000
    218        -17.804101   1.000000
    219        -17.802898   1.000000
    220        -17.799683   1.000000
    221        -17.798878   1.000000
    222        -17.798065   1.000000
    223        -17.796459   1.000000
    224        -17.795345   1.000000
    225        -17.792691   1.000000
    226        -17.790903   1.000000
    227        -17.788826   1.000000
    228        -17.784422   1.000000
    229        -17.783022   1.000000
    230        -17.777971   1.000000
    231        -17.775789   1.000000
    232        -17.774110   1.000000
    233        -17.772589   1.000000
    234        -17.772116   1.000000
    235        -17.771038   1.000000
    236        -17.768596   1.000000
    237        -17.764528   1.000000
    238        -17.761447   1.000000
    239        -17.761365   1.000000
    240        -17.759388   1.000000
    241        -17.758737   1.000000
    242        -17.756462   1.000000
    243        -17.742907   1.000000
    244        -17.741665   1.000000
    245        -17.738356   1.000000
    246        -17.732870   1.000000
    247        -17.730905   1.000000
    248        -17.728585   1.000000
    249        -17.727982   1.000000
    250        -17.726495   1.000000
    251        -17.725762   1.000000
    252        -17.725452   1.000000
    253        -17.720221   1.000000
    254        -17.718172   1.000000
    255        -17.716176   1.000000
    256        -17.714409   1.000000
    257        -17.708686   1.000000
    258        -17.705772   1.000000
    259        -17.704633   1.000000
    260        -17.701413   1.000000
    261        -17.700840   1.000000
    262        -17.698719   1.000000
    263        -17.696936   1.000000
    264        -17.696362   1.000000
    265        -17.691606   1.000000
    266        -17.688213   1.000000
    267        -17.686671   1.000000
    268        -17.685549   1.000000
    269        -17.683886   1.000000
    270        -17.682609   1.000000
    271        -17.676674   1.000000
    272        -17.676272   1.000000
    273        -17.675385   1.000000
    274        -17.674552   1.000000
    275        -17.674301   1.000000
    276        -17.673028   1.000000
    277        -17.669336   1.000000
    278        -17.668565   1.000000
    279        -17.665625   1.000000
    280        -17.663254   1.000000
    281        -17.660326   1.000000
    282        -17.657837   1.000000
    283        -17.656191   1.000000
    284        -17.654877   1.000000
    285        -17.653035   1.000000
    286        -17.651010   1.000000
    287        -17.647961   1.000000
    288        -17.646545   1.000000
    289        -17.644974   1.000000
    290        -17.643568   1.000000
    291        -17.642065   1.000000
    292        -17.640884   1.000000
    293        -17.639496   1.000000
    294        -17.638477   1.000000
    295        -17.637827   1.000000
    296        -17.634387   1.000000
    297        -17.630860   1.000000
    298        -17.630127   1.000000
    299        -17.629798   1.000000
    300        -17.628644   1.000000
    301        -17.627813   1.000000
    302        -17.623352   1.000000
    303        -17.621953   1.000000
    304        -17.614859   1.000000
    305        -17.611715   1.000000
    306        -17.610900   1.000000
    307        -17.607610   1.000000
    308        -17.606659   1.000000
    309        -17.605075   1.000000
    310        -17.602314   1.000000
    311        -17.601213   1.000000
    312        -17.598647   1.000000
    313        -17.591413   1.000000
    314        -17.589956   1.000000
    315        -17.589861   1.000000
    316        -17.588669   1.000000
    317        -17.587522   1.000000
    318        -17.585705   1.000000
    319        -17.585166   1.000000
    320        -17.583951   1.000000
    321        -17.582753   1.000000
    322        -17.582435   1.000000
    323        -17.582150   1.000000
    324        -17.581214   1.000000
    325        -17.580770   1.000000
    326        -17.579268   1.000000
    327        -17.577149   1.000000
    328        -17.576018   1.000000
    329        -17.575313   1.000000
    330        -17.573476   1.000000
    331        -17.573113   1.000000
    332        -17.571810   1.000000
    333        -17.570664   1.000000
    334        -17.568550   1.000000
    335        -17.567651   1.000000
    336        -17.567310   1.000000
    337        -17.565545   1.000000
    338        -17.565080   1.000000
    339        -17.564739   1.000000
    340        -17.564094   1.000000
    341        -17.563090   1.000000
    342        -17.562367   1.000000
    343        -17.561770   1.000000
    344        -17.561468   1.000000
    345        -17.560552   1.000000
    346        -17.557175   1.000000
    347        -17.556493   1.000000
    348        -17.555376   1.000000
    349        -17.554005   1.000000
    350        -17.549448   1.000000
    351        -17.548503   1.000000
    352        -17.547550   1.000000
    353        -17.546091   1.000000
    354        -17.538377   1.000000
    355        -17.537926   1.000000
    356        -17.537521   1.000000
    357        -17.536659   1.000000
    358        -17.533878   1.000000
    359        -17.532901   1.000000
    360        -17.527227   1.000000
    361        -17.525664   1.000000
    362        -17.522191   1.000000
    363        -17.519562   1.000000
    364        -17.518185   1.000000
    365        -17.517438   1.000000
    366        -17.516134   1.000000
    367        -17.515032   1.000000
    368        -17.513625   1.000000
    369        -17.511938   1.000000
    370        -17.496780   1.000000
    371        -17.492215   1.000000
    372        -17.491881   1.000000
    373        -17.490171   1.000000
    374        -17.489143   1.000000
    375        -17.487620   1.000000
    376        -17.486066   1.000000
    377        -17.471399   1.000000
    378        -17.468545   1.000000
    379        -17.467539   1.000000
    380        -17.462975   1.000000
    381        -17.449907   1.000000
    382        -17.448890   1.000000
    383        -17.444545   1.000000
    384        -17.431862   1.000000
    385          2.454251   1.000000
    386          3.670017   1.000000
    387          4.024675   1.000000
    388          4.104981   1.000000
    389          4.442112   1.000000
    390          4.503511   1.000000
    391          4.791284   1.000000
    392          4.793047   1.000000
    393          4.793370   1.000000
    394          4.896470   1.000000
    395          5.088814   1.000000
    396          5.153122   1.000000
    397          5.621008   1.000000
    398          5.623072   1.000000
    399          5.625369   1.000000
    400          5.656817   1.000000
    401          5.712481   1.000000
    402          5.788943   1.000000
    403          5.811358   1.000000
    404          5.915369   1.000000
    405          5.916439   1.000000
    406          5.920139   1.000000
    407          5.932800   1.000000
    408          5.962024   1.000000
    409          5.971450   1.000000
    410          5.987399   1.000000
    411          5.989091   1.000000
    412          5.992558   1.000000
    413          6.020389   1.000000
    414          6.049130   1.000000
    415          6.079435   1.000000
    416          6.172039   1.000000
    417          6.178322   1.000000
    418          6.178749   1.000000
    419          6.180181   1.000000
    420          6.181636   1.000000
    421          6.190998   1.000000
    422          6.213926   1.000000
    423          6.216203   1.000000
    424          6.234342   1.000000
    425          6.252988   1.000000
    426          6.283996   1.000000
    427          6.311571   1.000000
    428          6.312819   1.000000
    429          6.314425   1.000000
    430          6.412687   1.000000
    431          6.486706   1.000000
    432          6.488716   1.000000
    433          6.491271   1.000000
    434          6.512703   1.000000
    435          6.553908   1.000000
    436          6.569750   1.000000
    437          6.585089   1.000000
    438          6.586169   1.000000
    439          6.588125   1.000000
    440          6.621860   1.000000
    441          6.693288   1.000000
    442          6.695121   1.000000
    443          6.702047   1.000000
    444          6.702500   1.000000
    445          6.705824   1.000000
    446          6.712936   1.000000
    447          6.725984   1.000000
    448          6.745017   1.000000
    449          6.750104   1.000000
    450          6.778437   1.000000
    451          6.806493   1.000000
    452          6.810754   1.000000
    453          6.813052   1.000000
    454          6.828784   1.000000
    455          6.847028   1.000000
    456          6.871925   1.000000
    457          6.876489   1.000000
    458          6.880578   1.000000
    459          6.885277   1.000000
    460          6.897435   1.000000
    461          6.916336   1.000000
    462          6.918221   1.000000
    463          6.921262   1.000000
    464          6.942909   1.000000
    465          6.956848   1.000000
    466          6.965108   1.000000
    467          6.995808   1.000000
    468          6.997009   1.000000
    469          6.998075   1.000000
    470          6.999696   1.000000
    471          7.001368   1.000000
    472          7.060777   1.000000
    473          7.081935   1.000000
    474          7.084180   1.000000
    475          7.086145   1.000000
    476          7.087179   1.000000
    477          7.089101   1.000000
    478          7.124640   1.000000
    479          7.131243   1.000000
    480          7.164751   1.000000
    481          7.206585   1.000000
    482          7.208178   1.000000
    483          7.218534   1.000000
    484          7.278336   1.000000
    485          7.310020   1.000000
    486          7.329612   1.000000
    487          7.405512   1.000000
    488          7.421866   1.000000
    489          7.490838   1.000000
    490          7.517531   1.000000
    491          7.544869   1.000000
    492          7.604864   1.000000
    493          7.617832   1.000000
    494          7.623687   1.000000
    495          7.626457   1.000000
    496          7.628339   1.000000
    497          7.629550   1.000000
    498          7.633668   1.000000
    499          7.636849   1.000000
    500          7.639272   1.000000
    501          7.644882   1.000000
    502          7.645610   1.000000
    503          7.660532   1.000000
    504          7.697487   1.000000
    505          7.714853   1.000000
    506          7.732650   1.000000
    507          7.736814   1.000000
    508          7.740790   1.000000
    509          7.745904   1.000000
    510          7.748691   1.000000
    511          7.749586   1.000000
    512          7.753569   1.000000
    513          7.755000   1.000000
    514          7.773042   1.000000
    515          7.774295   1.000000
    516          7.781556   1.000000
    517          7.799429   1.000000
    518          7.823363   1.000000
    519          7.825555   1.000000
    520          7.900489   1.000000
    521          7.912332   1.000000
    522          7.918318   1.000000
    523          7.941702   1.000000
    524          8.042839   1.000000
    525          8.087152   1.000000
    526          8.095142   1.000000
    527          8.117211   1.000000
    528          8.135829   1.000000
    529          8.164320   1.000000
    530          8.183759   1.000000
    531          8.186114   1.000000
    532          8.199068   1.000001
    533          8.209591   1.000001
    534          8.211439   1.000001
    535          8.214455   1.000001
    536          8.218575   1.000001
    537          8.229016   1.000002
    538          8.230172   1.000002
    539          8.235865   1.000002
    540          8.237739   1.000002
    541          8.239118   1.000002
    542          8.292753   1.000014
    543          8.337707   1.000055
    544          8.340446   1.000060
    545          8.341967   1.000063
    546          8.353931   1.000088
    547          8.368031   1.000130
    548          8.370922   1.000140
    549          8.374099   1.000153
    550          8.376258   1.000162
    551          8.378231   1.000171
    552          8.382507   1.000192
    553          8.383470   1.000197
    554          8.387612   1.000219
    555          8.392340   1.000248
    556          8.395804   1.000271
    557          8.398783   1.000293
    558          8.402983   1.000326
    559          8.404812   1.000341
    560          8.489628   1.002369
    561          8.501721   1.003017
    562          8.506119   1.003287
    563          8.559730   1.008472
    564          8.583682   1.012159
    565          8.733748   1.033178
    566          8.749757   1.028119
    567          8.756925   1.024701
    568          8.760580   1.022652
    569          8.765795   1.019346
    570          8.773679   1.013449
    571          8.859142   0.861667
    572          8.899488   0.729286
    573          8.903089   0.715860
    574          8.905324   0.707415
    575          8.932037   0.601063
    576          8.934295   0.591713
    577          8.940899   0.564173
    578          8.951520   0.519428
    579          9.002074   0.311101
    580          9.028443   0.215005
    581          9.054891   0.133276
    582          9.065041   0.106376
    583          9.068842   0.096969
    584          9.077262   0.077425
    585          9.079372   0.072808
    586          9.083638   0.063817
    587          9.086785   0.057476
    588          9.092565   0.046473
    589          9.124879  -0.000427
    590          9.164391  -0.028906
    591          9.179739  -0.033442
    592          9.184620  -0.034296
    593          9.194749  -0.035298
    594          9.201891  -0.035455
    595          9.208794  -0.035239
    596          9.215153  -0.034764
    597          9.217551  -0.034524
    598          9.221268  -0.034092
    599          9.225281  -0.033552
    600          9.228061  -0.033137
    601          9.229038  -0.032984
    602          9.237602  -0.031497
    603          9.292366  -0.019371
    604          9.312274  -0.015180
    605          9.314047  -0.014832
    606          9.324134  -0.012938
    607          9.334716  -0.011121
    608          9.345004  -0.009527
    609          9.354692  -0.008180
    610          9.360573  -0.007434
    611          9.372960  -0.006033
    612          9.378811  -0.005447
    613          9.381082  -0.005232
    614          9.444884  -0.001483
    615          9.448899  -0.001358
    616          9.469610  -0.000852
    617          9.483447  -0.000615
    618          9.488921  -0.000539
    619          9.509945  -0.000320
    620          9.544238  -0.000130
    621          9.552202  -0.000104
    622          9.561048  -0.000081
    623          9.563409  -0.000076
    624          9.564057  -0.000075
    625          9.580689  -0.000046
    626          9.582166  -0.000044
    627          9.589663  -0.000035
    628          9.597744  -0.000028
    629          9.599101  -0.000027
    630          9.606197  -0.000022
    631          9.612894  -0.000017
    632          9.615291  -0.000016
    633          9.620944  -0.000014
    634          9.623983  -0.000012
    635          9.626812  -0.000011
    636          9.632544  -0.000009
    637          9.636947  -0.000008
    638          9.640512  -0.000007
    639          9.643678  -0.000007
    640          9.646209  -0.000006
    641          9.649509  -0.000005
    642          9.655822  -0.000004
    643          9.660235  -0.000004
    644          9.670707  -0.000003
    645          9.808793  -0.000000
    646          9.817148  -0.000000
    647          9.839334  -0.000000
    648          9.845935  -0.000000
    649          9.848959  -0.000000
    650          9.854023  -0.000000
    651          9.887117  -0.000000
    652          9.893316  -0.000000
    653          9.904488  -0.000000
    654          9.908965  -0.000000
    655          9.911247  -0.000000
    656          9.918991  -0.000000
    657          9.920591  -0.000000
    658          9.926853  -0.000000
    659          9.936139  -0.000000
    660          9.940025  -0.000000
    661          9.946761  -0.000000
    662          9.949096  -0.000000
    663         10.010766  -0.000000
    664         10.020273  -0.000000
    665         10.022611  -0.000000
    666         10.029671  -0.000000
    667         10.035399  -0.000000
    668         10.037080  -0.000000
    669         10.104861  -0.000000
    670         10.110955  -0.000000
    671         10.115970  -0.000000
    672         10.121831  -0.000000
    673         10.125100  -0.000000
    674         10.128040  -0.000000
    675         10.132199  -0.000000
    676         10.156624  -0.000000
    677         10.168145  -0.000000
    678         10.175282  -0.000000
    679         10.180733  -0.000000
    680         10.193415  -0.000000
    681         10.206653  -0.000000
    682         10.211643  -0.000000
    683         10.214563  -0.000000
    684         10.225109  -0.000000
    685         10.228208  -0.000000
    686         10.233179  -0.000000
    687         10.290721  -0.000000
    688         10.317608  -0.000000
    689         10.323911  -0.000000
    690         10.326623  -0.000000
    691         10.331071  -0.000000
    692         10.337366  -0.000000
 
 -0.2500000E+00  0.5000000E+00  0.0000000E+00  0.4166667E-01
      1        -39.899303   1.000000
      2        -39.882172   1.000000
      3        -39.874666   1.000000
      4        -39.863149   1.000000
      5        -39.858221   1.000000
      6        -39.850089   1.000000
      7        -39.849021   1.000000
      8        -39.845781   1.000000
      9        -39.841762   1.000000
     10        -39.839014   1.000000
     11        -39.834454   1.000000
     12        -39.825017   1.000000
     13        -39.822040   1.000000
     14        -39.816873   1.000000
     15        -39.813986   1.000000
     16        -39.809494   1.000000
     17        -39.807530   1.000000
     18        -39.803169   1.000000
     19        -39.802346   1.000000
     20        -39.799468   1.000000
     21        -39.796490   1.000000
     22        -39.791771   1.000000
     23        -39.789110   1.000000
     24        -39.786491   1.000000
     25        -39.785612   1.000000
     26        -39.783778   1.000000
     27        -39.783157   1.000000
     28        -39.782979   1.000000
     29        -39.781413   1.000000
     30        -39.780687   1.000000
     31        -39.779899   1.000000
     32        -39.777900   1.000000
     33        -39.776134   1.000000
     34        -39.774993   1.000000
     35        -39.773541   1.000000
     36        -39.773059   1.000000
     37        -39.770981   1.000000
     38        -39.769845   1.000000
     39        -39.769254   1.000000
     40        -39.768200   1.000000
     41        -39.767260   1.000000
     42        -39.766645   1.000000
     43        -39.763092   1.000000
     44        -39.760873   1.000000
     45        -39.758802   1.000000
     46        -39.757994   1.000000
     47        -39.757032   1.000000
     48        -39.755719   1.000000
     49        -39.755139   1.000000
     50        -39.754035   1.000000
     51        -39.753335   1.000000
     52        -39.751710   1.000000
     53        -39.750933   1.000000
     54        -39.750419   1.000000
     55        -39.748378   1.000000
     56        -39.747799   1.000000
     57        -39.746183   1.000000
     58        -39.744859   1.000000
     59        -39.744022   1.000000
     60        -39.743224   1.000000
     61        -39.742545   1.000000
     62        -39.742088   1.000000
     63        -39.740825   1.000000
     64        -39.740004   1.000000
     65        -39.739712   1.000000
     66        -39.739109   1.000000
     67        -39.738502   1.000000
     68        -39.736830   1.000000
     69        -39.736481   1.000000
     70        -39.735522   1.000000
     71        -39.735343   1.000000
     72        -39.735048   1.000000
     73        -39.734949   1.000000
     74        -39.734269   1.000000
     75        -39.732934   1.000000
     76        -39.732159   1.000000
     77        -39.731707   1.000000
     78        -39.731219   1.000000
     79        -39.730970   1.000000
     80        -39.728393   1.000000
     81        -39.727560   1.000000
     82        -39.727436   1.000000
     83        -39.726439   1.000000
     84        -39.725201   1.000000
     85        -39.724440   1.000000
     86        -39.723467   1.000000
     87        -39.722308   1.000000
     88        -39.721473   1.000000
     89        -39.719008   1.000000
     90        -39.717803   1.000000
     91        -39.715455   1.000000
     92        -39.714979   1.000000
     93        -39.714529   1.000000
     94        -39.713929   1.000000
     95        -39.713888   1.000000
     96        -39.712562   1.000000
     97        -18.384089   1.000000
     98        -18.343584   1.000000
     99        -18.335777   1.000000
    100        -18.317873   1.000000
    101        -18.298613   1.000000
    102        -18.293669   1.000000
    103        -18.286030   1.000000
    104        -18.284403   1.000000
    105        -18.284148   1.000000
    106        -18.267430   1.000000
    107        -18.256006   1.000000
    108        -18.255547   1.000000
    109        -18.254168   1.000000
    110        -18.248923   1.000000
    111        -18.242872   1.000000
    112        -18.240726   1.000000
    113        -18.239527   1.000000
    114        -18.234803   1.000000
    115        -18.230617   1.000000
    116        -18.228161   1.000000
    117        -18.226625   1.000000
    118        -18.219959   1.000000
    119        -18.217886   1.000000
    120        -18.217180   1.000000
    121        -18.213973   1.000000
    122        -18.210176   1.000000
    123        -18.200265   1.000000
    124        -18.189601   1.000000
    125        -18.185947   1.000000
    126        -18.184883   1.000000
    127        -18.184198   1.000000
    128        -18.183267   1.000000
    129        -18.182503   1.000000
    130        -18.181785   1.000000
    131        -18.181597   1.000000
    132        -18.180933   1.000000
    133        -18.179659   1.000000
    134        -18.179003   1.000000
    135        -18.177606   1.000000
    136        -18.175459   1.000000
    137        -18.173551   1.000000
    138        -18.171800   1.000000
    139        -18.166823   1.000000
    140        -18.166668   1.000000
    141        -18.165826   1.000000
    142        -18.164712   1.000000
    143        -18.163422   1.000000
    144        -18.161900   1.000000
    145        -18.161671   1.000000
    146        -18.159363   1.000000
    147        -18.158751   1.000000
    148        -18.156816   1.000000
    149        -18.155218   1.000000
    150        -18.152985   1.000000
    151        -18.150185   1.000000
    152        -18.147641   1.000000
    153        -18.146566   1.000000
    154        -18.145600   1.000000
    155        -18.144586   1.000000
    156        -18.127718   1.000000
    157        -18.124650   1.000000
    158        -18.122269   1.000000
    159        -18.119413   1.000000
    160        -18.117089   1.000000
    161        -18.112208   1.000000
    162        -18.107798   1.000000
    163        -18.106064   1.000000
    164        -18.104636   1.000000
    165        -18.091951   1.000000
    166        -18.089724   1.000000
    167        -18.065334   1.000000
    168        -18.059563   1.000000
    169        -18.058406   1.000000
    170        -18.054828   1.000000
    171        -18.051847   1.000000
    172        -18.044776   1.000000
    173        -18.043566   1.000000
    174        -18.027755   1.000000
    175        -18.026570   1.000000
    176        -18.021377   1.000000
    177        -18.020418   1.000000
    178        -18.018605   1.000000
    179        -18.017673   1.000000
    180        -17.997558   1.000000
    181        -17.994103   1.000000
    182        -17.983261   1.000000
    183        -17.976941   1.000000
    184        -17.972882   1.000000
    185        -17.971954   1.000000
    186        -17.971449   1.000000
    187        -17.967078   1.000000
    188        -17.965519   1.000000
    189        -17.960992   1.000000
    190        -17.951862   1.000000
    191        -17.946523   1.000000
    192        -17.942905   1.000000
    193        -17.942246   1.000000
    194        -17.940432   1.000000
    195        -17.912613   1.000000
    196        -17.908277   1.000000
    197        -17.906434   1.000000
    198        -17.904185   1.000000
    199        -17.903439   1.000000
    200        -17.902658   1.000000
    201        -17.880303   1.000000
    202        -17.873328   1.000000
    203        -17.872296   1.000000
    204        -17.869344   1.000000
    205        -17.861563   1.000000
    206        -17.855408   1.000000
    207        -17.851563   1.000000
    208        -17.845645   1.000000
    209        -17.842892   1.000000
    210        -17.828920   1.000000
    211        -17.821662   1.000000
    212        -17.818820   1.000000
    213        -17.815997   1.000000
    214        -17.814956   1.000000
    215        -17.813841   1.000000
    216        -17.809632   1.000000
    217        -17.805397   1.000000
    218        -17.804055   1.000000
    219        -17.802663   1.000000
    220        -17.799524   1.000000
    221        -17.798769   1.000000
    222        -17.798056   1.000000
    223        -17.796353   1.000000
    224        -17.795246   1.000000
    225        -17.792730   1.000000
    226        -17.790919   1.000000
    227        -17.788832   1.000000
    228        -17.784586   1.000000
    229        -17.783056   1.000000
    230        -17.778073   1.000000
    231        -17.775705   1.000000
    232        -17.774181   1.000000
    233        -17.772686   1.000000
    234        -17.771953   1.000000
    235        -17.771029   1.000000
    236        -17.768657   1.000000
    237        -17.764294   1.000000
    238        -17.761481   1.000000
    239        -17.761349   1.000000
    240        -17.759493   1.000000
    241        -17.758729   1.000000
    242        -17.756520   1.000000
    243        -17.742853   1.000000
    244        -17.741492   1.000000
    245        -17.738546   1.000000
    246        -17.732839   1.000000
    247        -17.730794   1.000000
    248        -17.728527   1.000000
    249        -17.728008   1.000000
    250        -17.726447   1.000000
    251        -17.725816   1.000000
    252        -17.725449   1.000000
    253        -17.720086   1.000000
    254        -17.718264   1.000000
    255        -17.716256   1.000000
    256        -17.714488   1.000000
    257        -17.708728   1.000000
    258        -17.705785   1.000000
    259        -17.704696   1.000000
    260        -17.701564   1.000000
    261        -17.700864   1.000000
    262        -17.698694   1.000000
    263        -17.696812   1.000000
    264        -17.696198   1.000000
    265        -17.691608   1.000000
    266        -17.688236   1.000000
    267        -17.686875   1.000000
    268        -17.685451   1.000000
    269        -17.683724   1.000000
    270        -17.682640   1.000000
    271        -17.676694   1.000000
    272        -17.676433   1.000000
    273        -17.675326   1.000000
    274        -17.674623   1.000000
    275        -17.674340   1.000000
    276        -17.672774   1.000000
    277        -17.669317   1.000000
    278        -17.668546   1.000000
    279        -17.665680   1.000000
    280        -17.663280   1.000000
    281        -17.660413   1.000000
    282        -17.657615   1.000000
    283        -17.656171   1.000000
    284        -17.654728   1.000000
    285        -17.653046   1.000000
    286        -17.651112   1.000000
    287        -17.648070   1.000000
    288        -17.646516   1.000000
    289        -17.645037   1.000000
    290        -17.643462   1.000000
    291        -17.642019   1.000000
    292        -17.641004   1.000000
    293        -17.639500   1.000000
    294        -17.638421   1.000000
    295        -17.637893   1.000000
    296        -17.634476   1.000000
    297        -17.630863   1.000000
    298        -17.630070   1.000000
    299        -17.629731   1.000000
    300        -17.628676   1.000000
    301        -17.627801   1.000000
    302        -17.623169   1.000000
    303        -17.621856   1.000000
    304        -17.614935   1.000000
    305        -17.611778   1.000000
    306        -17.610808   1.000000
    307        -17.607766   1.000000
    308        -17.606535   1.000000
    309        -17.605123   1.000000
    310        -17.602159   1.000000
    311        -17.601243   1.000000
    312        -17.598727   1.000000
    313        -17.591498   1.000000
    314        -17.590057   1.000000
    315        -17.589963   1.000000
    316        -17.588678   1.000000
    317        -17.587627   1.000000
    318        -17.585741   1.000000
    319        -17.585241   1.000000
    320        -17.584096   1.000000
    321        -17.582818   1.000000
    322        -17.582367   1.000000
    323        -17.582103   1.000000
    324        -17.581156   1.000000
    325        -17.580753   1.000000
    326        -17.579177   1.000000
    327        -17.577276   1.000000
    328        -17.576006   1.000000
    329        -17.575222   1.000000
    330        -17.573566   1.000000
    331        -17.573175   1.000000
    332        -17.571997   1.000000
    333        -17.570589   1.000000
    334        -17.568519   1.000000
    335        -17.567680   1.000000
    336        -17.567404   1.000000
    337        -17.565523   1.000000
    338        -17.565102   1.000000
    339        -17.564711   1.000000
    340        -17.564073   1.000000
    341        -17.562923   1.000000
    342        -17.562337   1.000000
    343        -17.561823   1.000000
    344        -17.561421   1.000000
    345        -17.560584   1.000000
    346        -17.557190   1.000000
    347        -17.556454   1.000000
    348        -17.555364   1.000000
    349        -17.554042   1.000000
    350        -17.549511   1.000000
    351        -17.548491   1.000000
    352        -17.547575   1.000000
    353        -17.545991   1.000000
    354        -17.538327   1.000000
    355        -17.537852   1.000000
    356        -17.537531   1.000000
    357        -17.536673   1.000000
    358        -17.533928   1.000000
    359        -17.532918   1.000000
    360        -17.527118   1.000000
    361        -17.525673   1.000000
    362        -17.522023   1.000000
    363        -17.519493   1.000000
    364        -17.518082   1.000000
    365        -17.517429   1.000000
    366        -17.516177   1.000000
    367        -17.515192   1.000000
    368        -17.513549   1.000000
    369        -17.511950   1.000000
    370        -17.496781   1.000000
    371        -17.492183   1.000000
    372        -17.492032   1.000000
    373        -17.490115   1.000000
    374        -17.488943   1.000000
    375        -17.487775   1.000000
    376        -17.486025   1.000000
    377        -17.471423   1.000000
    378        -17.468543   1.000000
    379        -17.467368   1.000000
    380        -17.463166   1.000000
    381        -17.449882   1.000000
    382        -17.448920   1.000000
    383        -17.444528   1.000000
    384        -17.431894   1.000000
    385          2.454251   1.000000
    386          3.670000   1.000000
    387          4.024762   1.000000
    388          4.104918   1.000000
    389          4.442112   1.000000
    390          4.503495   1.000000
    391          4.791228   1.000000
    392          4.793098   1.000000
    393          4.793429   1.000000
    394          4.896419   1.000000
    395          5.088792   1.000000
    396          5.153101   1.000000
    397          5.621059   1.000000
    398          5.623172   1.000000
    399          5.625340   1.000000
    400          5.656844   1.000000
    401          5.712342   1.000000
    402          5.789063   1.000000
    403          5.811455   1.000000
    404          5.915355   1.000000
    405          5.916397   1.000000
    406          5.920136   1.000000
    407          5.932640   1.000000
    408          5.962031   1.000000
    409          5.971462   1.000000
    410          5.987295   1.000000
    411          5.989043   1.000000
    412          5.992608   1.000000
    413          6.020561   1.000000
    414          6.049106   1.000000
    415          6.079588   1.000000
    416          6.172227   1.000000
    417          6.178173   1.000000
    418          6.178682   1.000000
    419          6.180281   1.000000
    420          6.181587   1.000000
    421          6.191055   1.000000
    422          6.214060   1.000000
    423          6.216320   1.000000
    424          6.234308   1.000000
    425          6.252801   1.000000
    426          6.283972   1.000000
    427          6.311519   1.000000
    428          6.312806   1.000000
    429          6.314440   1.000000
    430          6.412495   1.000000
    431          6.486678   1.000000
    432          6.488733   1.000000
    433          6.491135   1.000000
    434          6.512765   1.000000
    435          6.554066   1.000000
    436          6.569597   1.000000
    437          6.584915   1.000000
    438          6.586103   1.000000
    439          6.587962   1.000000
    440          6.621969   1.000000
    441          6.693288   1.000000
    442          6.694974   1.000000
    443          6.702182   1.000000
    444          6.702439   1.000000
    445          6.705804   1.000000
    446          6.713036   1.000000
    447          6.725796   1.000000
    448          6.745322   1.000000
    449          6.750482   1.000000
    450          6.778320   1.000000
    451          6.806654   1.000000
    452          6.810696   1.000000
    453          6.813180   1.000000
    454          6.828714   1.000000
    455          6.846826   1.000000
    456          6.871761   1.000000
    457          6.876946   1.000000
    458          6.880626   1.000000
    459          6.885410   1.000000
    460          6.897502   1.000000
    461          6.916096   1.000000
    462          6.918115   1.000000
    463          6.921196   1.000000
    464          6.942963   1.000000
    465          6.956932   1.000000
    466          6.965254   1.000000
    467          6.996394   1.000000
    468          6.996981   1.000000
    469          6.998037   1.000000
    470          6.999751   1.000000
    471          7.001326   1.000000
    472          7.060754   1.000000
    473          7.081609   1.000000
    474          7.084144   1.000000
    475          7.086122   1.000000
    476          7.086920   1.000000
    477          7.089205   1.000000
    478          7.124140   1.000000
    479          7.130860   1.000000
    480          7.164520   1.000000
    481          7.206528   1.000000
    482          7.208270   1.000000
    483          7.218306   1.000000
    484          7.278242   1.000000
    485          7.310280   1.000000
    486          7.329948   1.000000
    487          7.405455   1.000000
    488          7.421949   1.000000
    489          7.490938   1.000000
    490          7.517749   1.000000
    491          7.545128   1.000000
    492          7.604757   1.000000
    493          7.617729   1.000000
    494          7.623336   1.000000
    495          7.626315   1.000000
    496          7.628863   1.000000
    497          7.629715   1.000000
    498          7.633447   1.000000
    499          7.636788   1.000000
    500          7.639589   1.000000
    501          7.644830   1.000000
    502          7.645637   1.000000
    503          7.660394   1.000000
    504          7.697534   1.000000
    505          7.714863   1.000000
    506          7.732826   1.000000
    507          7.737199   1.000000
    508          7.741005   1.000000
    509          7.745948   1.000000
    510          7.749156   1.000000
    511          7.749603   1.000000
    512          7.752879   1.000000
    513          7.754799   1.000000
    514          7.773406   1.000000
    515          7.774279   1.000000
    516          7.781545   1.000000
    517          7.799399   1.000000
    518          7.823239   1.000000
    519          7.825468   1.000000
    520          7.900287   1.000000
    521          7.912075   1.000000
    522          7.918171   1.000000
    523          7.941790   1.000000
    524          8.042917   1.000000
    525          8.087268   1.000000
    526          8.095365   1.000000
    527          8.117110   1.000000
    528          8.135671   1.000000
    529          8.164245   1.000000
    530          8.183967   1.000000
    531          8.186283   1.000000
    532          8.198955   1.000001
    533          8.209797   1.000001
    534          8.211255   1.000001
    535          8.214911   1.000001
    536          8.218900   1.000001
    537          8.229039   1.000002
    538          8.230057   1.000002
    539          8.235946   1.000002
    540          8.237002   1.000002
    541          8.238256   1.000002
    542          8.292900   1.000014
    543          8.337653   1.000055
    544          8.340547   1.000060
    545          8.342164   1.000063
    546          8.353883   1.000088
    547          8.368276   1.000131
    548          8.370731   1.000140
    549          8.373847   1.000152
    550          8.376334   1.000163
    551          8.378325   1.000171
    552          8.382662   1.000192
    553          8.383718   1.000198
    554          8.387723   1.000220
    555          8.392438   1.000249
    556          8.395607   1.000270
    557          8.398283   1.000289
    558          8.402460   1.000322
    559          8.404401   1.000338
    560          8.489766   1.002375
    561          8.501800   1.003021
    562          8.506031   1.003281
    563          8.559600   1.008455
    564          8.583753   1.012171
    565          8.734029   1.033117
    566          8.749690   1.028147
    567          8.757257   1.024524
    568          8.760526   1.022684
    569          8.766074   1.019157
    570          8.773384   1.013690
    571          8.858912   0.862316
    572          8.899256   0.730144
    573          8.903067   0.715941
    574          8.905161   0.708033
    575          8.932187   0.600440
    576          8.934450   0.591073
    577          8.941532   0.561517
    578          8.950757   0.522654
    579          9.002235   0.310480
    580          9.028756   0.213948
    581          9.055121   0.132640
    582          9.065389   0.105501
    583          9.069820   0.094606
    584          9.076728   0.078611
    585          9.078676   0.074319
    586          9.083846   0.063389
    587          9.086806   0.057435
    588          9.092611   0.046388
    589          9.125391  -0.000982
    590          9.164109  -0.028794
    591          9.180013  -0.033497
    592          9.184352  -0.034256
    593          9.194961  -0.035308
    594          9.202057  -0.035454
    595          9.208730  -0.035243
    596          9.215250  -0.034755
    597          9.217616  -0.034517
    598          9.221525  -0.034060
    599          9.225381  -0.033537
    600          9.228244  -0.033108
    601          9.228997  -0.032990
    602          9.237689  -0.031480
    603          9.290862  -0.019705
    604          9.311586  -0.015317
    605          9.314286  -0.014785
    606          9.324484  -0.012875
    607          9.335132  -0.011053
    608          9.345009  -0.009526
    609          9.354779  -0.008168
    610          9.360564  -0.007435
    611          9.372955  -0.006033
    612          9.378811  -0.005447
    613          9.380879  -0.005251
    614          9.443987  -0.001512
    615          9.448519  -0.001370
    616          9.470053  -0.000843
    617          9.483322  -0.000617
    618          9.489119  -0.000537
    619          9.509758  -0.000322
    620          9.543552  -0.000132
    621          9.552315  -0.000104
    622          9.561012  -0.000081
    623          9.563054  -0.000077
    624          9.564098  -0.000075
    625          9.581301  -0.000045
    626          9.582095  -0.000044
    627          9.589124  -0.000036
    628          9.596943  -0.000029
    629          9.599131  -0.000027
    630          9.606636  -0.000021
    631          9.612957  -0.000017
    632          9.615404  -0.000016
    633          9.620924  -0.000014
    634          9.624359  -0.000012
    635          9.627461  -0.000011
    636          9.633230  -0.000009
    637          9.637202  -0.000008
    638          9.640578  -0.000007
    639          9.643932  -0.000007
    640          9.646649  -0.000006
    641          9.649721  -0.000005
    642          9.656402  -0.000004
    643          9.660294  -0.000004
    644          9.670941  -0.000003
    645          9.808398  -0.000000
    646          9.816553  -0.000000
    647          9.839402  -0.000000
    648          9.845878  -0.000000
    649          9.848835  -0.000000
    650          9.854161  -0.000000
    651          9.886942  -0.000000
    652          9.893204  -0.000000
    653          9.904251  -0.000000
    654          9.908615  -0.000000
    655          9.910754  -0.000000
    656          9.919465  -0.000000
    657          9.920658  -0.000000
    658          9.926509  -0.000000
    659          9.936706  -0.000000
    660          9.940378  -0.000000
    661          9.946822  -0.000000
    662          9.948930  -0.000000
    663         10.010843  -0.000000
    664         10.020391  -0.000000
    665         10.022722  -0.000000
    666         10.029737  -0.000000
    667         10.035455  -0.000000
    668         10.037510  -0.000000
    669         10.105137  -0.000000
    670         10.110820  -0.000000
    671         10.116044  -0.000000
    672         10.122153  -0.000000
    673         10.124917  -0.000000
    674         10.128011  -0.000000
    675         10.131856  -0.000000
    676         10.157053  -0.000000
    677         10.168390  -0.000000
    678         10.175248  -0.000000
    679         10.180606  -0.000000
    680         10.193047  -0.000000
    681         10.206140  -0.000000
    682         10.211761  -0.000000
    683         10.214176  -0.000000
    684         10.224916  -0.000000
    685         10.228530  -0.000000
    686         10.232847  -0.000000
    687         10.290875  -0.000000
    688         10.317885  -0.000000
    689         10.323491  -0.000000
    690         10.326699  -0.000000
    691         10.331306  -0.000000
    692         10.333738  -0.000000
 
  0.5000000E+00  0.2500000E+00  0.0000000E+00  0.4166667E-01
      1        -39.899288   1.000000
      2        -39.882287   1.000000
      3        -39.874544   1.000000
      4        -39.863155   1.000000
      5        -39.858183   1.000000
      6        -39.850243   1.000000
      7        -39.848896   1.000000
      8        -39.845921   1.000000
      9        -39.841661   1.000000
     10        -39.838985   1.000000
     11        -39.834378   1.000000
     12        -39.825156   1.000000
     13        -39.821994   1.000000
     14        -39.816848   1.000000
     15        -39.814022   1.000000
     16        -39.809488   1.000000
     17        -39.807597   1.000000
     18        -39.803111   1.000000
     19        -39.802326   1.000000
     20        -39.799457   1.000000
     21        -39.796533   1.000000
     22        -39.791847   1.000000
     23        -39.789072   1.000000
     24        -39.786440   1.000000
     25        -39.785792   1.000000
     26        -39.783717   1.000000
     27        -39.783249   1.000000
     28        -39.782824   1.000000
     29        -39.781333   1.000000
     30        -39.780685   1.000000
     31        -39.779935   1.000000
     32        -39.777961   1.000000
     33        -39.775957   1.000000
     34        -39.774985   1.000000
     35        -39.773554   1.000000
     36        -39.773059   1.000000
     37        -39.770902   1.000000
     38        -39.769870   1.000000
     39        -39.769189   1.000000
     40        -39.768297   1.000000
     41        -39.767322   1.000000
     42        -39.766598   1.000000
     43        -39.763115   1.000000
     44        -39.760865   1.000000
     45        -39.758784   1.000000
     46        -39.758058   1.000000
     47        -39.757006   1.000000
     48        -39.755664   1.000000
     49        -39.755132   1.000000
     50        -39.754025   1.000000
     51        -39.753475   1.000000
     52        -39.751553   1.000000
     53        -39.750985   1.000000
     54        -39.750521   1.000000
     55        -39.748465   1.000000
     56        -39.747801   1.000000
     57        -39.746192   1.000000
     58        -39.744993   1.000000
     59        -39.743985   1.000000
     60        -39.743285   1.000000
     61        -39.742641   1.000000
     62        -39.742022   1.000000
     63        -39.740976   1.000000
     64        -39.739946   1.000000
     65        -39.739603   1.000000
     66        -39.738917   1.000000
     67        -39.738334   1.000000
     68        -39.736762   1.000000
     69        -39.736348   1.000000
     70        -39.735861   1.000000
     71        -39.735221   1.000000
     72        -39.735012   1.000000
     73        -39.734924   1.000000
     74        -39.734289   1.000000
     75        -39.732969   1.000000
     76        -39.732163   1.000000
     77        -39.731624   1.000000
     78        -39.731153   1.000000
     79        -39.731081   1.000000
     80        -39.728411   1.000000
     81        -39.727655   1.000000
     82        -39.727418   1.000000
     83        -39.726440   1.000000
     84        -39.725294   1.000000
     85        -39.724370   1.000000
     86        -39.723286   1.000000
     87        -39.722570   1.000000
     88        -39.721444   1.000000
     89        -39.719001   1.000000
     90        -39.717728   1.000000
     91        -39.715443   1.000000
     92        -39.715063   1.000000
     93        -39.714443   1.000000
     94        -39.714009   1.000000
     95        -39.713803   1.000000
     96        -39.712601   1.000000
     97        -18.384093   1.000000
     98        -18.343634   1.000000
     99        -18.335730   1.000000
    100        -18.317879   1.000000
    101        -18.298658   1.000000
    102        -18.293711   1.000000
    103        -18.286004   1.000000
    104        -18.284398   1.000000
    105        -18.284104   1.000000
    106        -18.267333   1.000000
    107        -18.255981   1.000000
    108        -18.255631   1.000000
    109        -18.254186   1.000000
    110        -18.249081   1.000000
    111        -18.242891   1.000000
    112        -18.240671   1.000000
    113        -18.239580   1.000000
    114        -18.234753   1.000000
    115        -18.230562   1.000000
    116        -18.228128   1.000000
    117        -18.226571   1.000000
    118        -18.219820   1.000000
    119        -18.217842   1.000000
    120        -18.217243   1.000000
    121        -18.214055   1.000000
    122        -18.210260   1.000000
    123        -18.200340   1.000000
    124        -18.189361   1.000000
    125        -18.185942   1.000000
    126        -18.184980   1.000000
    127        -18.184028   1.000000
    128        -18.183283   1.000000
    129        -18.182492   1.000000
    130        -18.181803   1.000000
    131        -18.181563   1.000000
    132        -18.180924   1.000000
    133        -18.179735   1.000000
    134        -18.178892   1.000000
    135        -18.177539   1.000000
    136        -18.175531   1.000000
    137        -18.173655   1.000000
    138        -18.171832   1.000000
    139        -18.166878   1.000000
    140        -18.166681   1.000000
    141        -18.165821   1.000000
    142        -18.164569   1.000000
    143        -18.163434   1.000000
    144        -18.162084   1.000000
    145        -18.161798   1.000000
    146        -18.159371   1.000000
    147        -18.158636   1.000000
    148        -18.156801   1.000000
    149        -18.155145   1.000000
    150        -18.152876   1.000000
    151        -18.150320   1.000000
    152        -18.147686   1.000000
    153        -18.146640   1.000000
    154        -18.145620   1.000000
    155        -18.144607   1.000000
    156        -18.127666   1.000000
    157        -18.124665   1.000000
    158        -18.122415   1.000000
    159        -18.119403   1.000000
    160        -18.117073   1.000000
    161        -18.112213   1.000000
    162        -18.107808   1.000000
    163        -18.105975   1.000000
    164        -18.104530   1.000000
    165        -18.091972   1.000000
    166        -18.089709   1.000000
    167        -18.065294   1.000000
    168        -18.059363   1.000000
    169        -18.058311   1.000000
    170        -18.054758   1.000000
    171        -18.051868   1.000000
    172        -18.044883   1.000000
    173        -18.043653   1.000000
    174        -18.027794   1.000000
    175        -18.026589   1.000000
    176        -18.021291   1.000000
    177        -18.020325   1.000000
    178        -18.018714   1.000000
    179        -18.017751   1.000000
    180        -17.997596   1.000000
    181        -17.994125   1.000000
    182        -17.983234   1.000000
    183        -17.976997   1.000000
    184        -17.973037   1.000000
    185        -17.971978   1.000000
    186        -17.971399   1.000000
    187        -17.967116   1.000000
    188        -17.965246   1.000000
    189        -17.960940   1.000000
    190        -17.951777   1.000000
    191        -17.946547   1.000000
    192        -17.942971   1.000000
    193        -17.942373   1.000000
    194        -17.940433   1.000000
    195        -17.912617   1.000000
    196        -17.908335   1.000000
    197        -17.906433   1.000000
    198        -17.904317   1.000000
    199        -17.903411   1.000000
    200        -17.902705   1.000000
    201        -17.880347   1.000000
    202        -17.873312   1.000000
    203        -17.872296   1.000000
    204        -17.869398   1.000000
    205        -17.861779   1.000000
    206        -17.855354   1.000000
    207        -17.851557   1.000000
    208        -17.845509   1.000000
    209        -17.842831   1.000000
    210        -17.828905   1.000000
    211        -17.821550   1.000000
    212        -17.818805   1.000000
    213        -17.815879   1.000000
    214        -17.814911   1.000000
    215        -17.813543   1.000000
    216        -17.809623   1.000000
    217        -17.805243   1.000000
    218        -17.804101   1.000000
    219        -17.802898   1.000000
    220        -17.799683   1.000000
    221        -17.798878   1.000000
    222        -17.798065   1.000000
    223        -17.796459   1.000000
    224        -17.795345   1.000000
    225        -17.792691   1.000000
    226        -17.790903   1.000000
    227        -17.788826   1.000000
    228        -17.784422   1.000000
    229        -17.783022   1.000000
    230        -17.777971   1.000000
    231        -17.775789   1.000000
    232        -17.774110   1.000000
    233        -17.772589   1.000000
    234        -17.772116   1.000000
    235        -17.771038   1.000000
    236        -17.768596   1.000000
    237        -17.764528   1.000000
    238        -17.761447   1.000000
    239        -17.761365   1.000000
    240        -17.759388   1.000000
    241        -17.758737   1.000000
    242        -17.756462   1.000000
    243        -17.742907   1.000000
    244        -17.741665   1.000000
    245        -17.738356   1.000000
    246        -17.732870   1.000000
    247        -17.730905   1.000000
    248        -17.728585   1.000000
    249        -17.727982   1.000000
    250        -17.726495   1.000000
    251        -17.725762   1.000000
    252        -17.725452   1.000000
    253        -17.720221   1.000000
    254        -17.718172   1.000000
    255        -17.716176   1.000000
    256        -17.714409   1.000000
    257        -17.708686   1.000000
    258        -17.705772   1.000000
    259        -17.704633   1.000000
    260        -17.701413   1.000000
    261        -17.700840   1.000000
    262        -17.698719   1.000000
    263        -17.696936   1.000000
    264        -17.696362   1.000000
    265        -17.691606   1.000000
    266        -17.688213   1.000000
    267        -17.686671   1.000000
    268        -17.685549   1.000000
    269        -17.683886   1.000000
    270        -17.682609   1.000000
    271        -17.676674   1.000000
    272        -17.676272   1.000000
    273        -17.675385   1.000000
    274        -17.674552   1.000000
    275        -17.674301   1.000000
    276        -17.673028   1.000000
    277        -17.669336   1.000000
    278        -17.668565   1.000000
    279        -17.665625   1.000000
    280        -17.663254   1.000000
    281        -17.660326   1.000000
    282        -17.657837   1.000000
    283        -17.656191   1.000000
    284        -17.654877   1.000000
    285        -17.653035   1.000000
    286        -17.651010   1.000000
    287        -17.647961   1.000000
    288        -17.646545   1.000000
    289        -17.644974   1.000000
    290        -17.643568   1.000000
    291        -17.642065   1.000000
    292        -17.640884   1.000000
    293        -17.639496   1.000000
    294        -17.638477   1.000000
    295        -17.637827   1.000000
    296        -17.634387   1.000000
    297        -17.630860   1.000000
    298        -17.630127   1.000000
    299        -17.629798   1.000000
    300        -17.628644   1.000000
    301        -17.627813   1.000000
    302        -17.623352   1.000000
    303        -17.621953   1.000000
    304        -17.614859   1.000000
    305        -17.611715   1.000000
    306        -17.610900   1.000000
    307        -17.607610   1.000000
    308        -17.606659   1.000000
    309        -17.605075   1.000000
    310        -17.602314   1.000000
    311        -17.601213   1.000000
    312        -17.598647   1.000000
    313        -17.591413   1.000000
    314        -17.589956   1.000000
    315        -17.589861   1.000000
    316        -17.588669   1.000000
    317        -17.587522   1.000000
    318        -17.585705   1.000000
    319        -17.585166   1.000000
    320        -17.583951   1.000000
    321        -17.582753   1.000000
    322        -17.582435   1.000000
    323        -17.582150   1.000000
    324        -17.581214   1.000000
    325        -17.580770   1.000000
    326        -17.579268   1.000000
    327        -17.577149   1.000000
    328        -17.576018   1.000000
    329        -17.575312   1.000000
    330        -17.573476   1.000000
    331        -17.573113   1.000000
    332        -17.571810   1.000000
    333        -17.570664   1.000000
    334        -17.568550   1.000000
    335        -17.567651   1.000000
    336        -17.567310   1.000000
    337        -17.565545   1.000000
    338        -17.565080   1.000000
    339        -17.564739   1.000000
    340        -17.564094   1.000000
    341        -17.563090   1.000000
    342        -17.562367   1.000000
    343        -17.561770   1.000000
    344        -17.561468   1.000000
    345        -17.560552   1.000000
    346        -17.557175   1.000000
    347        -17.556493   1.000000
    348        -17.555376   1.000000
    349        -17.554005   1.000000
    350        -17.549448   1.000000
    351        -17.548503   1.000000
    352        -17.547550   1.000000
    353        -17.546091   1.000000
    354        -17.538377   1.000000
    355        -17.537926   1.000000
    356        -17.537521   1.000000
    357        -17.536659   1.000000
    358        -17.533878   1.000000
    359        -17.532901   1.000000
    360        -17.527227   1.000000
    361        -17.525664   1.000000
    362        -17.522191   1.000000
    363        -17.519562   1.000000
    364        -17.518185   1.000000
    365        -17.517438   1.000000
    366        -17.516134   1.000000
    367        -17.515032   1.000000
    368        -17.513625   1.000000
    369        -17.511938   1.000000
    370        -17.496780   1.000000
    371        -17.492215   1.000000
    372        -17.491881   1.000000
    373        -17.490171   1.000000
    374        -17.489143   1.000000
    375        -17.487620   1.000000
    376        -17.486066   1.000000
    377        -17.471399   1.000000
    378        -17.468545   1.000000
    379        -17.467539   1.000000
    380        -17.462975   1.000000
    381        -17.449907   1.000000
    382        -17.448890   1.000000
    383        -17.444545   1.000000
    384        -17.431862   1.000000
    385          2.454251   1.000000
    386          3.670017   1.000000
    387          4.024675   1.000000
    388          4.104981   1.000000
    389          4.442112   1.000000
    390          4.503511   1.000000
    391          4.791284   1.000000
    392          4.793047   1.000000
    393          4.793370   1.000000
    394          4.896470   1.000000
    395          5.088814   1.000000
    396          5.153122   1.000000
    397          5.621008   1.000000
    398          5.623072   1.000000
    399          5.625369   1.000000
    400          5.656817   1.000000
    401          5.712481   1.000000
    402          5.788943   1.000000
    403          5.811358   1.000000
    404          5.915369   1.000000
    405          5.916439   1.000000
    406          5.920139   1.000000
    407          5.932800   1.000000
    408          5.962024   1.000000
    409          5.971450   1.000000
    410          5.987399   1.000000
    411          5.989091   1.000000
    412          5.992558   1.000000
    413          6.020389   1.000000
    414          6.049130   1.000000
    415          6.079435   1.000000
    416          6.172039   1.000000
    417          6.178322   1.000000
    418          6.178749   1.000000
    419          6.180181   1.000000
    420          6.181636   1.000000
    421          6.190998   1.000000
    422          6.213926   1.000000
    423          6.216203   1.000000
    424          6.234342   1.000000
    425          6.252988   1.000000
    426          6.283996   1.000000
    427          6.311571   1.000000
    428          6.312819   1.000000
    429          6.314425   1.000000
    430          6.412687   1.000000
    431          6.486706   1.000000
    432          6.488716   1.000000
    433          6.491271   1.000000
    434          6.512703   1.000000
    435          6.553908   1.000000
    436          6.569750   1.000000
    437          6.585089   1.000000
    438          6.586169   1.000000
    439          6.588125   1.000000
    440          6.621860   1.000000
    441          6.693288   1.000000
    442          6.695121   1.000000
    443          6.702047   1.000000
    444          6.702500   1.000000
    445          6.705824   1.000000
    446          6.712936   1.000000
    447          6.725984   1.000000
    448          6.745017   1.000000
    449          6.750104   1.000000
    450          6.778437   1.000000
    451          6.806493   1.000000
    452          6.810754   1.000000
    453          6.813052   1.000000
    454          6.828784   1.000000
    455          6.847028   1.000000
    456          6.871925   1.000000
    457          6.876489   1.000000
    458          6.880578   1.000000
    459          6.885277   1.000000
    460          6.897435   1.000000
    461          6.916336   1.000000
    462          6.918221   1.000000
    463          6.921262   1.000000
    464          6.942909   1.000000
    465          6.956848   1.000000
    466          6.965108   1.000000
    467          6.995808   1.000000
    468          6.997009   1.000000
    469          6.998075   1.000000
    470          6.999696   1.000000
    471          7.001368   1.000000
    472          7.060777   1.000000
    473          7.081935   1.000000
    474          7.084180   1.000000
    475          7.086145   1.000000
    476          7.087179   1.000000
    477          7.089101   1.000000
    478          7.124640   1.000000
    479          7.131243   1.000000
    480          7.164751   1.000000
    481          7.206585   1.000000
    482          7.208178   1.000000
    483          7.218534   1.000000
    484          7.278336   1.000000
    485          7.310020   1.000000
    486          7.329612   1.000000
    487          7.405512   1.000000
    488          7.421866   1.000000
    489          7.490838   1.000000
    490          7.517531   1.000000
    491          7.544869   1.000000
    492          7.604864   1.000000
    493          7.617832   1.000000
    494          7.623687   1.000000
    495          7.626457   1.000000
    496          7.628339   1.000000
    497          7.629550   1.000000
    498          7.633668   1.000000
    499          7.636849   1.000000
    500          7.639272   1.000000
    501          7.644882   1.000000
    502          7.645610   1.000000
    503          7.660532   1.000000
    504          7.697487   1.000000
    505          7.714853   1.000000
    506          7.732650   1.000000
    507          7.736814   1.000000
    508          7.740790   1.000000
    509          7.745904   1.000000
    510          7.748691   1.000000
    511          7.749586   1.000000
    512          7.753569   1.000000
    513          7.755000   1.000000
    514          7.773042   1.000000
    515          7.774295   1.000000
    516          7.781556   1.000000
    517          7.799429   1.000000
    518          7.823363   1.000000
    519          7.825555   1.000000
    520          7.900489   1.000000
    521          7.912332   1.000000
    522          7.918318   1.000000
    523          7.941702   1.000000
    524          8.042839   1.000000
    525          8.087152   1.000000
    526          8.095142   1.000000
    527          8.117211   1.000000
    528          8.135829   1.000000
    529          8.164320   1.000000
    530          8.183759   1.000000
    531          8.186114   1.000000
    532          8.199068   1.000001
    533          8.209591   1.000001
    534          8.211439   1.000001
    535          8.214455   1.000001
    536          8.218575   1.000001
    537          8.229016   1.000002
    538          8.230172   1.000002
    539          8.235865   1.000002
    540          8.237739   1.000002
    541          8.239118   1.000002
    542          8.292753   1.000014
    543          8.337707   1.000055
    544          8.340446   1.000060
    545          8.341967   1.000063
    546          8.353931   1.000088
    547          8.368031   1.000130
    548          8.370922   1.000140
    549          8.374099   1.000153
    550          8.376258   1.000162
    551          8.378231   1.000171
    552          8.382507   1.000192
    553          8.383470   1.000197
    554          8.387612   1.000219
    555          8.392340   1.000248
    556          8.395804   1.000271
    557          8.398783   1.000293
    558          8.402983   1.000326
    559          8.404812   1.000341
    560          8.489628   1.002369
    561          8.501721   1.003017
    562          8.506119   1.003287
    563          8.559730   1.008472
    564          8.583682   1.012159
    565          8.733748   1.033178
    566          8.749757   1.028119
    567          8.756926   1.024701
    568          8.760580   1.022652
    569          8.765795   1.019346
    570          8.773679   1.013449
    571          8.859142   0.861667
    572          8.899488   0.729286
    573          8.903089   0.715860
    574          8.905324   0.707415
    575          8.932037   0.601062
    576          8.934295   0.591713
    577          8.940899   0.564173
    578          8.951521   0.519428
    579          9.002074   0.311101
    580          9.028443   0.215005
    581          9.054891   0.133276
    582          9.065041   0.106376
    583          9.068842   0.096969
    584          9.077262   0.077425
    585          9.079372   0.072808
    586          9.083638   0.063817
    587          9.086785   0.057476
    588          9.092565   0.046473
    589          9.124879  -0.000427
    590          9.164391  -0.028906
    591          9.179739  -0.033442
    592          9.184620  -0.034296
    593          9.194749  -0.035298
    594          9.201891  -0.035455
    595          9.208794  -0.035239
    596          9.215153  -0.034764
    597          9.217551  -0.034524
    598          9.221268  -0.034092
    599          9.225281  -0.033552
    600          9.228061  -0.033137
    601          9.229038  -0.032984
    602          9.237602  -0.031497
    603          9.292366  -0.019371
    604          9.312274  -0.015180
    605          9.314047  -0.014832
    606          9.324134  -0.012938
    607          9.334716  -0.011121
    608          9.345003  -0.009527
    609          9.354692  -0.008180
    610          9.360573  -0.007434
    611          9.372960  -0.006033
    612          9.378811  -0.005447
    613          9.381082  -0.005232
    614          9.444884  -0.001483
    615          9.448899  -0.001358
    616          9.469610  -0.000852
    617          9.483447  -0.000615
    618          9.488921  -0.000539
    619          9.509945  -0.000320
    620          9.544238  -0.000130
    621          9.552202  -0.000104
    622          9.561048  -0.000081
    623          9.563409  -0.000076
    624          9.564057  -0.000075
    625          9.580689  -0.000046
    626          9.582166  -0.000044
    627          9.589663  -0.000035
    628          9.597744  -0.000028
    629          9.599101  -0.000027
    630          9.606197  -0.000022
    631          9.612894  -0.000017
    632          9.615291  -0.000016
    633          9.620944  -0.000014
    634          9.623983  -0.000012
    635          9.626812  -0.000011
    636          9.632544  -0.000009
    637          9.636947  -0.000008
    638          9.640512  -0.000007
    639          9.643678  -0.000007
    640          9.646209  -0.000006
    641          9.649509  -0.000005
    642          9.655822  -0.000004
    643          9.660235  -0.000004
    644          9.670707  -0.000003
    645          9.808793  -0.000000
    646          9.817148  -0.000000
    647          9.839334  -0.000000
    648          9.845936  -0.000000
    649          9.848959  -0.000000
    650          9.854023  -0.000000
    651          9.887117  -0.000000
    652          9.893316  -0.000000
    653          9.904488  -0.000000
    654          9.908965  -0.000000
    655          9.911247  -0.000000
    656          9.918991  -0.000000
    657          9.920591  -0.000000
    658          9.926853  -0.000000
    659          9.936139  -0.000000
    660          9.940025  -0.000000
    661          9.946761  -0.000000
    662          9.949096  -0.000000
    663         10.010766  -0.000000
    664         10.020273  -0.000000
    665         10.022611  -0.000000
    666         10.029671  -0.000000
    667         10.035399  -0.000000
    668         10.037080  -0.000000
    669         10.104861  -0.000000
    670         10.110955  -0.000000
    671         10.115970  -0.000000
    672         10.121831  -0.000000
    673         10.125100  -0.000000
    674         10.128040  -0.000000
    675         10.132199  -0.000000
    676         10.156624  -0.000000
    677         10.168145  -0.000000
    678         10.175282  -0.000000
    679         10.180733  -0.000000
    680         10.193415  -0.000000
    681         10.206653  -0.000000
    682         10.211643  -0.000000
    683         10.214563  -0.000000
    684         10.225109  -0.000000
    685         10.228208  -0.000000
    686         10.233179  -0.000000
    687         10.290725  -0.000000
    688         10.317971  -0.000000
    689         10.326085  -0.000000
    690         10.327174  -0.000000
    691         10.331209  -0.000000
    692         10.336954  -0.000000
 
  0.0000000E+00  0.0000000E+00  0.3333333E+00  0.4166667E-01
      1        -39.905588   1.000000
      2        -39.889740   1.000000
      3        -39.861161   1.000000
      4        -39.854064   1.000000
      5        -39.853835   1.000000
      6        -39.844205   1.000000
      7        -39.838958   1.000000
      8        -39.838161   1.000000
      9        -39.838144   1.000000
     10        -39.837559   1.000000
     11        -39.833563   1.000000
     12        -39.833287   1.000000
     13        -39.828698   1.000000
     14        -39.828516   1.000000
     15        -39.828423   1.000000
     16        -39.821817   1.000000
     17        -39.810647   1.000000
     18        -39.810375   1.000000
     19        -39.809822   1.000000
     20        -39.796822   1.000000
     21        -39.796670   1.000000
     22        -39.796351   1.000000
     23        -39.793120   1.000000
     24        -39.790911   1.000000
     25        -39.790882   1.000000
     26        -39.781764   1.000000
     27        -39.779154   1.000000
     28        -39.778917   1.000000
     29        -39.776298   1.000000
     30        -39.772721   1.000000
     31        -39.772613   1.000000
     32        -39.771718   1.000000
     33        -39.768626   1.000000
     34        -39.768512   1.000000
     35        -39.768329   1.000000
     36        -39.767243   1.000000
     37        -39.767218   1.000000
     38        -39.767000   1.000000
     39        -39.765665   1.000000
     40        -39.765032   1.000000
     41        -39.765005   1.000000
     42        -39.763456   1.000000
     43        -39.763364   1.000000
     44        -39.762800   1.000000
     45        -39.762430   1.000000
     46        -39.761934   1.000000
     47        -39.761745   1.000000
     48        -39.760009   1.000000
     49        -39.755669   1.000000
     50        -39.754629   1.000000
     51        -39.754318   1.000000
     52        -39.752796   1.000000
     53        -39.749821   1.000000
     54        -39.749722   1.000000
     55        -39.748969   1.000000
     56        -39.748616   1.000000
     57        -39.748445   1.000000
     58        -39.746688   1.000000
     59        -39.746575   1.000000
     60        -39.746439   1.000000
     61        -39.743577   1.000000
     62        -39.743543   1.000000
     63        -39.742737   1.000000
     64        -39.741345   1.000000
     65        -39.740742   1.000000
     66        -39.740684   1.000000
     67        -39.738725   1.000000
     68        -39.738544   1.000000
     69        -39.737757   1.000000
     70        -39.737560   1.000000
     71        -39.736444   1.000000
     72        -39.735790   1.000000
     73        -39.734618   1.000000
     74        -39.734513   1.000000
     75        -39.733648   1.000000
     76        -39.731477   1.000000
     77        -39.731381   1.000000
     78        -39.731010   1.000000
     79        -39.728788   1.000000
     80        -39.727436   1.000000
     81        -39.727258   1.000000
     82        -39.724076   1.000000
     83        -39.724053   1.000000
     84        -39.723793   1.000000
     85        -39.722698   1.000000
     86        -39.722619   1.000000
     87        -39.722227   1.000000
     88        -39.721252   1.000000
     89        -39.720053   1.000000
     90        -39.720017   1.000000
     91        -39.715665   1.000000
     92        -39.715618   1.000000
     93        -39.714058   1.000000
     94        -39.713927   1.000000
     95        -39.713727   1.000000
     96        -39.712643   1.000000
     97        -18.391025   1.000000
     98        -18.347868   1.000000
     99        -18.328463   1.000000
    100        -18.328403   1.000000
    101        -18.318292   1.000000
    102        -18.310360   1.000000
    103        -18.310351   1.000000
    104        -18.309529   1.000000
    105        -18.299741   1.000000
    106        -18.294518   1.000000
    107        -18.294434   1.000000
    108        -18.275635   1.000000
    109        -18.270007   1.000000
    110        -18.269974   1.000000
    111        -18.248407   1.000000
    112        -18.240040   1.000000
    113        -18.239984   1.000000
    114        -18.235679   1.000000
    115        -18.235575   1.000000
    116        -18.234840   1.000000
    117        -18.228240   1.000000
    118        -18.215773   1.000000
    119        -18.215718   1.000000
    120        -18.215631   1.000000
    121        -18.213502   1.000000
    122        -18.213368   1.000000
    123        -18.213363   1.000000
    124        -18.211872   1.000000
    125        -18.211858   1.000000
    126        -18.208912   1.000000
    127        -18.208897   1.000000
    128        -18.207939   1.000000
    129        -18.200110   1.000000
    130        -18.196919   1.000000
    131        -18.196868   1.000000
    132        -18.196786   1.000000
    133        -18.194304   1.000000
    134        -18.194273   1.000000
    135        -18.176787   1.000000
    136        -18.169074   1.000000
    137        -18.168885   1.000000
    138        -18.166218   1.000000
    139        -18.166174   1.000000
    140        -18.165915   1.000000
    141        -18.164161   1.000000
    142        -18.161610   1.000000
    143        -18.161536   1.000000
    144        -18.131265   1.000000
    145        -18.128746   1.000000
    146        -18.128681   1.000000
    147        -18.125300   1.000000
    148        -18.124631   1.000000
    149        -18.124576   1.000000
    150        -18.114548   1.000000
    151        -18.110033   1.000000
    152        -18.109958   1.000000
    153        -18.106849   1.000000
    154        -18.106587   1.000000
    155        -18.106457   1.000000
    156        -18.105408   1.000000
    157        -18.104966   1.000000
    158        -18.104872   1.000000
    159        -18.103483   1.000000
    160        -18.102186   1.000000
    161        -18.102134   1.000000
    162        -18.100176   1.000000
    163        -18.100137   1.000000
    164        -18.099644   1.000000
    165        -18.099617   1.000000
    166        -18.097848   1.000000
    167        -18.097776   1.000000
    168        -18.097419   1.000000
    169        -18.095660   1.000000
    170        -18.095579   1.000000
    171        -18.029875   1.000000
    172        -18.026161   1.000000
    173        -18.026104   1.000000
    174        -18.024893   1.000000
    175        -18.020518   1.000000
    176        -18.020359   1.000000
    177        -18.018756   1.000000
    178        -17.957337   1.000000
    179        -17.952557   1.000000
    180        -17.952349   1.000000
    181        -17.923397   1.000000
    182        -17.919628   1.000000
    183        -17.919424   1.000000
    184        -17.913734   1.000000
    185        -17.913662   1.000000
    186        -17.913378   1.000000
    187        -17.904603   1.000000
    188        -17.904447   1.000000
    189        -17.893809   1.000000
    190        -17.890017   1.000000
    191        -17.889903   1.000000
    192        -17.886346   1.000000
    193        -17.886147   1.000000
    194        -17.886129   1.000000
    195        -17.884919   1.000000
    196        -17.882600   1.000000
    197        -17.881331   1.000000
    198        -17.881140   1.000000
    199        -17.876855   1.000000
    200        -17.876620   1.000000
    201        -17.876528   1.000000
    202        -17.873742   1.000000
    203        -17.873514   1.000000
    204        -17.871778   1.000000
    205        -17.869790   1.000000
    206        -17.867238   1.000000
    207        -17.867184   1.000000
    208        -17.864426   1.000000
    209        -17.864383   1.000000
    210        -17.858899   1.000000
    211        -17.857590   1.000000
    212        -17.854657   1.000000
    213        -17.854647   1.000000
    214        -17.853864   1.000000
    215        -17.852677   1.000000
    216        -17.851794   1.000000
    217        -17.851475   1.000000
    218        -17.851313   1.000000
    219        -17.847336   1.000000
    220        -17.847136   1.000000
    221        -17.834906   1.000000
    222        -17.834826   1.000000
    223        -17.831652   1.000000
    224        -17.829349   1.000000
    225        -17.829349   1.000000
    226        -17.827451   1.000000
    227        -17.825384   1.000000
    228        -17.825214   1.000000
    229        -17.822241   1.000000
    230        -17.821338   1.000000
    231        -17.819652   1.000000
    232        -17.819578   1.000000
    233        -17.815762   1.000000
    234        -17.815726   1.000000
    235        -17.812288   1.000000
    236        -17.810352   1.000000
    237        -17.810186   1.000000
    238        -17.808244   1.000000
    239        -17.788280   1.000000
    240        -17.788179   1.000000
    241        -17.785938   1.000000
    242        -17.784210   1.000000
    243        -17.784090   1.000000
    244        -17.780939   1.000000
    245        -17.757352   1.000000
    246        -17.757315   1.000000
    247        -17.755815   1.000000
    248        -17.737794   1.000000
    249        -17.737711   1.000000
    250        -17.735803   1.000000
    251        -17.711666   1.000000
    252        -17.711557   1.000000
    253        -17.709348   1.000000
    254        -17.700437   1.000000
    255        -17.700331   1.000000
    256        -17.699222   1.000000
    257        -17.694962   1.000000
    258        -17.692936   1.000000
    259        -17.692867   1.000000
    260        -17.690903   1.000000
    261        -17.690857   1.000000
    262        -17.689059   1.000000
    263        -17.687885   1.000000
    264        -17.687709   1.000000
    265        -17.686554   1.000000
    266        -17.685987   1.000000
    267        -17.685837   1.000000
    268        -17.685752   1.000000
    269        -17.682927   1.000000
    270        -17.682253   1.000000
    271        -17.682174   1.000000
    272        -17.672480   1.000000
    273        -17.667616   1.000000
    274        -17.667138   1.000000
    275        -17.667073   1.000000
    276        -17.663046   1.000000
    277        -17.662831   1.000000
    278        -17.661564   1.000000
    279        -17.661368   1.000000
    280        -17.661308   1.000000
    281        -17.657639   1.000000
    282        -17.657472   1.000000
    283        -17.654306   1.000000
    284        -17.652137   1.000000
    285        -17.650957   1.000000
    286        -17.650921   1.000000
    287        -17.646679   1.000000
    288        -17.646598   1.000000
    289        -17.645377   1.000000
    290        -17.644461   1.000000
    291        -17.642957   1.000000
    292        -17.642862   1.000000
    293        -17.641168   1.000000
    294        -17.640960   1.000000
    295        -17.640953   1.000000
    296        -17.640642   1.000000
    297        -17.640365   1.000000
    298        -17.639237   1.000000
    299        -17.636891   1.000000
    300        -17.634887   1.000000
    301        -17.634817   1.000000
    302        -17.626991   1.000000
    303        -17.626977   1.000000
    304        -17.624586   1.000000
    305        -17.621346   1.000000
    306        -17.621206   1.000000
    307        -17.621118   1.000000
    308        -17.617796   1.000000
    309        -17.617692   1.000000
    310        -17.617501   1.000000
    311        -17.615873   1.000000
    312        -17.615871   1.000000
    313        -17.614883   1.000000
    314        -17.614483   1.000000
    315        -17.613554   1.000000
    316        -17.613510   1.000000
    317        -17.599383   1.000000
    318        -17.598399   1.000000
    319        -17.598305   1.000000
    320        -17.597727   1.000000
    321        -17.597613   1.000000
    322        -17.597507   1.000000
    323        -17.588683   1.000000
    324        -17.588550   1.000000
    325        -17.588235   1.000000
    326        -17.584837   1.000000
    327        -17.584712   1.000000
    328        -17.580738   1.000000
    329        -17.580253   1.000000
    330        -17.579927   1.000000
    331        -17.579898   1.000000
    332        -17.578500   1.000000
    333        -17.577915   1.000000
    334        -17.577908   1.000000
    335        -17.559088   1.000000
    336        -17.559081   1.000000
    337        -17.556674   1.000000
    338        -17.556379   1.000000
    339        -17.556374   1.000000
    340        -17.555402   1.000000
    341        -17.551885   1.000000
    342        -17.551300   1.000000
    343        -17.551277   1.000000
    344        -17.549102   1.000000
    345        -17.549049   1.000000
    346        -17.545503   1.000000
    347        -17.540454   1.000000
    348        -17.540435   1.000000
    349        -17.536434   1.000000
    350        -17.534139   1.000000
    351        -17.534129   1.000000
    352        -17.532645   1.000000
    353        -17.532042   1.000000
    354        -17.531882   1.000000
    355        -17.527658   1.000000
    356        -17.526759   1.000000
    357        -17.526606   1.000000
    358        -17.517433   1.000000
    359        -17.515586   1.000000
    360        -17.515287   1.000000
    361        -17.512144   1.000000
    362        -17.510487   1.000000
    363        -17.510383   1.000000
    364        -17.503061   1.000000
    365        -17.502962   1.000000
    366        -17.496602   1.000000
    367        -17.495557   1.000000
    368        -17.495455   1.000000
    369        -17.492200   1.000000
    370        -17.491996   1.000000
    371        -17.487995   1.000000
    372        -17.479447   1.000000
    373        -17.479335   1.000000
    374        -17.478167   1.000000
    375        -17.475731   1.000000
    376        -17.475643   1.000000
    377        -17.472559   1.000000
    378        -17.472452   1.000000
    379        -17.470500   1.000000
    380        -17.461369   1.000000
    381        -17.435441   1.000000
    382        -17.435390   1.000000
    383        -17.423050   1.000000
    384        -17.423008   1.000000
    385          2.440634   1.000000
    386          3.464218   1.000000
    387          3.769423   1.000000
    388          4.721608   1.000000
    389          4.879256   1.000000
    390          4.879360   1.000000
    391          4.882415   1.000000
    392          4.882456   1.000000
    393          4.884549   1.000000
    394          4.957768   1.000000
    395          5.076089   1.000000
    396          5.076217   1.000000
    397          5.079463   1.000000
    398          5.079513   1.000000
    399          5.081616   1.000000
    400          5.212904   1.000000
    401          5.339636   1.000000
    402          5.799790   1.000000
    403          5.799921   1.000000
    404          5.803998   1.000000
    405          5.804084   1.000000
    406          5.806312   1.000000
    407          5.839338   1.000000
    408          5.877043   1.000000
    409          5.930057   1.000000
    410          5.976072   1.000000
    411          5.976204   1.000000
    412          5.984821   1.000000
    413          5.997231   1.000000
    414          5.997312   1.000000
    415          6.046621   1.000000
    416          6.198701   1.000000
    417          6.198901   1.000000
    418          6.199662   1.000000
    419          6.207593   1.000000
    420          6.207695   1.000000
    421          6.229728   1.000000
    422          6.267790   1.000000
    423          6.267862   1.000000
    424          6.272130   1.000000
    425          6.272213   1.000000
    426          6.274681   1.000000
    427          6.358237   1.000000
    428          6.426524   1.000000
    429          6.426530   1.000000
    430          6.447209   1.000000
    431          6.480125   1.000000
    432          6.480172   1.000000
    433          6.511662   1.000000
    434          6.795975   1.000000
    435          6.796163   1.000000
    436          6.796507   1.000000
    437          6.800012   1.000000
    438          6.800052   1.000000
    439          6.800427   1.000000
    440          6.814687   1.000000
    441          6.815748   1.000000
    442          6.815897   1.000000
    443          6.817999   1.000000
    444          6.818106   1.000000
    445          6.826850   1.000000
    446          6.839583   1.000000
    447          6.839733   1.000000
    448          6.841742   1.000000
    449          6.843964   1.000000
    450          6.844180   1.000000
    451          6.844516   1.000000
    452          6.851325   1.000000
    453          6.851379   1.000000
    454          6.852399   1.000000
    455          6.853086   1.000000
    456          6.853205   1.000000
    457          6.909044   1.000000
    458          6.954991   1.000000
    459          6.955013   1.000000
    460          6.956835   1.000000
    461          6.956874   1.000000
    462          6.957841   1.000000
    463          6.957884   1.000000
    464          6.958243   1.000000
    465          6.961975   1.000000
    466          6.962097   1.000000
    467          6.963142   1.000000
    468          6.963943   1.000000
    469          6.965773   1.000000
    470          6.965889   1.000000
    471          6.966475   1.000000
    472          6.970635   1.000000
    473          6.970756   1.000000
    474          6.974702   1.000000
    475          7.007722   1.000000
    476          7.008292   1.000000
    477          7.009478   1.000000
    478          7.015099   1.000000
    479          7.015209   1.000000
    480          7.015567   1.000000
    481          7.144788   1.000000
    482          7.167827   1.000000
    483          7.168326   1.000000
    484          7.368330   1.000000
    485          7.590167   1.000000
    486          7.590315   1.000000
    487          7.591598   1.000000
    488          7.591714   1.000000
    489          7.595471   1.000000
    490          7.604783   1.000000
    491          7.671082   1.000000
    492          7.671865   1.000000
    493          7.677970   1.000000
    494          7.680048   1.000000
    495          7.680406   1.000000
    496          7.683640   1.000000
    497          7.683838   1.000000
    498          7.685003   1.000000
    499          7.700325   1.000000
    500          7.727030   1.000000
    501          7.733666   1.000000
    502          7.733802   1.000000
    503          7.737894   1.000000
    504          7.738034   1.000000
    505          7.741479   1.000000
    506          7.778520   1.000000
    507          7.780523   1.000000
    508          7.780552   1.000000
    509          7.787652   1.000000
    510          7.788026   1.000000
    511          7.790276   1.000000
    512          7.791828   1.000000
    513          7.792201   1.000000
    514          7.867271   1.000000
    515          7.905758   1.000000
    516          7.906036   1.000000
    517          7.915552   1.000000
    518          7.933740   1.000000
    519          7.934182   1.000000
    520          7.936120   1.000000
    521          7.937531   1.000000
    522          7.937585   1.000000
    523          7.948462   1.000000
    524          7.993932   1.000000
    525          7.994096   1.000000
    526          8.001871   1.000000
    527          8.029497   1.000000
    528          8.030582   1.000000
    529          8.030887   1.000000
    530          8.034343   1.000000
    531          8.034504   1.000000
    532          8.038427   1.000000
    533          8.039778   1.000000
    534          8.039830   1.000000
    535          8.044754   1.000000
    536          8.046554   1.000000
    537          8.046708   1.000000
    538          8.120641   1.000000
    539          8.136617   1.000000
    540          8.136644   1.000000
    541          8.138547   1.000000
    542          8.142084   1.000000
    543          8.142569   1.000000
    544          8.292886   1.000014
    545          8.369331   1.000135
    546          8.369346   1.000135
    547          8.371374   1.000142
    548          8.373314   1.000150
    549          8.373521   1.000151
    550          8.381687   1.000188
    551          8.386339   1.000212
    552          8.386811   1.000215
    553          8.425995   1.000576
    554          8.449219   1.000991
    555          8.449653   1.001001
    556          8.458517   1.001222
    557          8.458693   1.001226
    558          8.461575   1.001307
    559          8.465424   1.001422
    560          8.465829   1.001435
    561          8.465901   1.001437
    562          8.471030   1.001605
    563          8.473576   1.001695
    564          8.473976   1.001710
    565          8.538606   1.005964
    566          8.538735   1.005977
    567          8.539137   1.006019
    568          8.548909   1.007104
    569          8.549159   1.007134
    570          8.559202   1.008401
    571          8.700463   1.035048
    572          8.734360   1.033044
    573          8.734641   1.032981
    574          8.735985   1.032665
    575          8.742108   1.030951
    576          8.742159   1.030935
    577          8.913524   0.675759
    578          8.944612   0.548579
    579          9.002596   0.309081
    580          9.002723   0.308590
    581          9.004192   0.302932
    582          9.009054   0.284454
    583          9.009186   0.283960
    584          9.057929   0.124958
    585          9.100579   0.032573
    586          9.112999   0.014044
    587          9.115421   0.010843
    588          9.115434   0.010827
    589          9.118216   0.007311
    590          9.118922   0.006446
    591          9.162647  -0.028194
    592          9.190679  -0.035012
    593          9.191224  -0.035059
    594          9.191388  -0.035073
    595          9.195927  -0.035353
    596          9.196441  -0.035373
    597          9.226808  -0.033328
    598          9.227322  -0.033250
    599          9.229399  -0.032926
    600          9.238549  -0.031318
    601          9.238905  -0.031251
    602          9.243663  -0.030314
    603          9.272753  -0.023843
    604          9.278875  -0.022428
    605          9.284154  -0.021218
    606          9.284591  -0.021119
    607          9.297097  -0.018334
    608          9.297271  -0.018296
    609          9.299523  -0.017811
    610          9.300260  -0.017653
    611          9.307445  -0.016151
    612          9.308332  -0.015971
    613          9.308865  -0.015863
    614          9.313969  -0.014847
    615          9.436362  -0.001780
    616          9.509009  -0.000328
    617          9.509467  -0.000324
    618          9.515526  -0.000278
    619          9.527939  -0.000201
    620          9.528631  -0.000197
    621          9.536756  -0.000159
    622          9.536972  -0.000158
    623          9.538695  -0.000151
    624          9.542456  -0.000136
    625          9.544493  -0.000129
    626          9.545339  -0.000126
    627          9.550418  -0.000109
    628          9.577389  -0.000051
    629          9.577862  -0.000050
    630          9.582587  -0.000044
    631          9.614294  -0.000017
    632          9.618031  -0.000015
    633          9.626626  -0.000011
    634          9.626935  -0.000011
    635          9.631200  -0.000010
    636          9.642032  -0.000007
    637          9.642236  -0.000007
    638          9.658242  -0.000004
    639          9.658517  -0.000004
    640          9.665385  -0.000003
    641          9.665517  -0.000003
    642          9.751590  -0.000000
    643          9.751850  -0.000000
    644          9.793266  -0.000000
    645          9.793661  -0.000000
    646          9.833179  -0.000000
    647          9.833346  -0.000000
    648          9.840070  -0.000000
    649          9.842780  -0.000000
    650          9.878582  -0.000000
    651         10.012431  -0.000000
    652         10.043792  -0.000000
    653         10.044849  -0.000000
    654         10.070403  -0.000000
    655         10.070937  -0.000000
    656         10.071482  -0.000000
    657         10.083954  -0.000000
    658         10.084882  -0.000000
    659         10.091416  -0.000000
    660         10.106245  -0.000000
    661         10.108622  -0.000000
    662         10.108708  -0.000000
    663         10.142825  -0.000000
    664         10.143955  -0.000000
    665         10.148931  -0.000000
    666         10.158320  -0.000000
    667         10.158393  -0.000000
    668         10.162248  -0.000000
    669         10.162957  -0.000000
    670         10.163108  -0.000000
    671         10.175890  -0.000000
    672         10.176386  -0.000000
    673         10.178550  -0.000000
    674         10.184317  -0.000000
    675         10.187572  -0.000000
    676         10.187683  -0.000000
    677         10.192451  -0.000000
    678         10.192468  -0.000000
    679         10.193392  -0.000000
    680         10.193650  -0.000000
    681         10.195362  -0.000000
    682         10.195515  -0.000000
    683         10.197689  -0.000000
    684         10.204913  -0.000000
    685         10.205453  -0.000000
    686         10.205603  -0.000000
    687         10.223146  -0.000000
    688         10.223759  -0.000000
    689         10.228807  -0.000000
    690         10.232844  -0.000000
    691         10.236833  -0.000000
    692         10.240764  -0.000000
 
  0.2500000E+00  0.1345275E-16  0.3333333E+00  0.4166667E-01
      1        -39.902205   1.000000
      2        -39.886126   1.000000
      3        -39.870304   1.000000
      4        -39.858049   1.000000
      5        -39.856765   1.000000
      6        -39.852273   1.000000
      7        -39.844821   1.000000
      8        -39.842268   1.000000
      9        -39.842056   1.000000
     10        -39.836498   1.000000
     11        -39.829664   1.000000
     12        -39.826604   1.000000
     13        -39.823198   1.000000
     14        -39.818830   1.000000
     15        -39.814926   1.000000
     16        -39.814630   1.000000
     17        -39.809741   1.000000
     18        -39.809112   1.000000
     19        -39.807423   1.000000
     20        -39.803755   1.000000
     21        -39.799242   1.000000
     22        -39.795752   1.000000
     23        -39.791785   1.000000
     24        -39.788067   1.000000
     25        -39.787208   1.000000
     26        -39.784624   1.000000
     27        -39.784514   1.000000
     28        -39.781612   1.000000
     29        -39.780816   1.000000
     30        -39.778317   1.000000
     31        -39.776044   1.000000
     32        -39.775456   1.000000
     33        -39.774355   1.000000
     34        -39.771305   1.000000
     35        -39.769242   1.000000
     36        -39.768296   1.000000
     37        -39.767472   1.000000
     38        -39.766842   1.000000
     39        -39.766158   1.000000
     40        -39.765382   1.000000
     41        -39.764868   1.000000
     42        -39.763168   1.000000
     43        -39.762867   1.000000
     44        -39.761778   1.000000
     45        -39.759862   1.000000
     46        -39.759161   1.000000
     47        -39.758056   1.000000
     48        -39.755217   1.000000
     49        -39.754622   1.000000
     50        -39.753983   1.000000
     51        -39.752252   1.000000
     52        -39.752051   1.000000
     53        -39.750697   1.000000
     54        -39.750299   1.000000
     55        -39.749089   1.000000
     56        -39.748931   1.000000
     57        -39.747991   1.000000
     58        -39.747807   1.000000
     59        -39.746833   1.000000
     60        -39.746393   1.000000
     61        -39.744880   1.000000
     62        -39.743645   1.000000
     63        -39.742764   1.000000
     64        -39.742482   1.000000
     65        -39.740529   1.000000
     66        -39.740108   1.000000
     67        -39.739490   1.000000
     68        -39.738288   1.000000
     69        -39.737312   1.000000
     70        -39.737311   1.000000
     71        -39.735576   1.000000
     72        -39.734352   1.000000
     73        -39.734170   1.000000
     74        -39.732876   1.000000
     75        -39.732735   1.000000
     76        -39.731686   1.000000
     77        -39.731332   1.000000
     78        -39.729759   1.000000
     79        -39.727628   1.000000
     80        -39.727460   1.000000
     81        -39.726233   1.000000
     82        -39.724396   1.000000
     83        -39.724259   1.000000
     84        -39.723627   1.000000
     85        -39.723529   1.000000
     86        -39.723015   1.000000
     87        -39.722630   1.000000
     88        -39.721973   1.000000
     89        -39.720152   1.000000
     90        -39.719928   1.000000
     91        -39.716009   1.000000
     92        -39.715802   1.000000
     93        -39.714681   1.000000
     94        -39.714296   1.000000
     95        -39.713837   1.000000
     96        -39.712974   1.000000
     97        -18.380232   1.000000
     98        -18.335806   1.000000
     99        -18.315295   1.000000
    100        -18.310939   1.000000
    101        -18.304442   1.000000
    102        -18.300397   1.000000
    103        -18.297466   1.000000
    104        -18.296874   1.000000
    105        -18.292450   1.000000
    106        -18.285978   1.000000
    107        -18.282255   1.000000
    108        -18.274805   1.000000
    109        -18.264257   1.000000
    110        -18.261743   1.000000
    111        -18.259630   1.000000
    112        -18.255856   1.000000
    113        -18.249924   1.000000
    114        -18.244953   1.000000
    115        -18.238971   1.000000
    116        -18.236950   1.000000
    117        -18.227385   1.000000
    118        -18.222030   1.000000
    119        -18.219558   1.000000
    120        -18.218645   1.000000
    121        -18.213770   1.000000
    122        -18.211637   1.000000
    123        -18.210208   1.000000
    124        -18.206312   1.000000
    125        -18.205707   1.000000
    126        -18.204871   1.000000
    127        -18.204179   1.000000
    128        -18.202479   1.000000
    129        -18.202436   1.000000
    130        -18.199896   1.000000
    131        -18.199818   1.000000
    132        -18.198556   1.000000
    133        -18.197225   1.000000
    134        -18.185348   1.000000
    135        -18.182719   1.000000
    136        -18.181050   1.000000
    137        -18.176473   1.000000
    138        -18.172057   1.000000
    139        -18.171057   1.000000
    140        -18.169531   1.000000
    141        -18.169153   1.000000
    142        -18.164414   1.000000
    143        -18.161503   1.000000
    144        -18.156710   1.000000
    145        -18.154885   1.000000
    146        -18.147455   1.000000
    147        -18.140009   1.000000
    148        -18.138923   1.000000
    149        -18.137674   1.000000
    150        -18.136928   1.000000
    151        -18.129953   1.000000
    152        -18.129690   1.000000
    153        -18.122911   1.000000
    154        -18.118739   1.000000
    155        -18.118071   1.000000
    156        -18.114615   1.000000
    157        -18.113209   1.000000
    158        -18.095913   1.000000
    159        -18.093574   1.000000
    160        -18.085125   1.000000
    161        -18.081216   1.000000
    162        -18.081147   1.000000
    163        -18.076567   1.000000
    164        -18.075408   1.000000
    165        -18.075355   1.000000
    166        -18.074725   1.000000
    167        -18.065442   1.000000
    168        -18.064115   1.000000
    169        -18.061760   1.000000
    170        -18.060618   1.000000
    171        -18.055671   1.000000
    172        -18.055332   1.000000
    173        -18.052636   1.000000
    174        -18.027135   1.000000
    175        -18.004065   1.000000
    176        -17.990610   1.000000
    177        -17.985131   1.000000
    178        -17.984900   1.000000
    179        -17.974727   1.000000
    180        -17.962568   1.000000
    181        -17.960475   1.000000
    182        -17.956059   1.000000
    183        -17.954079   1.000000
    184        -17.951312   1.000000
    185        -17.950113   1.000000
    186        -17.946149   1.000000
    187        -17.945548   1.000000
    188        -17.944014   1.000000
    189        -17.943012   1.000000
    190        -17.939197   1.000000
    191        -17.936408   1.000000
    192        -17.936388   1.000000
    193        -17.929239   1.000000
    194        -17.928321   1.000000
    195        -17.917578   1.000000
    196        -17.915128   1.000000
    197        -17.905329   1.000000
    198        -17.897822   1.000000
    199        -17.894840   1.000000
    200        -17.889331   1.000000
    201        -17.883754   1.000000
    202        -17.879672   1.000000
    203        -17.877743   1.000000
    204        -17.872969   1.000000
    205        -17.869750   1.000000
    206        -17.866121   1.000000
    207        -17.863577   1.000000
    208        -17.861969   1.000000
    209        -17.861933   1.000000
    210        -17.859534   1.000000
    211        -17.857623   1.000000
    212        -17.856521   1.000000
    213        -17.853623   1.000000
    214        -17.852565   1.000000
    215        -17.842408   1.000000
    216        -17.837320   1.000000
    217        -17.833877   1.000000
    218        -17.832923   1.000000
    219        -17.829093   1.000000
    220        -17.827022   1.000000
    221        -17.821605   1.000000
    222        -17.819611   1.000000
    223        -17.810165   1.000000
    224        -17.808317   1.000000
    225        -17.803917   1.000000
    226        -17.801693   1.000000
    227        -17.798084   1.000000
    228        -17.796845   1.000000
    229        -17.794887   1.000000
    230        -17.793921   1.000000
    231        -17.789968   1.000000
    232        -17.786986   1.000000
    233        -17.783206   1.000000
    234        -17.782096   1.000000
    235        -17.775630   1.000000
    236        -17.772552   1.000000
    237        -17.769817   1.000000
    238        -17.767651   1.000000
    239        -17.764234   1.000000
    240        -17.762921   1.000000
    241        -17.761881   1.000000
    242        -17.754134   1.000000
    243        -17.751770   1.000000
    244        -17.748663   1.000000
    245        -17.746849   1.000000
    246        -17.743118   1.000000
    247        -17.742851   1.000000
    248        -17.740482   1.000000
    249        -17.737666   1.000000
    250        -17.733170   1.000000
    251        -17.731769   1.000000
    252        -17.729138   1.000000
    253        -17.727177   1.000000
    254        -17.726368   1.000000
    255        -17.713273   1.000000
    256        -17.711234   1.000000
    257        -17.708770   1.000000
    258        -17.705912   1.000000
    259        -17.703649   1.000000
    260        -17.698299   1.000000
    261        -17.693500   1.000000
    262        -17.690549   1.000000
    263        -17.690349   1.000000
    264        -17.686009   1.000000
    265        -17.685192   1.000000
    266        -17.683494   1.000000
    267        -17.682905   1.000000
    268        -17.681112   1.000000
    269        -17.679487   1.000000
    270        -17.677948   1.000000
    271        -17.675116   1.000000
    272        -17.672520   1.000000
    273        -17.672212   1.000000
    274        -17.670161   1.000000
    275        -17.669150   1.000000
    276        -17.662966   1.000000
    277        -17.662616   1.000000
    278        -17.662322   1.000000
    279        -17.660519   1.000000
    280        -17.651955   1.000000
    281        -17.650869   1.000000
    282        -17.650417   1.000000
    283        -17.648820   1.000000
    284        -17.648270   1.000000
    285        -17.646087   1.000000
    286        -17.643062   1.000000
    287        -17.642980   1.000000
    288        -17.641860   1.000000
    289        -17.641442   1.000000
    290        -17.638829   1.000000
    291        -17.636928   1.000000
    292        -17.635364   1.000000
    293        -17.633972   1.000000
    294        -17.632620   1.000000
    295        -17.632591   1.000000
    296        -17.631946   1.000000
    297        -17.631193   1.000000
    298        -17.628425   1.000000
    299        -17.627675   1.000000
    300        -17.626611   1.000000
    301        -17.624682   1.000000
    302        -17.622996   1.000000
    303        -17.622613   1.000000
    304        -17.620407   1.000000
    305        -17.620175   1.000000
    306        -17.618948   1.000000
    307        -17.618424   1.000000
    308        -17.617641   1.000000
    309        -17.617306   1.000000
    310        -17.616637   1.000000
    311        -17.615598   1.000000
    312        -17.608205   1.000000
    313        -17.607068   1.000000
    314        -17.605361   1.000000
    315        -17.604794   1.000000
    316        -17.604008   1.000000
    317        -17.598654   1.000000
    318        -17.598126   1.000000
    319        -17.595780   1.000000
    320        -17.595033   1.000000
    321        -17.594843   1.000000
    322        -17.592463   1.000000
    323        -17.586314   1.000000
    324        -17.582965   1.000000
    325        -17.582877   1.000000
    326        -17.582412   1.000000
    327        -17.581933   1.000000
    328        -17.579544   1.000000
    329        -17.579393   1.000000
    330        -17.578432   1.000000
    331        -17.578313   1.000000
    332        -17.573983   1.000000
    333        -17.571121   1.000000
    334        -17.570629   1.000000
    335        -17.567986   1.000000
    336        -17.567281   1.000000
    337        -17.567210   1.000000
    338        -17.566795   1.000000
    339        -17.563709   1.000000
    340        -17.562832   1.000000
    341        -17.562809   1.000000
    342        -17.561136   1.000000
    343        -17.560328   1.000000
    344        -17.555071   1.000000
    345        -17.554735   1.000000
    346        -17.550226   1.000000
    347        -17.550045   1.000000
    348        -17.549528   1.000000
    349        -17.548661   1.000000
    350        -17.546472   1.000000
    351        -17.546277   1.000000
    352        -17.543653   1.000000
    353        -17.542011   1.000000
    354        -17.536718   1.000000
    355        -17.536039   1.000000
    356        -17.529531   1.000000
    357        -17.522908   1.000000
    358        -17.522635   1.000000
    359        -17.518874   1.000000
    360        -17.517929   1.000000
    361        -17.514125   1.000000
    362        -17.513632   1.000000
    363        -17.512541   1.000000
    364        -17.507128   1.000000
    365        -17.504560   1.000000
    366        -17.501479   1.000000
    367        -17.500456   1.000000
    368        -17.498927   1.000000
    369        -17.498242   1.000000
    370        -17.496270   1.000000
    371        -17.493848   1.000000
    372        -17.490419   1.000000
    373        -17.490247   1.000000
    374        -17.482209   1.000000
    375        -17.481653   1.000000
    376        -17.478379   1.000000
    377        -17.475874   1.000000
    378        -17.475597   1.000000
    379        -17.468881   1.000000
    380        -17.454826   1.000000
    381        -17.448380   1.000000
    382        -17.439152   1.000000
    383        -17.436280   1.000000
    384        -17.426615   1.000000
    385          2.448119   1.000000
    386          3.563692   1.000000
    387          3.858723   1.000000
    388          4.328759   1.000000
    389          4.567849   1.000000
    390          4.652552   1.000000
    391          4.700677   1.000000
    392          4.822361   1.000000
    393          4.877704   1.000000
    394          4.950835   1.000000
    395          5.252367   1.000000
    396          5.280857   1.000000
    397          5.364304   1.000000
    398          5.403206   1.000000
    399          5.422580   1.000000
    400          5.454727   1.000000
    401          5.507142   1.000000
    402          5.588285   1.000000
    403          5.690565   1.000000
    404          5.726963   1.000000
    405          5.960633   1.000000
    406          5.969412   1.000000
    407          5.982974   1.000000
    408          5.990683   1.000000
    409          6.003160   1.000000
    410          6.012697   1.000000
    411          6.017435   1.000000
    412          6.031791   1.000000
    413          6.042497   1.000000
    414          6.060188   1.000000
    415          6.074395   1.000000
    416          6.098698   1.000000
    417          6.146527   1.000000
    418          6.202671   1.000000
    419          6.218345   1.000000
    420          6.235982   1.000000
    421          6.249724   1.000000
    422          6.265393   1.000000
    423          6.290298   1.000000
    424          6.292278   1.000000
    425          6.307957   1.000000
    426          6.318741   1.000000
    427          6.329470   1.000000
    428          6.346134   1.000000
    429          6.378175   1.000000
    430          6.391456   1.000000
    431          6.431381   1.000000
    432          6.516139   1.000000
    433          6.520519   1.000000
    434          6.523367   1.000000
    435          6.526457   1.000000
    436          6.532148   1.000000
    437          6.534822   1.000000
    438          6.540442   1.000000
    439          6.567675   1.000000
    440          6.583894   1.000000
    441          6.587374   1.000000
    442          6.592420   1.000000
    443          6.611209   1.000000
    444          6.649795   1.000000
    445          6.657049   1.000000
    446          6.675280   1.000000
    447          6.697603   1.000000
    448          6.704393   1.000000
    449          6.742450   1.000000
    450          6.767990   1.000000
    451          6.794314   1.000000
    452          6.857210   1.000000
    453          6.861291   1.000000
    454          6.888017   1.000000
    455          6.892472   1.000000
    456          6.922936   1.000000
    457          6.924332   1.000000
    458          6.928335   1.000000
    459          6.930120   1.000000
    460          6.930381   1.000000
    461          6.932042   1.000000
    462          6.933430   1.000000
    463          7.002953   1.000000
    464          7.054582   1.000000
    465          7.060391   1.000000
    466          7.064895   1.000000
    467          7.071830   1.000000
    468          7.072995   1.000000
    469          7.074890   1.000000
    470          7.077025   1.000000
    471          7.117088   1.000000
    472          7.135173   1.000000
    473          7.154899   1.000000
    474          7.164031   1.000000
    475          7.166542   1.000000
    476          7.180240   1.000000
    477          7.183458   1.000000
    478          7.185737   1.000000
    479          7.191871   1.000000
    480          7.214468   1.000000
    481          7.256183   1.000000
    482          7.262466   1.000000
    483          7.263279   1.000000
    484          7.283043   1.000000
    485          7.297183   1.000000
    486          7.376451   1.000000
    487          7.439553   1.000000
    488          7.448633   1.000000
    489          7.461894   1.000000
    490          7.472282   1.000000
    491          7.501175   1.000000
    492          7.505691   1.000000
    493          7.523228   1.000000
    494          7.534780   1.000000
    495          7.548072   1.000000
    496          7.556791   1.000000
    497          7.573504   1.000000
    498          7.604933   1.000000
    499          7.610179   1.000000
    500          7.615772   1.000000
    501          7.628477   1.000000
    502          7.661093   1.000000
    503          7.670011   1.000000
    504          7.671228   1.000000
    505          7.737937   1.000000
    506          7.809948   1.000000
    507          7.822481   1.000000
    508          7.831560   1.000000
    509          7.875999   1.000000
    510          7.878335   1.000000
    511          7.887766   1.000000
    512          7.896560   1.000000
    513          7.912484   1.000000
    514          7.927427   1.000000
    515          7.942049   1.000000
    516          7.944372   1.000000
    517          7.952786   1.000000
    518          7.967337   1.000000
    519          7.977526   1.000000
    520          8.000836   1.000000
    521          8.011200   1.000000
    522          8.028414   1.000000
    523          8.036701   1.000000
    524          8.039763   1.000000
    525          8.042764   1.000000
    526          8.044344   1.000000
    527          8.050805   1.000000
    528          8.054775   1.000000
    529          8.055563   1.000000
    530          8.064742   1.000000
    531          8.081821   1.000000
    532          8.093010   1.000000
    533          8.095064   1.000000
    534          8.100615   1.000000
    535          8.125272   1.000000
    536          8.142228   1.000000
    537          8.144349   1.000000
    538          8.150173   1.000000
    539          8.154116   1.000000
    540          8.157331   1.000000
    541          8.178051   1.000000
    542          8.211806   1.000001
    543          8.242900   1.000003
    544          8.277200   1.000009
    545          8.279944   1.000009
    546          8.300952   1.000018
    547          8.323752   1.000037
    548          8.330755   1.000045
    549          8.334620   1.000051
    550          8.345114   1.000068
    551          8.352881   1.000085
    552          8.369901   1.000137
    553          8.377476   1.000168
    554          8.398712   1.000292
    555          8.410740   1.000396
    556          8.424627   1.000557
    557          8.428943   1.000618
    558          8.437282   1.000753
    559          8.437988   1.000765
    560          8.440107   1.000804
    561          8.441056   1.000822
    562          8.445979   1.000921
    563          8.450253   1.001015
    564          8.461461   1.001304
    565          8.489668   1.002371
    566          8.543679   1.006506
    567          8.545322   1.006690
    568          8.554927   1.007842
    569          8.684885   1.033247
    570          8.731788   1.033580
    571          8.769146   1.016977
    572          8.771445   1.015234
    573          8.792857   0.994097
    574          8.895274   0.744701
    575          8.912082   0.681400
    576          8.936280   0.583465
    577          8.937335   0.579070
    578          8.954339   0.507509
    579          8.987667   0.368312
    580          9.000061   0.318925
    581          9.032327   0.202004
    582          9.055037   0.132873
    583          9.069196   0.096109
    584          9.072824   0.087501
    585          9.105327   0.025064
    586          9.106237   0.023686
    587          9.139369  -0.014116
    588          9.153650  -0.023801
    589          9.155090  -0.024588
    590          9.170328  -0.031018
    591          9.179580  -0.033410
    592          9.182236  -0.033911
    593          9.185609  -0.034438
    594          9.193305  -0.035214
    595          9.193432  -0.035222
    596          9.196593  -0.035379
    597          9.200160  -0.035455
    598          9.200483  -0.035457
    599          9.206253  -0.035358
    600          9.207705  -0.035295
    601          9.211767  -0.035048
    602          9.231111  -0.032647
    603          9.239028  -0.031227
    604          9.250793  -0.028820
    605          9.253169  -0.028303
    606          9.305863  -0.016477
    607          9.346202  -0.009352
    608          9.392943  -0.004218
    609          9.393186  -0.004199
    610          9.410195  -0.003035
    611          9.411474  -0.002960
    612          9.433799  -0.001879
    613          9.453833  -0.001218
    614          9.454316  -0.001205
    615          9.469790  -0.000848
    616          9.473974  -0.000770
    617          9.476873  -0.000719
    618          9.482470  -0.000630
    619          9.482889  -0.000624
    620          9.487232  -0.000562
    621          9.496265  -0.000451
    622          9.496830  -0.000445
    623          9.499944  -0.000412
    624          9.503764  -0.000374
    625          9.511171  -0.000310
    626          9.553603  -0.000100
    627          9.565345  -0.000072
    628          9.569753  -0.000063
    629          9.596811  -0.000029
    630          9.603753  -0.000023
    631          9.609043  -0.000020
    632          9.616763  -0.000016
    633          9.621237  -0.000013
    634          9.630726  -0.000010
    635          9.640938  -0.000007
    636          9.645061  -0.000006
    637          9.661493  -0.000004
    638          9.671871  -0.000003
    639          9.681198  -0.000002
    640          9.688749  -0.000001
    641          9.737366  -0.000000
    642          9.744908  -0.000000
    643          9.780081  -0.000000
    644          9.796277  -0.000000
    645          9.842382  -0.000000
    646          9.867614  -0.000000
    647          9.872393  -0.000000
    648          9.881826  -0.000000
    649          9.882246  -0.000000
    650          9.900504  -0.000000
    651          9.906521  -0.000000
    652          9.911241  -0.000000
    653          9.923387  -0.000000
    654          9.928732  -0.000000
    655          9.946604  -0.000000
    656          9.951049  -0.000000
    657          9.964181  -0.000000
    658          9.968261  -0.000000
    659          9.983537  -0.000000
    660          9.985911  -0.000000
    661          9.993309  -0.000000
    662         10.004305  -0.000000
    663         10.007647  -0.000000
    664         10.014693  -0.000000
    665         10.014761  -0.000000
    666         10.021725  -0.000000
    667         10.022137  -0.000000
    668         10.024051  -0.000000
    669         10.035609  -0.000000
    670         10.094706  -0.000000
    671         10.107806  -0.000000
    672         10.113073  -0.000000
    673         10.123905  -0.000000
    674         10.164222  -0.000000
    675         10.165891  -0.000000
    676         10.198961  -0.000000
    677         10.209384  -0.000000
    678         10.222480  -0.000000
    679         10.224747  -0.000000
    680         10.227660  -0.000000
    681         10.250631  -0.000000
    682         10.256467  -0.000000
    683         10.258101  -0.000000
    684         10.269677  -0.000000
    685         10.272055  -0.000000
    686         10.274453  -0.000000
    687         10.280526  -0.000000
    688         10.291738  -0.000000
    689         10.299635  -0.000000
    690         10.307252  -0.000000
    691         10.312417  -0.000000
    692         10.313432  -0.000000
 
  0.1345275E-16  0.2500000E+00  0.3333333E+00  0.4166667E-01
      1        -39.902213   1.000000
      2        -39.886078   1.000000
      3        -39.870583   1.000000
      4        -39.856881   1.000000
      5        -39.856411   1.000000
      6        -39.853165   1.000000
      7        -39.846262   1.000000
      8        -39.842371   1.000000
      9        -39.841872   1.000000
     10        -39.836137   1.000000
     11        -39.829005   1.000000
     12        -39.825657   1.000000
     13        -39.821186   1.000000
     14        -39.819621   1.000000
     15        -39.818737   1.000000
     16        -39.814058   1.000000
     17        -39.809759   1.000000
     18        -39.809628   1.000000
     19        -39.805514   1.000000
     20        -39.803726   1.000000
     21        -39.798513   1.000000
     22        -39.798151   1.000000
     23        -39.790454   1.000000
     24        -39.787299   1.000000
     25        -39.786460   1.000000
     26        -39.784453   1.000000
     27        -39.784326   1.000000
     28        -39.783127   1.000000
     29        -39.780776   1.000000
     30        -39.778885   1.000000
     31        -39.776635   1.000000
     32        -39.775736   1.000000
     33        -39.773737   1.000000
     34        -39.771522   1.000000
     35        -39.768954   1.000000
     36        -39.768457   1.000000
     37        -39.767415   1.000000
     38        -39.767264   1.000000
     39        -39.766091   1.000000
     40        -39.765030   1.000000
     41        -39.764965   1.000000
     42        -39.763052   1.000000
     43        -39.762565   1.000000
     44        -39.761134   1.000000
     45        -39.760123   1.000000
     46        -39.758046   1.000000
     47        -39.758014   1.000000
     48        -39.756609   1.000000
     49        -39.754862   1.000000
     50        -39.753294   1.000000
     51        -39.752835   1.000000
     52        -39.752592   1.000000
     53        -39.750535   1.000000
     54        -39.750446   1.000000
     55        -39.749266   1.000000
     56        -39.749005   1.000000
     57        -39.747946   1.000000
     58        -39.747544   1.000000
     59        -39.746736   1.000000
     60        -39.745268   1.000000
     61        -39.745178   1.000000
     62        -39.744182   1.000000
     63        -39.744109   1.000000
     64        -39.740902   1.000000
     65        -39.739819   1.000000
     66        -39.739592   1.000000
     67        -39.738770   1.000000
     68        -39.738540   1.000000
     69        -39.737474   1.000000
     70        -39.737245   1.000000
     71        -39.736382   1.000000
     72        -39.735791   1.000000
     73        -39.734146   1.000000
     74        -39.733441   1.000000
     75        -39.733293   1.000000
     76        -39.731225   1.000000
     77        -39.730229   1.000000
     78        -39.729891   1.000000
     79        -39.727303   1.000000
     80        -39.726853   1.000000
     81        -39.726730   1.000000
     82        -39.724532   1.000000
     83        -39.724178   1.000000
     84        -39.723621   1.000000
     85        -39.723481   1.000000
     86        -39.723045   1.000000
     87        -39.722915   1.000000
     88        -39.721668   1.000000
     89        -39.720568   1.000000
     90        -39.719728   1.000000
     91        -39.716062   1.000000
     92        -39.715690   1.000000
     93        -39.714682   1.000000
     94        -39.714320   1.000000
     95        -39.713896   1.000000
     96        -39.712924   1.000000
     97        -18.380232   1.000000
     98        -18.335747   1.000000
     99        -18.315519   1.000000
    100        -18.311191   1.000000
    101        -18.303831   1.000000
    102        -18.300327   1.000000
    103        -18.297523   1.000000
    104        -18.296618   1.000000
    105        -18.292954   1.000000
    106        -18.285951   1.000000
    107        -18.281806   1.000000
    108        -18.275084   1.000000
    109        -18.264328   1.000000
    110        -18.262155   1.000000
    111        -18.259604   1.000000
    112        -18.255574   1.000000
    113        -18.250211   1.000000
    114        -18.244226   1.000000
    115        -18.238897   1.000000
    116        -18.236461   1.000000
    117        -18.227057   1.000000
    118        -18.222452   1.000000
    119        -18.219934   1.000000
    120        -18.218740   1.000000
    121        -18.214161   1.000000
    122        -18.211998   1.000000
    123        -18.211202   1.000000
    124        -18.206224   1.000000
    125        -18.205638   1.000000
    126        -18.204714   1.000000
    127        -18.204017   1.000000
    128        -18.202537   1.000000
    129        -18.202115   1.000000
    130        -18.200241   1.000000
    131        -18.199790   1.000000
    132        -18.198378   1.000000
    133        -18.198017   1.000000
    134        -18.186304   1.000000
    135        -18.182377   1.000000
    136        -18.180745   1.000000
    137        -18.176443   1.000000
    138        -18.172076   1.000000
    139        -18.171040   1.000000
    140        -18.168574   1.000000
    141        -18.168124   1.000000
    142        -18.164077   1.000000
    143        -18.160466   1.000000
    144        -18.156867   1.000000
    145        -18.155219   1.000000
    146        -18.147282   1.000000
    147        -18.140056   1.000000
    148        -18.139841   1.000000
    149        -18.136828   1.000000
    150        -18.136037   1.000000
    151        -18.130952   1.000000
    152        -18.130107   1.000000
    153        -18.122609   1.000000
    154        -18.119549   1.000000
    155        -18.118908   1.000000
    156        -18.113733   1.000000
    157        -18.111603   1.000000
    158        -18.095746   1.000000
    159        -18.092977   1.000000
    160        -18.086113   1.000000
    161        -18.081941   1.000000
    162        -18.081255   1.000000
    163        -18.078297   1.000000
    164        -18.077075   1.000000
    165        -18.074974   1.000000
    166        -18.074860   1.000000
    167        -18.067726   1.000000
    168        -18.065534   1.000000
    169        -18.060849   1.000000
    170        -18.060203   1.000000
    171        -18.053550   1.000000
    172        -18.053309   1.000000
    173        -18.052524   1.000000
    174        -18.027126   1.000000
    175        -18.001591   1.000000
    176        -17.993863   1.000000
    177        -17.984530   1.000000
    178        -17.984448   1.000000
    179        -17.972925   1.000000
    180        -17.962347   1.000000
    181        -17.959555   1.000000
    182        -17.956258   1.000000
    183        -17.955815   1.000000
    184        -17.951588   1.000000
    185        -17.951448   1.000000
    186        -17.946592   1.000000
    187        -17.945538   1.000000
    188        -17.942125   1.000000
    189        -17.941951   1.000000
    190        -17.938673   1.000000
    191        -17.935111   1.000000
    192        -17.934264   1.000000
    193        -17.931462   1.000000
    194        -17.930891   1.000000
    195        -17.917827   1.000000
    196        -17.915646   1.000000
    197        -17.905459   1.000000
    198        -17.900982   1.000000
    199        -17.897214   1.000000
    200        -17.886792   1.000000
    201        -17.882941   1.000000
    202        -17.878075   1.000000
    203        -17.877779   1.000000
    204        -17.872587   1.000000
    205        -17.869792   1.000000
    206        -17.863855   1.000000
    207        -17.863402   1.000000
    208        -17.861352   1.000000
    209        -17.860121   1.000000
    210        -17.859948   1.000000
    211        -17.857130   1.000000
    212        -17.857003   1.000000
    213        -17.853675   1.000000
    214        -17.852566   1.000000
    215        -17.842104   1.000000
    216        -17.838474   1.000000
    217        -17.834450   1.000000
    218        -17.832956   1.000000
    219        -17.829794   1.000000
    220        -17.826326   1.000000
    221        -17.823919   1.000000
    222        -17.822284   1.000000
    223        -17.810383   1.000000
    224        -17.809343   1.000000
    225        -17.804093   1.000000
    226        -17.801427   1.000000
    227        -17.797191   1.000000
    228        -17.796183   1.000000
    229        -17.796036   1.000000
    230        -17.795097   1.000000
    231        -17.790179   1.000000
    232        -17.788645   1.000000
    233        -17.782346   1.000000
    234        -17.781831   1.000000
    235        -17.773080   1.000000
    236        -17.770440   1.000000
    237        -17.768161   1.000000
    238        -17.766696   1.000000
    239        -17.764209   1.000000
    240        -17.764054   1.000000
    241        -17.761002   1.000000
    242        -17.752447   1.000000
    243        -17.751009   1.000000
    244        -17.748360   1.000000
    245        -17.748233   1.000000
    246        -17.744482   1.000000
    247        -17.743710   1.000000
    248        -17.739428   1.000000
    249        -17.738665   1.000000
    250        -17.732664   1.000000
    251        -17.732421   1.000000
    252        -17.728360   1.000000
    253        -17.726620   1.000000
    254        -17.724829   1.000000
    255        -17.717789   1.000000
    256        -17.712933   1.000000
    257        -17.708292   1.000000
    258        -17.704743   1.000000
    259        -17.703569   1.000000
    260        -17.697797   1.000000
    261        -17.694811   1.000000
    262        -17.690512   1.000000
    263        -17.690301   1.000000
    264        -17.686227   1.000000
    265        -17.683968   1.000000
    266        -17.683039   1.000000
    267        -17.682223   1.000000
    268        -17.680864   1.000000
    269        -17.678311   1.000000
    270        -17.677841   1.000000
    271        -17.674450   1.000000
    272        -17.672041   1.000000
    273        -17.671774   1.000000
    274        -17.670522   1.000000
    275        -17.669866   1.000000
    276        -17.664433   1.000000
    277        -17.662326   1.000000
    278        -17.661419   1.000000
    279        -17.660943   1.000000
    280        -17.652180   1.000000
    281        -17.651990   1.000000
    282        -17.651358   1.000000
    283        -17.649083   1.000000
    284        -17.648868   1.000000
    285        -17.647441   1.000000
    286        -17.644804   1.000000
    287        -17.642436   1.000000
    288        -17.641849   1.000000
    289        -17.641468   1.000000
    290        -17.638367   1.000000
    291        -17.635602   1.000000
    292        -17.634445   1.000000
    293        -17.634277   1.000000
    294        -17.633153   1.000000
    295        -17.633058   1.000000
    296        -17.630931   1.000000
    297        -17.630925   1.000000
    298        -17.629676   1.000000
    299        -17.628646   1.000000
    300        -17.627307   1.000000
    301        -17.625642   1.000000
    302        -17.622994   1.000000
    303        -17.621046   1.000000
    304        -17.620414   1.000000
    305        -17.619045   1.000000
    306        -17.618502   1.000000
    307        -17.617849   1.000000
    308        -17.617135   1.000000
    309        -17.616923   1.000000
    310        -17.616292   1.000000
    311        -17.616119   1.000000
    312        -17.607981   1.000000
    313        -17.606600   1.000000
    314        -17.605132   1.000000
    315        -17.604836   1.000000
    316        -17.603608   1.000000
    317        -17.597998   1.000000
    318        -17.597330   1.000000
    319        -17.596303   1.000000
    320        -17.594601   1.000000
    321        -17.594093   1.000000
    322        -17.592364   1.000000
    323        -17.588173   1.000000
    324        -17.583170   1.000000
    325        -17.583005   1.000000
    326        -17.582731   1.000000
    327        -17.581704   1.000000
    328        -17.579815   1.000000
    329        -17.579206   1.000000
    330        -17.578566   1.000000
    331        -17.578506   1.000000
    332        -17.575534   1.000000
    333        -17.571003   1.000000
    334        -17.570625   1.000000
    335        -17.569223   1.000000
    336        -17.567571   1.000000
    337        -17.567036   1.000000
    338        -17.566271   1.000000
    339        -17.563915   1.000000
    340        -17.562358   1.000000
    341        -17.562264   1.000000
    342        -17.561236   1.000000
    343        -17.560040   1.000000
    344        -17.554439   1.000000
    345        -17.553663   1.000000
    346        -17.551410   1.000000
    347        -17.549231   1.000000
    348        -17.548930   1.000000
    349        -17.547891   1.000000
    350        -17.546967   1.000000
    351        -17.546632   1.000000
    352        -17.544026   1.000000
    353        -17.542138   1.000000
    354        -17.536985   1.000000
    355        -17.536353   1.000000
    356        -17.530225   1.000000
    357        -17.522982   1.000000
    358        -17.522585   1.000000
    359        -17.518416   1.000000
    360        -17.517460   1.000000
    361        -17.514741   1.000000
    362        -17.514129   1.000000
    363        -17.512297   1.000000
    364        -17.506791   1.000000
    365        -17.503046   1.000000
    366        -17.502543   1.000000
    367        -17.500920   1.000000
    368        -17.499172   1.000000
    369        -17.497649   1.000000
    370        -17.496353   1.000000
    371        -17.494166   1.000000
    372        -17.489896   1.000000
    373        -17.489603   1.000000
    374        -17.482305   1.000000
    375        -17.481829   1.000000
    376        -17.478041   1.000000
    377        -17.476504   1.000000
    378        -17.475253   1.000000
    379        -17.469757   1.000000
    380        -17.454366   1.000000
    381        -17.448294   1.000000
    382        -17.439385   1.000000
    383        -17.436219   1.000000
    384        -17.426611   1.000000
    385          2.448120   1.000000
    386          3.563710   1.000000
    387          3.858699   1.000000
    388          4.328233   1.000000
    389          4.568517   1.000000
    390          4.652889   1.000000
    391          4.701649   1.000000
    392          4.822299   1.000000
    393          4.877302   1.000000
    394          4.949437   1.000000
    395          5.251685   1.000000
    396          5.279657   1.000000
    397          5.364496   1.000000
    398          5.404526   1.000000
    399          5.423976   1.000000
    400          5.454947   1.000000
    401          5.507176   1.000000
    402          5.585879   1.000000
    403          5.690959   1.000000
    404          5.729259   1.000000
    405          5.961923   1.000000
    406          5.970153   1.000000
    407          5.983343   1.000000
    408          5.989594   1.000000
    409          6.002130   1.000000
    410          6.012372   1.000000
    411          6.017410   1.000000
    412          6.030966   1.000000
    413          6.041124   1.000000
    414          6.061206   1.000000
    415          6.075868   1.000000
    416          6.098467   1.000000
    417          6.145747   1.000000
    418          6.202915   1.000000
    419          6.217436   1.000000
    420          6.235088   1.000000
    421          6.250501   1.000000
    422          6.264932   1.000000
    423          6.289391   1.000000
    424          6.294565   1.000000
    425          6.308684   1.000000
    426          6.318061   1.000000
    427          6.328140   1.000000
    428          6.346242   1.000000
    429          6.375884   1.000000
    430          6.391497   1.000000
    431          6.434911   1.000000
    432          6.516219   1.000000
    433          6.523258   1.000000
    434          6.523747   1.000000
    435          6.528407   1.000000
    436          6.533773   1.000000
    437          6.536391   1.000000
    438          6.540834   1.000000
    439          6.559596   1.000000
    440          6.584484   1.000000
    441          6.585858   1.000000
    442          6.588750   1.000000
    443          6.610616   1.000000
    444          6.646049   1.000000
    445          6.658707   1.000000
    446          6.676311   1.000000
    447          6.697361   1.000000
    448          6.703285   1.000000
    449          6.752206   1.000000
    450          6.770771   1.000000
    451          6.787283   1.000000
    452          6.856667   1.000000
    453          6.864906   1.000000
    454          6.888741   1.000000
    455          6.890469   1.000000
    456          6.923153   1.000000
    457          6.923924   1.000000
    458          6.926936   1.000000
    459          6.929383   1.000000
    460          6.929601   1.000000
    461          6.933040   1.000000
    462          6.934386   1.000000
    463          7.004537   1.000000
    464          7.054523   1.000000
    465          7.057462   1.000000
    466          7.063451   1.000000
    467          7.072629   1.000000
    468          7.074271   1.000000
    469          7.078432   1.000000
    470          7.080628   1.000000
    471          7.121790   1.000000
    472          7.134532   1.000000
    473          7.136532   1.000000
    474          7.165550   1.000000
    475          7.171575   1.000000
    476          7.178994   1.000000
    477          7.182097   1.000000
    478          7.185644   1.000000
    479          7.190306   1.000000
    480          7.220187   1.000000
    481          7.257294   1.000000
    482          7.261168   1.000000
    483          7.264132   1.000000
    484          7.290291   1.000000
    485          7.296673   1.000000
    486          7.367204   1.000000
    487          7.437014   1.000000
    488          7.450019   1.000000
    489          7.463172   1.000000
    490          7.477906   1.000000
    491          7.484613   1.000000
    492          7.509870   1.000000
    493          7.523111   1.000000
    494          7.529366   1.000000
    495          7.545046   1.000000
    496          7.557975   1.000000
    497          7.590370   1.000000
    498          7.603679   1.000000
    499          7.611961   1.000000
    500          7.616361   1.000000
    501          7.648375   1.000000
    502          7.660558   1.000000
    503          7.665274   1.000000
    504          7.671408   1.000000
    505          7.716879   1.000000
    506          7.807652   1.000000
    507          7.823370   1.000000
    508          7.834113   1.000000
    509          7.874698   1.000000
    510          7.878002   1.000000
    511          7.888503   1.000000
    512          7.889555   1.000000
    513          7.912848   1.000000
    514          7.920215   1.000000
    515          7.943967   1.000000
    516          7.948159   1.000000
    517          7.960541   1.000000
    518          7.969583   1.000000
    519          7.983555   1.000000
    520          8.002553   1.000000
    521          8.014322   1.000000
    522          8.020282   1.000000
    523          8.032146   1.000000
    524          8.039401   1.000000
    525          8.042144   1.000000
    526          8.043245   1.000000
    527          8.050423   1.000000
    528          8.057940   1.000000
    529          8.058392   1.000000
    530          8.063693   1.000000
    531          8.082159   1.000000
    532          8.093232   1.000000
    533          8.093610   1.000000
    534          8.100213   1.000000
    535          8.132775   1.000000
    536          8.142887   1.000000
    537          8.143908   1.000000
    538          8.146380   1.000000
    539          8.154031   1.000000
    540          8.157023   1.000000
    541          8.177355   1.000000
    542          8.212777   1.000001
    543          8.246498   1.000003
    544          8.272468   1.000007
    545          8.280873   1.000010
    546          8.302094   1.000019
    547          8.322961   1.000036
    548          8.329892   1.000044
    549          8.336101   1.000053
    550          8.349503   1.000078
    551          8.351747   1.000083
    552          8.362711   1.000112
    553          8.386690   1.000214
    554          8.398201   1.000289
    555          8.412837   1.000417
    556          8.420256   1.000501
    557          8.430641   1.000643
    558          8.434112   1.000699
    559          8.437200   1.000751
    560          8.440478   1.000811
    561          8.441679   1.000834
    562          8.446089   1.000923
    563          8.449660   1.001001
    564          8.459655   1.001253
    565          8.487480   1.002267
    566          8.543337   1.006468
    567          8.544261   1.006571
    568          8.557916   1.008230
    569          8.686918   1.033548
    570          8.730939   1.033741
    571          8.765785   1.019353
    572          8.771683   1.015048
    573          8.793139   0.993754
    574          8.880688   0.795383
    575          8.915758   0.666961
    576          8.930014   0.609399
    577          8.939142   0.571525
    578          8.965695   0.459509
    579          8.988088   0.366601
    580          9.003929   0.303946
    581          9.048428   0.151731
    582          9.053673   0.136677
    583          9.062723   0.112294
    584          9.067676   0.099816
    585          9.100381   0.032897
    586          9.107500   0.021805
    587          9.138138  -0.013111
    588          9.152610  -0.023213
    589          9.163330  -0.028478
    590          9.171241  -0.031301
    591          9.179806  -0.033455
    592          9.181616  -0.033801
    593          9.182961  -0.034035
    594          9.193575  -0.035231
    595          9.195025  -0.035312
    596          9.197133  -0.035397
    597          9.200168  -0.035455
    598          9.201932  -0.035455
    599          9.206313  -0.035355
    600          9.206947  -0.035330
    601          9.214706  -0.034805
    602          9.231491  -0.032583
    603          9.237419  -0.031531
    604          9.240968  -0.030851
    605          9.249565  -0.029084
    606          9.308222  -0.015993
    607          9.356010  -0.008008
    608          9.387088  -0.004696
    609          9.402304  -0.003536
    610          9.407432  -0.003203
    611          9.410562  -0.003013
    612          9.434385  -0.001856
    613          9.452308  -0.001260
    614          9.459210  -0.001080
    615          9.468319  -0.000878
    616          9.474306  -0.000764
    617          9.475982  -0.000734
    618          9.481980  -0.000637
    619          9.485674  -0.000583
    620          9.490868  -0.000515
    621          9.496235  -0.000451
    622          9.498521  -0.000426
    623          9.500090  -0.000410
    624          9.503207  -0.000379
    625          9.506687  -0.000348
    626          9.544308  -0.000129
    627          9.564483  -0.000074
    628          9.571581  -0.000060
    629          9.597197  -0.000028
    630          9.601187  -0.000025
    631          9.608343  -0.000020
    632          9.617755  -0.000015
    633          9.622060  -0.000013
    634          9.631712  -0.000010
    635          9.632171  -0.000010
    636          9.643194  -0.000007
    637          9.660810  -0.000004
    638          9.670966  -0.000003
    639          9.683554  -0.000002
    640          9.693372  -0.000001
    641          9.737302  -0.000000
    642          9.744546  -0.000000
    643          9.784370  -0.000000
    644          9.796529  -0.000000
    645          9.842331  -0.000000
    646          9.866660  -0.000000
    647          9.872641  -0.000000
    648          9.878338  -0.000000
    649          9.879080  -0.000000
    650          9.897709  -0.000000
    651          9.903289  -0.000000
    652          9.925776  -0.000000
    653          9.926049  -0.000000
    654          9.933647  -0.000000
    655          9.939213  -0.000000
    656          9.947220  -0.000000
    657          9.961201  -0.000000
    658          9.972439  -0.000000
    659          9.981214  -0.000000
    660          9.981347  -0.000000
    661          9.997961  -0.000000
    662         10.005482  -0.000000
    663         10.008476  -0.000000
    664         10.012271  -0.000000
    665         10.014008  -0.000000
    666         10.020418  -0.000000
    667         10.027325  -0.000000
    668         10.028713  -0.000000
    669         10.035323  -0.000000
    670         10.103351  -0.000000
    671         10.106784  -0.000000
    672         10.107773  -0.000000
    673         10.123037  -0.000000
    674         10.164535  -0.000000
    675         10.166730  -0.000000
    676         10.199679  -0.000000
    677         10.202722  -0.000000
    678         10.221342  -0.000000
    679         10.222369  -0.000000
    680         10.229753  -0.000000
    681         10.250905  -0.000000
    682         10.255670  -0.000000
    683         10.255973  -0.000000
    684         10.271054  -0.000000
    685         10.273341  -0.000000
    686         10.274793  -0.000000
    687         10.277941  -0.000000
    688         10.297313  -0.000000
    689         10.299467  -0.000000
    690         10.306914  -0.000000
    691         10.312944  -0.000000
    692         10.321200  -0.000000
 
 -0.2500000E+00  0.2500000E+00  0.3333333E+00  0.4166667E-01
      1        -39.902210   1.000000
      2        -39.886122   1.000000
      3        -39.870225   1.000000
      4        -39.858074   1.000000
      5        -39.856898   1.000000
      6        -39.852265   1.000000
      7        -39.844751   1.000000
      8        -39.842321   1.000000
      9        -39.842126   1.000000
     10        -39.836380   1.000000
     11        -39.829768   1.000000
     12        -39.826485   1.000000
     13        -39.823087   1.000000
     14        -39.818881   1.000000
     15        -39.814890   1.000000
     16        -39.814580   1.000000
     17        -39.809768   1.000000
     18        -39.809241   1.000000
     19        -39.807553   1.000000
     20        -39.803649   1.000000
     21        -39.799379   1.000000
     22        -39.795616   1.000000
     23        -39.791560   1.000000
     24        -39.788117   1.000000
     25        -39.787245   1.000000
     26        -39.784642   1.000000
     27        -39.784381   1.000000
     28        -39.781650   1.000000
     29        -39.780962   1.000000
     30        -39.778345   1.000000
     31        -39.776158   1.000000
     32        -39.775534   1.000000
     33        -39.774342   1.000000
     34        -39.771323   1.000000
     35        -39.769304   1.000000
     36        -39.768360   1.000000
     37        -39.767340   1.000000
     38        -39.766765   1.000000
     39        -39.766037   1.000000
     40        -39.765560   1.000000
     41        -39.764937   1.000000
     42        -39.763133   1.000000
     43        -39.762756   1.000000
     44        -39.761503   1.000000
     45        -39.759835   1.000000
     46        -39.759273   1.000000
     47        -39.758046   1.000000
     48        -39.755362   1.000000
     49        -39.754653   1.000000
     50        -39.753954   1.000000
     51        -39.752210   1.000000
     52        -39.752072   1.000000
     53        -39.750673   1.000000
     54        -39.750380   1.000000
     55        -39.749075   1.000000
     56        -39.748816   1.000000
     57        -39.748123   1.000000
     58        -39.747801   1.000000
     59        -39.746988   1.000000
     60        -39.746373   1.000000
     61        -39.744728   1.000000
     62        -39.743650   1.000000
     63        -39.742760   1.000000
     64        -39.742331   1.000000
     65        -39.740542   1.000000
     66        -39.739832   1.000000
     67        -39.739484   1.000000
     68        -39.738388   1.000000
     69        -39.737458   1.000000
     70        -39.737373   1.000000
     71        -39.735505   1.000000
     72        -39.734446   1.000000
     73        -39.734078   1.000000
     74        -39.732994   1.000000
     75        -39.732821   1.000000
     76        -39.731811   1.000000
     77        -39.731432   1.000000
     78        -39.729632   1.000000
     79        -39.727495   1.000000
     80        -39.727367   1.000000
     81        -39.726317   1.000000
     82        -39.724378   1.000000
     83        -39.724154   1.000000
     84        -39.723741   1.000000
     85        -39.723548   1.000000
     86        -39.722878   1.000000
     87        -39.722711   1.000000
     88        -39.721968   1.000000
     89        -39.720246   1.000000
     90        -39.719852   1.000000
     91        -39.716021   1.000000
     92        -39.715797   1.000000
     93        -39.714747   1.000000
     94        -39.714185   1.000000
     95        -39.713922   1.000000
     96        -39.712938   1.000000
     97        -18.380229   1.000000
     98        -18.335794   1.000000
     99        -18.315244   1.000000
    100        -18.311003   1.000000
    101        -18.304357   1.000000
    102        -18.300393   1.000000
    103        -18.297522   1.000000
    104        -18.296862   1.000000
    105        -18.292458   1.000000
    106        -18.285951   1.000000
    107        -18.282194   1.000000
    108        -18.274885   1.000000
    109        -18.264322   1.000000
    110        -18.261727   1.000000
    111        -18.259699   1.000000
    112        -18.255846   1.000000
    113        -18.249908   1.000000
    114        -18.244863   1.000000
    115        -18.238966   1.000000
    116        -18.236875   1.000000
    117        -18.227552   1.000000
    118        -18.221967   1.000000
    119        -18.219503   1.000000
    120        -18.218589   1.000000
    121        -18.213720   1.000000
    122        -18.211644   1.000000
    123        -18.210280   1.000000
    124        -18.206305   1.000000
    125        -18.205682   1.000000
    126        -18.204957   1.000000
    127        -18.204059   1.000000
    128        -18.202493   1.000000
    129        -18.202417   1.000000
    130        -18.199964   1.000000
    131        -18.199827   1.000000
    132        -18.198595   1.000000
    133        -18.197389   1.000000
    134        -18.185294   1.000000
    135        -18.182700   1.000000
    136        -18.181024   1.000000
    137        -18.176508   1.000000
    138        -18.172085   1.000000
    139        -18.171045   1.000000
    140        -18.169463   1.000000
    141        -18.169128   1.000000
    142        -18.164403   1.000000
    143        -18.161557   1.000000
    144        -18.156711   1.000000
    145        -18.154897   1.000000
    146        -18.147485   1.000000
    147        -18.140038   1.000000
    148        -18.138946   1.000000
    149        -18.137689   1.000000
    150        -18.136898   1.000000
    151        -18.130013   1.000000
    152        -18.129603   1.000000
    153        -18.123017   1.000000
    154        -18.118846   1.000000
    155        -18.118095   1.000000
    156        -18.114525   1.000000
    157        -18.113192   1.000000
    158        -18.095845   1.000000
    159        -18.093508   1.000000
    160        -18.085197   1.000000
    161        -18.081223   1.000000
    162        -18.081161   1.000000
    163        -18.076528   1.000000
    164        -18.075425   1.000000
    165        -18.075353   1.000000
    166        -18.074725   1.000000
    167        -18.065454   1.000000
    168        -18.063974   1.000000
    169        -18.061690   1.000000
    170        -18.060707   1.000000
    171        -18.055634   1.000000
    172        -18.055340   1.000000
    173        -18.052703   1.000000
    174        -18.027144   1.000000
    175        -18.004042   1.000000
    176        -17.990696   1.000000
    177        -17.985073   1.000000
    178        -17.984817   1.000000
    179        -17.974421   1.000000
    180        -17.962527   1.000000
    181        -17.960554   1.000000
    182        -17.956166   1.000000
    183        -17.954122   1.000000
    184        -17.951386   1.000000
    185        -17.949997   1.000000
    186        -17.946251   1.000000
    187        -17.945509   1.000000
    188        -17.944002   1.000000
    189        -17.943016   1.000000
    190        -17.939202   1.000000
    191        -17.936560   1.000000
    192        -17.936442   1.000000
    193        -17.929109   1.000000
    194        -17.928371   1.000000
    195        -17.917469   1.000000
    196        -17.915094   1.000000
    197        -17.905387   1.000000
    198        -17.897869   1.000000
    199        -17.894963   1.000000
    200        -17.889241   1.000000
    201        -17.883671   1.000000
    202        -17.879766   1.000000
    203        -17.877657   1.000000
    204        -17.873028   1.000000
    205        -17.869843   1.000000
    206        -17.865983   1.000000
    207        -17.863724   1.000000
    208        -17.862050   1.000000
    209        -17.861777   1.000000
    210        -17.859602   1.000000
    211        -17.857503   1.000000
    212        -17.856548   1.000000
    213        -17.853566   1.000000
    214        -17.852566   1.000000
    215        -17.842304   1.000000
    216        -17.837330   1.000000
    217        -17.833770   1.000000
    218        -17.833198   1.000000
    219        -17.829056   1.000000
    220        -17.827156   1.000000
    221        -17.821435   1.000000
    222        -17.819663   1.000000
    223        -17.810356   1.000000
    224        -17.808247   1.000000
    225        -17.803851   1.000000
    226        -17.801757   1.000000
    227        -17.798180   1.000000
    228        -17.796809   1.000000
    229        -17.794879   1.000000
    230        -17.793978   1.000000
    231        -17.789893   1.000000
    232        -17.786927   1.000000
    233        -17.783118   1.000000
    234        -17.782188   1.000000
    235        -17.775552   1.000000
    236        -17.772623   1.000000
    237        -17.769869   1.000000
    238        -17.767806   1.000000
    239        -17.764162   1.000000
    240        -17.762733   1.000000
    241        -17.761848   1.000000
    242        -17.754223   1.000000
    243        -17.751634   1.000000
    244        -17.748636   1.000000
    245        -17.746935   1.000000
    246        -17.743109   1.000000
    247        -17.742713   1.000000
    248        -17.740551   1.000000
    249        -17.737771   1.000000
    250        -17.733182   1.000000
    251        -17.731740   1.000000
    252        -17.728974   1.000000
    253        -17.727203   1.000000
    254        -17.726373   1.000000
    255        -17.713318   1.000000
    256        -17.711176   1.000000
    257        -17.708846   1.000000
    258        -17.705926   1.000000
    259        -17.703560   1.000000
    260        -17.698164   1.000000
    261        -17.693494   1.000000
    262        -17.690612   1.000000
    263        -17.690451   1.000000
    264        -17.686194   1.000000
    265        -17.685089   1.000000
    266        -17.683458   1.000000
    267        -17.682949   1.000000
    268        -17.681203   1.000000
    269        -17.679307   1.000000
    270        -17.677959   1.000000
    271        -17.675077   1.000000
    272        -17.672554   1.000000
    273        -17.672304   1.000000
    274        -17.670050   1.000000
    275        -17.669181   1.000000
    276        -17.662979   1.000000
    277        -17.662458   1.000000
    278        -17.662276   1.000000
    279        -17.660446   1.000000
    280        -17.652044   1.000000
    281        -17.650863   1.000000
    282        -17.650393   1.000000
    283        -17.648746   1.000000
    284        -17.648254   1.000000
    285        -17.646130   1.000000
    286        -17.643050   1.000000
    287        -17.642908   1.000000
    288        -17.641884   1.000000
    289        -17.641503   1.000000
    290        -17.638913   1.000000
    291        -17.636813   1.000000
    292        -17.635411   1.000000
    293        -17.634068   1.000000
    294        -17.632625   1.000000
    295        -17.632499   1.000000
    296        -17.631956   1.000000
    297        -17.631294   1.000000
    298        -17.628436   1.000000
    299        -17.627812   1.000000
    300        -17.626546   1.000000
    301        -17.624734   1.000000
    302        -17.622881   1.000000
    303        -17.622612   1.000000
    304        -17.620580   1.000000
    305        -17.620195   1.000000
    306        -17.619129   1.000000
    307        -17.618570   1.000000
    308        -17.617706   1.000000
    309        -17.617330   1.000000
    310        -17.616581   1.000000
    311        -17.615443   1.000000
    312        -17.608102   1.000000
    313        -17.607056   1.000000
    314        -17.605434   1.000000
    315        -17.604774   1.000000
    316        -17.604048   1.000000
    317        -17.598623   1.000000
    318        -17.598034   1.000000
    319        -17.595681   1.000000
    320        -17.595102   1.000000
    321        -17.594886   1.000000
    322        -17.592511   1.000000
    323        -17.586123   1.000000
    324        -17.582959   1.000000
    325        -17.582874   1.000000
    326        -17.582395   1.000000
    327        -17.581875   1.000000
    328        -17.579621   1.000000
    329        -17.579559   1.000000
    330        -17.578391   1.000000
    331        -17.578343   1.000000
    332        -17.574091   1.000000
    333        -17.571105   1.000000
    334        -17.570683   1.000000
    335        -17.567828   1.000000
    336        -17.567322   1.000000
    337        -17.567208   1.000000
    338        -17.566701   1.000000
    339        -17.563678   1.000000
    340        -17.562912   1.000000
    341        -17.562814   1.000000
    342        -17.561037   1.000000
    343        -17.560343   1.000000
    344        -17.555133   1.000000
    345        -17.554668   1.000000
    346        -17.550257   1.000000
    347        -17.550137   1.000000
    348        -17.549579   1.000000
    349        -17.548784   1.000000
    350        -17.546378   1.000000
    351        -17.546291   1.000000
    352        -17.543602   1.000000
    353        -17.541901   1.000000
    354        -17.536704   1.000000
    355        -17.536164   1.000000
    356        -17.529595   1.000000
    357        -17.522953   1.000000
    358        -17.522665   1.000000
    359        -17.518825   1.000000
    360        -17.517872   1.000000
    361        -17.514133   1.000000
    362        -17.513492   1.000000
    363        -17.512574   1.000000
    364        -17.507044   1.000000
    365        -17.504603   1.000000
    366        -17.501411   1.000000
    367        -17.500405   1.000000
    368        -17.498821   1.000000
    369        -17.498260   1.000000
    370        -17.496289   1.000000
    371        -17.493970   1.000000
    372        -17.490371   1.000000
    373        -17.490212   1.000000
    374        -17.482416   1.000000
    375        -17.481735   1.000000
    376        -17.478203   1.000000
    377        -17.475765   1.000000
    378        -17.475605   1.000000
    379        -17.468933   1.000000
    380        -17.454815   1.000000
    381        -17.448366   1.000000
    382        -17.439216   1.000000
    383        -17.436250   1.000000
    384        -17.426637   1.000000
    385          2.448119   1.000000
    386          3.563686   1.000000
    387          3.858722   1.000000
    388          4.328788   1.000000
    389          4.567854   1.000000
    390          4.652622   1.000000
    391          4.700577   1.000000
    392          4.822343   1.000000
    393          4.877776   1.000000
    394          4.950769   1.000000
    395          5.252404   1.000000
    396          5.280795   1.000000
    397          5.364267   1.000000
    398          5.403267   1.000000
    399          5.422483   1.000000
    400          5.454796   1.000000
    401          5.507139   1.000000
    402          5.588363   1.000000
    403          5.690623   1.000000
    404          5.726936   1.000000
    405          5.960723   1.000000
    406          5.969442   1.000000
    407          5.982930   1.000000
    408          5.990795   1.000000
    409          6.003093   1.000000
    410          6.012646   1.000000
    411          6.017220   1.000000
    412          6.031866   1.000000
    413          6.042402   1.000000
    414          6.060223   1.000000
    415          6.074449   1.000000
    416          6.098688   1.000000
    417          6.146723   1.000000
    418          6.202688   1.000000
    419          6.218247   1.000000
    420          6.235718   1.000000
    421          6.249563   1.000000
    422          6.265511   1.000000
    423          6.290417   1.000000
    424          6.292374   1.000000
    425          6.307994   1.000000
    426          6.318636   1.000000
    427          6.329526   1.000000
    428          6.346032   1.000000
    429          6.378223   1.000000
    430          6.391570   1.000000
    431          6.431194   1.000000
    432          6.516140   1.000000
    433          6.520608   1.000000
    434          6.523406   1.000000
    435          6.526486   1.000000
    436          6.532123   1.000000
    437          6.534803   1.000000
    438          6.540329   1.000000
    439          6.567805   1.000000
    440          6.583800   1.000000
    441          6.587396   1.000000
    442          6.592581   1.000000
    443          6.611190   1.000000
    444          6.649676   1.000000
    445          6.657048   1.000000
    446          6.675329   1.000000
    447          6.697608   1.000000
    448          6.704583   1.000000
    449          6.742329   1.000000
    450          6.768047   1.000000
    451          6.794254   1.000000
    452          6.857399   1.000000
    453          6.861385   1.000000
    454          6.888273   1.000000
    455          6.892544   1.000000
    456          6.922854   1.000000
    457          6.924553   1.000000
    458          6.928204   1.000000
    459          6.929962   1.000000
    460          6.930347   1.000000
    461          6.932059   1.000000
    462          6.933342   1.000000
    463          7.002928   1.000000
    464          7.054703   1.000000
    465          7.060014   1.000000
    466          7.064940   1.000000
    467          7.071427   1.000000
    468          7.073168   1.000000
    469          7.074854   1.000000
    470          7.076989   1.000000
    471          7.117354   1.000000
    472          7.134997   1.000000
    473          7.155079   1.000000
    474          7.163919   1.000000
    475          7.166420   1.000000
    476          7.180323   1.000000
    477          7.183603   1.000000
    478          7.185398   1.000000
    479          7.191485   1.000000
    480          7.214458   1.000000
    481          7.256130   1.000000
    482          7.262459   1.000000
    483          7.263483   1.000000
    484          7.283167   1.000000
    485          7.297377   1.000000
    486          7.376652   1.000000
    487          7.439682   1.000000
    488          7.448416   1.000000
    489          7.461916   1.000000
    490          7.472486   1.000000
    491          7.501551   1.000000
    492          7.505334   1.000000
    493          7.523270   1.000000
    494          7.534951   1.000000
    495          7.548069   1.000000
    496          7.557029   1.000000
    497          7.573353   1.000000
    498          7.604880   1.000000
    499          7.610023   1.000000
    500          7.615807   1.000000
    501          7.628263   1.000000
    502          7.660881   1.000000
    503          7.669881   1.000000
    504          7.671295   1.000000
    505          7.737911   1.000000
    506          7.809809   1.000000
    507          7.822431   1.000000
    508          7.831691   1.000000
    509          7.875932   1.000000
    510          7.878064   1.000000
    511          7.887982   1.000000
    512          7.896515   1.000000
    513          7.912533   1.000000
    514          7.927441   1.000000
    515          7.942374   1.000000
    516          7.944401   1.000000
    517          7.953180   1.000000
    518          7.967618   1.000000
    519          7.977390   1.000000
    520          8.000821   1.000000
    521          8.010958   1.000000
    522          8.028961   1.000000
    523          8.036831   1.000000
    524          8.039659   1.000000
    525          8.042683   1.000000
    526          8.043958   1.000000
    527          8.050863   1.000000
    528          8.054601   1.000000
    529          8.055898   1.000000
    530          8.064619   1.000000
    531          8.081511   1.000000
    532          8.093007   1.000000
    533          8.095055   1.000000
    534          8.101058   1.000000
    535          8.124887   1.000000
    536          8.142123   1.000000
    537          8.143890   1.000000
    538          8.149789   1.000000
    539          8.154100   1.000000
    540          8.157062   1.000000
    541          8.178153   1.000000
    542          8.211588   1.000001
    543          8.242879   1.000003
    544          8.277244   1.000009
    545          8.280161   1.000010
    546          8.300675   1.000018
    547          8.323621   1.000037
    548          8.330900   1.000045
    549          8.334933   1.000051
    550          8.344947   1.000068
    551          8.353117   1.000086
    552          8.369435   1.000135
    553          8.377309   1.000167
    554          8.398430   1.000290
    555          8.410614   1.000395
    556          8.425054   1.000563
    557          8.428894   1.000617
    558          8.436869   1.000745
    559          8.438421   1.000773
    560          8.439989   1.000802
    561          8.441323   1.000827
    562          8.445920   1.000919
    563          8.450674   1.001025
    564          8.461372   1.001301
    565          8.489985   1.002386
    566          8.544055   1.006548
    567          8.545319   1.006689
    568          8.554642   1.007806
    569          8.684660   1.033213
    570          8.731870   1.033564
    571          8.769374   1.016808
    572          8.771353   1.015306
    573          8.792873   0.994078
    574          8.894970   0.745800
    575          8.911877   0.682199
    576          8.936579   0.582223
    577          8.937481   0.578461
    578          8.954423   0.507151
    579          8.987722   0.368086
    580          9.000200   0.318385
    581          9.032419   0.201703
    582          9.055360   0.131977
    583          9.069792   0.094672
    584          9.072971   0.087161
    585          9.105440   0.024892
    586          9.106249   0.023669
    587          9.139193  -0.013974
    588          9.153710  -0.023835
    589          9.155242  -0.024669
    590          9.170173  -0.030968
    591          9.179447  -0.033383
    592          9.182722  -0.033994
    593          9.185418  -0.034411
    594          9.193443  -0.035222
    595          9.193662  -0.035236
    596          9.197315  -0.035402
    597          9.199971  -0.035453
    598          9.200326  -0.035456
    599          9.206132  -0.035362
    600          9.207308  -0.035314
    601          9.211888  -0.035039
    602          9.230696  -0.032715
    603          9.238722  -0.031285
    604          9.251116  -0.028750
    605          9.252911  -0.028359
    606          9.305796  -0.016490
    607          9.345379  -0.009472
    608          9.393103  -0.004205
    609          9.393955  -0.004139
    610          9.409670  -0.003066
    611          9.411101  -0.002981
    612          9.433659  -0.001884
    613          9.453766  -0.001220
    614          9.454862  -0.001191
    615          9.469587  -0.000853
    616          9.474310  -0.000764
    617          9.476996  -0.000717
    618          9.482650  -0.000627
    619          9.482758  -0.000626
    620          9.487030  -0.000565
    621          9.496561  -0.000448
    622          9.497069  -0.000442
    623          9.499960  -0.000411
    624          9.503874  -0.000373
    625          9.511060  -0.000311
    626          9.552992  -0.000102
    627          9.565073  -0.000073
    628          9.569565  -0.000064
    629          9.596695  -0.000029
    630          9.604144  -0.000023
    631          9.608601  -0.000020
    632          9.616898  -0.000015
    633          9.621536  -0.000013
    634          9.630901  -0.000010
    635          9.641399  -0.000007
    636          9.644570  -0.000006
    637          9.662143  -0.000004
    638          9.672217  -0.000003
    639          9.681075  -0.000002
    640          9.688195  -0.000001
    641          9.737401  -0.000000
    642          9.744849  -0.000000
    643          9.779990  -0.000000
    644          9.796368  -0.000000
    645          9.842528  -0.000000
    646          9.867589  -0.000000
    647          9.872483  -0.000000
    648          9.881697  -0.000000
    649          9.882544  -0.000000
    650          9.900182  -0.000000
    651          9.906454  -0.000000
    652          9.911482  -0.000000
    653          9.923635  -0.000000
    654          9.929489  -0.000000
    655          9.946652  -0.000000
    656          9.951186  -0.000000
    657          9.963904  -0.000000
    658          9.968657  -0.000000
    659          9.983564  -0.000000
    660          9.985948  -0.000000
    661          9.992282  -0.000000
    662         10.004511  -0.000000
    663         10.007335  -0.000000
    664         10.014820  -0.000000
    665         10.015185  -0.000000
    666         10.021479  -0.000000
    667         10.022809  -0.000000
    668         10.024308  -0.000000
    669         10.035029  -0.000000
    670         10.093769  -0.000000
    671         10.108041  -0.000000
    672         10.112568  -0.000000
    673         10.123757  -0.000000
    674         10.164376  -0.000000
    675         10.165740  -0.000000
    676         10.198989  -0.000000
    677         10.209325  -0.000000
    678         10.223057  -0.000000
    679         10.224494  -0.000000
    680         10.227865  -0.000000
    681         10.250278  -0.000000
    682         10.256554  -0.000000
    683         10.257846  -0.000000
    684         10.269678  -0.000000
    685         10.271882  -0.000000
    686         10.274533  -0.000000
    687         10.280277  -0.000000
    688         10.291731  -0.000000
    689         10.299614  -0.000000
    690         10.305498  -0.000000
    691         10.312143  -0.000000
    692         10.314319  -0.000000
 
 -0.2500000E+00 -0.1345275E-16  0.3333333E+00  0.4166667E-01
      1        -39.902208   1.000000
      2        -39.886076   1.000000
      3        -39.870673   1.000000
      4        -39.856743   1.000000
      5        -39.856424   1.000000
      6        -39.853113   1.000000
      7        -39.846371   1.000000
      8        -39.842265   1.000000
      9        -39.841871   1.000000
     10        -39.836163   1.000000
     11        -39.828970   1.000000
     12        -39.825690   1.000000
     13        -39.821438   1.000000
     14        -39.819490   1.000000
     15        -39.818828   1.000000
     16        -39.814054   1.000000
     17        -39.809798   1.000000
     18        -39.809477   1.000000
     19        -39.805443   1.000000
     20        -39.803762   1.000000
     21        -39.798500   1.000000
     22        -39.798253   1.000000
     23        -39.790564   1.000000
     24        -39.787167   1.000000
     25        -39.786399   1.000000
     26        -39.784405   1.000000
     27        -39.784387   1.000000
     28        -39.783165   1.000000
     29        -39.780524   1.000000
     30        -39.778791   1.000000
     31        -39.776675   1.000000
     32        -39.775791   1.000000
     33        -39.773818   1.000000
     34        -39.771481   1.000000
     35        -39.768961   1.000000
     36        -39.768373   1.000000
     37        -39.767559   1.000000
     38        -39.767297   1.000000
     39        -39.766118   1.000000
     40        -39.764928   1.000000
     41        -39.764883   1.000000
     42        -39.763142   1.000000
     43        -39.762772   1.000000
     44        -39.761274   1.000000
     45        -39.760172   1.000000
     46        -39.758020   1.000000
     47        -39.757940   1.000000
     48        -39.756513   1.000000
     49        -39.755146   1.000000
     50        -39.753329   1.000000
     51        -39.752716   1.000000
     52        -39.752581   1.000000
     53        -39.750469   1.000000
     54        -39.750344   1.000000
     55        -39.749035   1.000000
     56        -39.749010   1.000000
     57        -39.748007   1.000000
     58        -39.747544   1.000000
     59        -39.746872   1.000000
     60        -39.745196   1.000000
     61        -39.745152   1.000000
     62        -39.744177   1.000000
     63        -39.743988   1.000000
     64        -39.740750   1.000000
     65        -39.739775   1.000000
     66        -39.739723   1.000000
     67        -39.738791   1.000000
     68        -39.738526   1.000000
     69        -39.737638   1.000000
     70        -39.737226   1.000000
     71        -39.736448   1.000000
     72        -39.735746   1.000000
     73        -39.734170   1.000000
     74        -39.733484   1.000000
     75        -39.733340   1.000000
     76        -39.731413   1.000000
     77        -39.730127   1.000000
     78        -39.729834   1.000000
     79        -39.727408   1.000000
     80        -39.726928   1.000000
     81        -39.726553   1.000000
     82        -39.724481   1.000000
     83        -39.724155   1.000000
     84        -39.723523   1.000000
     85        -39.723447   1.000000
     86        -39.723059   1.000000
     87        -39.722857   1.000000
     88        -39.721752   1.000000
     89        -39.720546   1.000000
     90        -39.719828   1.000000
     91        -39.716061   1.000000
     92        -39.715687   1.000000
     93        -39.714630   1.000000
     94        -39.714429   1.000000
     95        -39.713788   1.000000
     96        -39.712973   1.000000
     97        -18.380233   1.000000
     98        -18.335780   1.000000
     99        -18.315565   1.000000
    100        -18.311115   1.000000
    101        -18.303835   1.000000
    102        -18.300331   1.000000
    103        -18.297583   1.000000
    104        -18.296635   1.000000
    105        -18.292920   1.000000
    106        -18.285936   1.000000
    107        -18.281872   1.000000
    108        -18.275003   1.000000
    109        -18.264220   1.000000
    110        -18.262227   1.000000
    111        -18.259680   1.000000
    112        -18.255524   1.000000
    113        -18.250177   1.000000
    114        -18.244277   1.000000
    115        -18.238867   1.000000
    116        -18.236557   1.000000
    117        -18.226944   1.000000
    118        -18.222534   1.000000
    119        -18.219921   1.000000
    120        -18.218737   1.000000
    121        -18.214195   1.000000
    122        -18.212040   1.000000
    123        -18.211233   1.000000
    124        -18.206315   1.000000
    125        -18.205701   1.000000
    126        -18.204552   1.000000
    127        -18.203957   1.000000
    128        -18.202552   1.000000
    129        -18.202168   1.000000
    130        -18.200229   1.000000
    131        -18.199766   1.000000
    132        -18.198422   1.000000
    133        -18.197870   1.000000
    134        -18.186320   1.000000
    135        -18.182322   1.000000
    136        -18.180756   1.000000
    137        -18.176369   1.000000
    138        -18.172106   1.000000
    139        -18.170981   1.000000
    140        -18.168475   1.000000
    141        -18.168217   1.000000
    142        -18.164018   1.000000
    143        -18.160549   1.000000
    144        -18.156899   1.000000
    145        -18.155184   1.000000
    146        -18.147173   1.000000
    147        -18.139992   1.000000
    148        -18.139871   1.000000
    149        -18.136817   1.000000
    150        -18.136108   1.000000
    151        -18.131032   1.000000
    152        -18.130127   1.000000
    153        -18.122560   1.000000
    154        -18.119467   1.000000
    155        -18.118892   1.000000
    156        -18.113844   1.000000
    157        -18.111635   1.000000
    158        -18.095732   1.000000
    159        -18.093020   1.000000
    160        -18.086042   1.000000
    161        -18.082008   1.000000
    162        -18.081247   1.000000
    163        -18.078416   1.000000
    164        -18.077110   1.000000
    165        -18.074927   1.000000
    166        -18.074795   1.000000
    167        -18.067716   1.000000
    168        -18.065615   1.000000
    169        -18.060812   1.000000
    170        -18.060181   1.000000
    171        -18.053541   1.000000
    172        -18.053343   1.000000
    173        -18.052445   1.000000
    174        -18.027142   1.000000
    175        -18.001605   1.000000
    176        -17.993820   1.000000
    177        -17.984580   1.000000
    178        -17.984515   1.000000
    179        -17.973131   1.000000
    180        -17.962412   1.000000
    181        -17.959400   1.000000
    182        -17.956228   1.000000
    183        -17.955738   1.000000
    184        -17.951516   1.000000
    185        -17.951466   1.000000
    186        -17.946514   1.000000
    187        -17.945572   1.000000
    188        -17.942105   1.000000
    189        -17.942061   1.000000
    190        -17.938625   1.000000
    191        -17.935127   1.000000
    192        -17.934306   1.000000
    193        -17.931473   1.000000
    194        -17.930909   1.000000
    195        -17.917910   1.000000
    196        -17.915593   1.000000
    197        -17.905441   1.000000
    198        -17.900916   1.000000
    199        -17.897160   1.000000
    200        -17.886848   1.000000
    201        -17.883104   1.000000
    202        -17.878099   1.000000
    203        -17.877739   1.000000
    204        -17.872517   1.000000
    205        -17.869670   1.000000
    206        -17.863886   1.000000
    207        -17.863367   1.000000
    208        -17.861569   1.000000
    209        -17.860027   1.000000
    210        -17.859986   1.000000
    211        -17.857191   1.000000
    212        -17.856874   1.000000
    213        -17.853714   1.000000
    214        -17.852437   1.000000
    215        -17.842024   1.000000
    216        -17.838439   1.000000
    217        -17.834303   1.000000
    218        -17.833005   1.000000
    219        -17.829964   1.000000
    220        -17.826227   1.000000
    221        -17.823980   1.000000
    222        -17.822287   1.000000
    223        -17.810448   1.000000
    224        -17.809414   1.000000
    225        -17.804119   1.000000
    226        -17.801441   1.000000
    227        -17.797178   1.000000
    228        -17.796112   1.000000
    229        -17.795858   1.000000
    230        -17.795152   1.000000
    231        -17.790161   1.000000
    232        -17.788649   1.000000
    233        -17.782537   1.000000
    234        -17.781718   1.000000
    235        -17.773171   1.000000
    236        -17.770488   1.000000
    237        -17.768117   1.000000
    238        -17.766642   1.000000
    239        -17.764219   1.000000
    240        -17.764002   1.000000
    241        -17.760980   1.000000
    242        -17.752508   1.000000
    243        -17.751045   1.000000
    244        -17.748343   1.000000
    245        -17.748340   1.000000
    246        -17.744436   1.000000
    247        -17.743555   1.000000
    248        -17.739513   1.000000
    249        -17.738707   1.000000
    250        -17.732748   1.000000
    251        -17.732266   1.000000
    252        -17.728489   1.000000
    253        -17.726605   1.000000
    254        -17.724793   1.000000
    255        -17.717796   1.000000
    256        -17.712954   1.000000
    257        -17.708322   1.000000
    258        -17.704706   1.000000
    259        -17.703760   1.000000
    260        -17.697880   1.000000
    261        -17.694756   1.000000
    262        -17.690443   1.000000
    263        -17.690165   1.000000
    264        -17.686061   1.000000
    265        -17.683972   1.000000
    266        -17.683231   1.000000
    267        -17.682267   1.000000
    268        -17.680838   1.000000
    269        -17.678353   1.000000
    270        -17.677793   1.000000
    271        -17.674442   1.000000
    272        -17.671986   1.000000
    273        -17.671694   1.000000
    274        -17.670593   1.000000
    275        -17.669819   1.000000
    276        -17.664566   1.000000
    277        -17.662371   1.000000
    278        -17.661397   1.000000
    279        -17.661000   1.000000
    280        -17.652143   1.000000
    281        -17.652082   1.000000
    282        -17.651291   1.000000
    283        -17.649072   1.000000
    284        -17.648829   1.000000
    285        -17.647432   1.000000
    286        -17.644850   1.000000
    287        -17.642418   1.000000
    288        -17.641731   1.000000
    289        -17.641659   1.000000
    290        -17.638242   1.000000
    291        -17.635707   1.000000
    292        -17.634596   1.000000
    293        -17.634154   1.000000
    294        -17.633203   1.000000
    295        -17.632989   1.000000
    296        -17.630945   1.000000
    297        -17.630902   1.000000
    298        -17.629706   1.000000
    299        -17.628499   1.000000
    300        -17.627328   1.000000
    301        -17.625570   1.000000
    302        -17.622852   1.000000
    303        -17.621161   1.000000
    304        -17.620488   1.000000
    305        -17.619037   1.000000
    306        -17.618481   1.000000
    307        -17.617836   1.000000
    308        -17.617287   1.000000
    309        -17.616874   1.000000
    310        -17.616268   1.000000
    311        -17.616001   1.000000
    312        -17.607973   1.000000
    313        -17.606604   1.000000
    314        -17.605157   1.000000
    315        -17.604860   1.000000
    316        -17.603639   1.000000
    317        -17.598018   1.000000
    318        -17.597315   1.000000
    319        -17.596256   1.000000
    320        -17.594656   1.000000
    321        -17.594212   1.000000
    322        -17.592198   1.000000
    323        -17.588094   1.000000
    324        -17.583131   1.000000
    325        -17.583037   1.000000
    326        -17.582745   1.000000
    327        -17.581748   1.000000
    328        -17.579624   1.000000
    329        -17.579183   1.000000
    330        -17.578621   1.000000
    331        -17.578483   1.000000
    332        -17.575540   1.000000
    333        -17.570885   1.000000
    334        -17.570594   1.000000
    335        -17.569363   1.000000
    336        -17.567474   1.000000
    337        -17.566987   1.000000
    338        -17.566260   1.000000
    339        -17.563920   1.000000
    340        -17.562403   1.000000
    341        -17.562344   1.000000
    342        -17.561325   1.000000
    343        -17.560074   1.000000
    344        -17.554355   1.000000
    345        -17.553660   1.000000
    346        -17.551341   1.000000
    347        -17.549227   1.000000
    348        -17.549042   1.000000
    349        -17.548012   1.000000
    350        -17.546949   1.000000
    351        -17.546526   1.000000
    352        -17.544047   1.000000
    353        -17.542091   1.000000
    354        -17.537024   1.000000
    355        -17.536275   1.000000
    356        -17.530317   1.000000
    357        -17.522950   1.000000
    358        -17.522460   1.000000
    359        -17.518406   1.000000
    360        -17.517559   1.000000
    361        -17.514707   1.000000
    362        -17.514157   1.000000
    363        -17.512325   1.000000
    364        -17.506794   1.000000
    365        -17.503152   1.000000
    366        -17.502591   1.000000
    367        -17.500883   1.000000
    368        -17.499146   1.000000
    369        -17.497678   1.000000
    370        -17.496250   1.000000
    371        -17.494271   1.000000
    372        -17.489917   1.000000
    373        -17.489610   1.000000
    374        -17.482131   1.000000
    375        -17.481932   1.000000
    376        -17.478185   1.000000
    377        -17.476565   1.000000
    378        -17.475225   1.000000
    379        -17.469713   1.000000
    380        -17.454284   1.000000
    381        -17.448344   1.000000
    382        -17.439364   1.000000
    383        -17.436226   1.000000
    384        -17.426580   1.000000
    385          2.448120   1.000000
    386          3.563711   1.000000
    387          3.858712   1.000000
    388          4.328203   1.000000
    389          4.568482   1.000000
    390          4.652821   1.000000
    391          4.701752   1.000000
    392          4.822321   1.000000
    393          4.877228   1.000000
    394          4.949545   1.000000
    395          5.251647   1.000000
    396          5.279733   1.000000
    397          5.364479   1.000000
    398          5.404469   1.000000
    399          5.423960   1.000000
    400          5.454888   1.000000
    401          5.507247   1.000000
    402          5.585859   1.000000
    403          5.690906   1.000000
    404          5.729416   1.000000
    405          5.961818   1.000000
    406          5.970030   1.000000
    407          5.983237   1.000000
    408          5.989464   1.000000
    409          6.002241   1.000000
    410          6.012328   1.000000
    411          6.017568   1.000000
    412          6.031001   1.000000
    413          6.041217   1.000000
    414          6.061065   1.000000
    415          6.075802   1.000000
    416          6.098610   1.000000
    417          6.145596   1.000000
    418          6.202911   1.000000
    419          6.217459   1.000000
    420          6.235296   1.000000
    421          6.250684   1.000000
    422          6.264915   1.000000
    423          6.289272   1.000000
    424          6.294540   1.000000
    425          6.308657   1.000000
    426          6.318155   1.000000
    427          6.328087   1.000000
    428          6.346408   1.000000
    429          6.375951   1.000000
    430          6.391375   1.000000
    431          6.434893   1.000000
    432          6.516218   1.000000
    433          6.523141   1.000000
    434          6.523743   1.000000
    435          6.528453   1.000000
    436          6.533758   1.000000
    437          6.536352   1.000000
    438          6.540952   1.000000
    439          6.559629   1.000000
    440          6.584484   1.000000
    441          6.585508   1.000000
    442          6.588697   1.000000
    443          6.610957   1.000000
    444          6.646156   1.000000
    445          6.658677   1.000000
    446          6.676258   1.000000
    447          6.697285   1.000000
    448          6.703083   1.000000
    449          6.752053   1.000000
    450          6.770730   1.000000
    451          6.787535   1.000000
    452          6.856476   1.000000
    453          6.864878   1.000000
    454          6.888576   1.000000
    455          6.890298   1.000000
    456          6.923338   1.000000
    457          6.923741   1.000000
    458          6.926786   1.000000
    459          6.929429   1.000000
    460          6.929619   1.000000
    461          6.933097   1.000000
    462          6.934548   1.000000
    463          7.004997   1.000000
    464          7.054446   1.000000
    465          7.057741   1.000000
    466          7.063368   1.000000
    467          7.072285   1.000000
    468          7.074043   1.000000
    469          7.078763   1.000000
    470          7.080663   1.000000
    471          7.122154   1.000000
    472          7.134724   1.000000
    473          7.136783   1.000000
    474          7.165675   1.000000
    475          7.171634   1.000000
    476          7.178623   1.000000
    477          7.181952   1.000000
    478          7.185261   1.000000
    479          7.190648   1.000000
    480          7.220689   1.000000
    481          7.257334   1.000000
    482          7.260977   1.000000
    483          7.263906   1.000000
    484          7.290210   1.000000
    485          7.296509   1.000000
    486          7.367432   1.000000
    487          7.436918   1.000000
    488          7.449841   1.000000
    489          7.463166   1.000000
    490          7.477722   1.000000
    491          7.484256   1.000000
    492          7.509949   1.000000
    493          7.523033   1.000000
    494          7.529321   1.000000
    495          7.545063   1.000000
    496          7.557755   1.000000
    497          7.590465   1.000000
    498          7.603702   1.000000
    499          7.612144   1.000000
    500          7.616323   1.000000
    501          7.648511   1.000000
    502          7.660754   1.000000
    503          7.665362   1.000000
    504          7.671428   1.000000
    505          7.716787   1.000000
    506          7.807621   1.000000
    507          7.823349   1.000000
    508          7.834135   1.000000
    509          7.874690   1.000000
    510          7.877926   1.000000
    511          7.888492   1.000000
    512          7.889724   1.000000
    513          7.912743   1.000000
    514          7.920273   1.000000
    515          7.943816   1.000000
    516          7.948125   1.000000
    517          7.960511   1.000000
    518          7.969307   1.000000
    519          7.983897   1.000000
    520          8.002536   1.000000
    521          8.014298   1.000000
    522          8.020182   1.000000
    523          8.032417   1.000000
    524          8.039472   1.000000
    525          8.042115   1.000000
    526          8.043442   1.000000
    527          8.050540   1.000000
    528          8.057677   1.000000
    529          8.058001   1.000000
    530          8.063984   1.000000
    531          8.082304   1.000000
    532          8.093360   1.000000
    533          8.093513   1.000000
    534          8.099905   1.000000
    535          8.132794   1.000000
    536          8.143330   1.000000
    537          8.144138   1.000000
    538          8.146484   1.000000
    539          8.154301   1.000000
    540          8.157301   1.000000
    541          8.177519   1.000000
    542          8.212628   1.000001
    543          8.246411   1.000003
    544          8.272880   1.000008
    545          8.280712   1.000010
    546          8.302026   1.000019
    547          8.322928   1.000036
    548          8.329714   1.000044
    549          8.335881   1.000052
    550          8.349876   1.000078
    551          8.351676   1.000082
    552          8.363035   1.000113
    553          8.386858   1.000215
    554          8.398438   1.000290
    555          8.412685   1.000416
    556          8.420561   1.000505
    557          8.430207   1.000637
    558          8.434166   1.000699
    559          8.437223   1.000752
    560          8.440577   1.000813
    561          8.441424   1.000829
    562          8.445857   1.000918
    563          8.449125   1.000989
    564          8.459776   1.001256
    565          8.487159   1.002252
    566          8.543598   1.006497
    567          8.543877   1.006528
    568          8.557978   1.008238
    569          8.687169   1.033584
    570          8.730885   1.033751
    571          8.765523   1.019530
    572          8.771699   1.015036
    573          8.792856   0.994098
    574          8.881272   0.793436
    575          8.915951   0.666200
    576          8.930326   0.608117
    577          8.938951   0.572326
    578          8.965410   0.460709
    579          8.988002   0.366951
    580          9.003739   0.304676
    581          9.048498   0.151525
    582          9.053199   0.138009
    583          9.062644   0.112498
    584          9.067043   0.101377
    585          9.100544   0.032630
    586          9.107039   0.022487
    587          9.138128  -0.013103
    588          9.152632  -0.023225
    589          9.163255  -0.028447
    590          9.171394  -0.031347
    591          9.179523  -0.033398
    592          9.181330  -0.033749
    593          9.183421  -0.034110
    594          9.193008  -0.035194
    595          9.195087  -0.035315
    596          9.196707  -0.035383
    597          9.200528  -0.035457
    598          9.202027  -0.035454
    599          9.206381  -0.035353
    600          9.206730  -0.035339
    601          9.214851  -0.034792
    602          9.232085  -0.032483
    603          9.238005  -0.031421
    604          9.240353  -0.030972
    605          9.249427  -0.029113
    606          9.308480  -0.015941
    607          9.356347  -0.007964
    608          9.387869  -0.004630
    609          9.401867  -0.003566
    610          9.408102  -0.003162
    611          9.410691  -0.003006
    612          9.434700  -0.001843
    613          9.452623  -0.001251
    614          9.458898  -0.001088
    615          9.468236  -0.000879
    616          9.473933  -0.000771
    617          9.475384  -0.000745
    618          9.482344  -0.000632
    619          9.485469  -0.000586
    620          9.490737  -0.000516
    621          9.496478  -0.000448
    622          9.498148  -0.000430
    623          9.499994  -0.000411
    624          9.503173  -0.000380
    625          9.506785  -0.000347
    626          9.544921  -0.000127
    627          9.564395  -0.000074
    628          9.571527  -0.000060
    629          9.597378  -0.000028
    630          9.600878  -0.000025
    631          9.608681  -0.000020
    632          9.617795  -0.000015
    633          9.621794  -0.000013
    634          9.631505  -0.000010
    635          9.632006  -0.000010
    636          9.643268  -0.000007
    637          9.660485  -0.000004
    638          9.670641  -0.000003
    639          9.683625  -0.000002
    640          9.693612  -0.000001
    641          9.737226  -0.000000
    642          9.744639  -0.000000
    643          9.784351  -0.000000
    644          9.796427  -0.000000
    645          9.842123  -0.000000
    646          9.866328  -0.000000
    647          9.872983  -0.000000
    648          9.878321  -0.000000
    649          9.878963  -0.000000
    650          9.897722  -0.000000
    651          9.902949  -0.000000
    652          9.926229  -0.000000
    653          9.926311  -0.000000
    654          9.932876  -0.000000
    655          9.939081  -0.000000
    656          9.947394  -0.000000
    657          9.961297  -0.000000
    658          9.971783  -0.000000
    659          9.980962  -0.000000
    660          9.981533  -0.000000
    661          9.998297  -0.000000
    662         10.005573  -0.000000
    663         10.008326  -0.000000
    664         10.011687  -0.000000
    665         10.014427  -0.000000
    666         10.020550  -0.000000
    667         10.027410  -0.000000
    668         10.028281  -0.000000
    669         10.035599  -0.000000
    670         10.103531  -0.000000
    671         10.107454  -0.000000
    672         10.108099  -0.000000
    673         10.122946  -0.000000
    674         10.164414  -0.000000
    675         10.166786  -0.000000
    676         10.199667  -0.000000
    677         10.203139  -0.000000
    678         10.220820  -0.000000
    679         10.222374  -0.000000
    680         10.229676  -0.000000
    681         10.251067  -0.000000
    682         10.255502  -0.000000
    683         10.256077  -0.000000
    684         10.270855  -0.000000
    685         10.273727  -0.000000
    686         10.274706  -0.000000
    687         10.277916  -0.000000
    688         10.297289  -0.000000
    689         10.299941  -0.000000
    690         10.307228  -0.000000
    691         10.311185  -0.000000
    692         10.318366  -0.000000
 
 -0.1345275E-16 -0.2500000E+00  0.3333333E+00  0.4166667E-01
      1        -39.902210   1.000000
      2        -39.886122   1.000000
      3        -39.870225   1.000000
      4        -39.858074   1.000000
      5        -39.856898   1.000000
      6        -39.852265   1.000000
      7        -39.844751   1.000000
      8        -39.842321   1.000000
      9        -39.842126   1.000000
     10        -39.836380   1.000000
     11        -39.829768   1.000000
     12        -39.826485   1.000000
     13        -39.823087   1.000000
     14        -39.818881   1.000000
     15        -39.814890   1.000000
     16        -39.814580   1.000000
     17        -39.809768   1.000000
     18        -39.809241   1.000000
     19        -39.807553   1.000000
     20        -39.803649   1.000000
     21        -39.799379   1.000000
     22        -39.795616   1.000000
     23        -39.791560   1.000000
     24        -39.788117   1.000000
     25        -39.787245   1.000000
     26        -39.784642   1.000000
     27        -39.784381   1.000000
     28        -39.781650   1.000000
     29        -39.780962   1.000000
     30        -39.778345   1.000000
     31        -39.776158   1.000000
     32        -39.775534   1.000000
     33        -39.774342   1.000000
     34        -39.771323   1.000000
     35        -39.769304   1.000000
     36        -39.768360   1.000000
     37        -39.767340   1.000000
     38        -39.766765   1.000000
     39        -39.766037   1.000000
     40        -39.765561   1.000000
     41        -39.764937   1.000000
     42        -39.763133   1.000000
     43        -39.762756   1.000000
     44        -39.761503   1.000000
     45        -39.759835   1.000000
     46        -39.759273   1.000000
     47        -39.758046   1.000000
     48        -39.755362   1.000000
     49        -39.754653   1.000000
     50        -39.753954   1.000000
     51        -39.752210   1.000000
     52        -39.752072   1.000000
     53        -39.750673   1.000000
     54        -39.750380   1.000000
     55        -39.749075   1.000000
     56        -39.748816   1.000000
     57        -39.748123   1.000000
     58        -39.747801   1.000000
     59        -39.746988   1.000000
     60        -39.746373   1.000000
     61        -39.744728   1.000000
     62        -39.743650   1.000000
     63        -39.742760   1.000000
     64        -39.742331   1.000000
     65        -39.740542   1.000000
     66        -39.739832   1.000000
     67        -39.739484   1.000000
     68        -39.738388   1.000000
     69        -39.737458   1.000000
     70        -39.737373   1.000000
     71        -39.735505   1.000000
     72        -39.734446   1.000000
     73        -39.734078   1.000000
     74        -39.732994   1.000000
     75        -39.732821   1.000000
     76        -39.731811   1.000000
     77        -39.731432   1.000000
     78        -39.729632   1.000000
     79        -39.727495   1.000000
     80        -39.727367   1.000000
     81        -39.726317   1.000000
     82        -39.724378   1.000000
     83        -39.724154   1.000000
     84        -39.723741   1.000000
     85        -39.723548   1.000000
     86        -39.722878   1.000000
     87        -39.722711   1.000000
     88        -39.721968   1.000000
     89        -39.720246   1.000000
     90        -39.719852   1.000000
     91        -39.716021   1.000000
     92        -39.715797   1.000000
     93        -39.714747   1.000000
     94        -39.714185   1.000000
     95        -39.713922   1.000000
     96        -39.712937   1.000000
     97        -18.380229   1.000000
     98        -18.335794   1.000000
     99        -18.315244   1.000000
    100        -18.311003   1.000000
    101        -18.304357   1.000000
    102        -18.300393   1.000000
    103        -18.297522   1.000000
    104        -18.296862   1.000000
    105        -18.292458   1.000000
    106        -18.285951   1.000000
    107        -18.282194   1.000000
    108        -18.274885   1.000000
    109        -18.264322   1.000000
    110        -18.261727   1.000000
    111        -18.259699   1.000000
    112        -18.255846   1.000000
    113        -18.249908   1.000000
    114        -18.244863   1.000000
    115        -18.238966   1.000000
    116        -18.236875   1.000000
    117        -18.227552   1.000000
    118        -18.221967   1.000000
    119        -18.219503   1.000000
    120        -18.218589   1.000000
    121        -18.213720   1.000000
    122        -18.211644   1.000000
    123        -18.210280   1.000000
    124        -18.206305   1.000000
    125        -18.205682   1.000000
    126        -18.204957   1.000000
    127        -18.204059   1.000000
    128        -18.202493   1.000000
    129        -18.202417   1.000000
    130        -18.199964   1.000000
    131        -18.199827   1.000000
    132        -18.198595   1.000000
    133        -18.197389   1.000000
    134        -18.185294   1.000000
    135        -18.182700   1.000000
    136        -18.181024   1.000000
    137        -18.176508   1.000000
    138        -18.172085   1.000000
    139        -18.171045   1.000000
    140        -18.169463   1.000000
    141        -18.169128   1.000000
    142        -18.164403   1.000000
    143        -18.161557   1.000000
    144        -18.156711   1.000000
    145        -18.154897   1.000000
    146        -18.147485   1.000000
    147        -18.140038   1.000000
    148        -18.138946   1.000000
    149        -18.137689   1.000000
    150        -18.136898   1.000000
    151        -18.130013   1.000000
    152        -18.129603   1.000000
    153        -18.123017   1.000000
    154        -18.118846   1.000000
    155        -18.118095   1.000000
    156        -18.114525   1.000000
    157        -18.113192   1.000000
    158        -18.095845   1.000000
    159        -18.093508   1.000000
    160        -18.085197   1.000000
    161        -18.081223   1.000000
    162        -18.081161   1.000000
    163        -18.076528   1.000000
    164        -18.075425   1.000000
    165        -18.075353   1.000000
    166        -18.074725   1.000000
    167        -18.065454   1.000000
    168        -18.063974   1.000000
    169        -18.061690   1.000000
    170        -18.060707   1.000000
    171        -18.055634   1.000000
    172        -18.055340   1.000000
    173        -18.052703   1.000000
    174        -18.027144   1.000000
    175        -18.004042   1.000000
    176        -17.990696   1.000000
    177        -17.985073   1.000000
    178        -17.984817   1.000000
    179        -17.974421   1.000000
    180        -17.962527   1.000000
    181        -17.960554   1.000000
    182        -17.956166   1.000000
    183        -17.954122   1.000000
    184        -17.951386   1.000000
    185        -17.949997   1.000000
    186        -17.946251   1.000000
    187        -17.945509   1.000000
    188        -17.944002   1.000000
    189        -17.943016   1.000000
    190        -17.939202   1.000000
    191        -17.936560   1.000000
    192        -17.936442   1.000000
    193        -17.929109   1.000000
    194        -17.928371   1.000000
    195        -17.917469   1.000000
    196        -17.915094   1.000000
    197        -17.905387   1.000000
    198        -17.897869   1.000000
    199        -17.894963   1.000000
    200        -17.889241   1.000000
    201        -17.883671   1.000000
    202        -17.879766   1.000000
    203        -17.877657   1.000000
    204        -17.873028   1.000000
    205        -17.869843   1.000000
    206        -17.865983   1.000000
    207        -17.863724   1.000000
    208        -17.862050   1.000000
    209        -17.861777   1.000000
    210        -17.859602   1.000000
    211        -17.857502   1.000000
    212        -17.856548   1.000000
    213        -17.853566   1.000000
    214        -17.852566   1.000000
    215        -17.842304   1.000000
    216        -17.837330   1.000000
    217        -17.833770   1.000000
    218        -17.833198   1.000000
    219        -17.829056   1.000000
    220        -17.827156   1.000000
    221        -17.821435   1.000000
    222        -17.819663   1.000000
    223        -17.810356   1.000000
    224        -17.808247   1.000000
    225        -17.803851   1.000000
    226        -17.801757   1.000000
    227        -17.798180   1.000000
    228        -17.796809   1.000000
    229        -17.794879   1.000000
    230        -17.793978   1.000000
    231        -17.789893   1.000000
    232        -17.786927   1.000000
    233        -17.783118   1.000000
    234        -17.782188   1.000000
    235        -17.775552   1.000000
    236        -17.772623   1.000000
    237        -17.769869   1.000000
    238        -17.767806   1.000000
    239        -17.764162   1.000000
    240        -17.762733   1.000000
    241        -17.761848   1.000000
    242        -17.754223   1.000000
    243        -17.751634   1.000000
    244        -17.748636   1.000000
    245        -17.746935   1.000000
    246        -17.743109   1.000000
    247        -17.742713   1.000000
    248        -17.740551   1.000000
    249        -17.737771   1.000000
    250        -17.733182   1.000000
    251        -17.731740   1.000000
    252        -17.728974   1.000000
    253        -17.727203   1.000000
    254        -17.726373   1.000000
    255        -17.713318   1.000000
    256        -17.711176   1.000000
    257        -17.708846   1.000000
    258        -17.705926   1.000000
    259        -17.703560   1.000000
    260        -17.698164   1.000000
    261        -17.693495   1.000000
    262        -17.690612   1.000000
    263        -17.690451   1.000000
    264        -17.686194   1.000000
    265        -17.685089   1.000000
    266        -17.683458   1.000000
    267        -17.682949   1.000000
    268        -17.681203   1.000000
    269        -17.679307   1.000000
    270        -17.677959   1.000000
    271        -17.675077   1.000000
    272        -17.672554   1.000000
    273        -17.672304   1.000000
    274        -17.670050   1.000000
    275        -17.669181   1.000000
    276        -17.662979   1.000000
    277        -17.662458   1.000000
    278        -17.662276   1.000000
    279        -17.660446   1.000000
    280        -17.652044   1.000000
    281        -17.650863   1.000000
    282        -17.650393   1.000000
    283        -17.648746   1.000000
    284        -17.648254   1.000000
    285        -17.646130   1.000000
    286        -17.643050   1.000000
    287        -17.642908   1.000000
    288        -17.641884   1.000000
    289        -17.641503   1.000000
    290        -17.638913   1.000000
    291        -17.636813   1.000000
    292        -17.635411   1.000000
    293        -17.634068   1.000000
    294        -17.632625   1.000000
    295        -17.632499   1.000000
    296        -17.631956   1.000000
    297        -17.631294   1.000000
    298        -17.628436   1.000000
    299        -17.627812   1.000000
    300        -17.626546   1.000000
    301        -17.624734   1.000000
    302        -17.622881   1.000000
    303        -17.622612   1.000000
    304        -17.620580   1.000000
    305        -17.620195   1.000000
    306        -17.619129   1.000000
    307        -17.618570   1.000000
    308        -17.617706   1.000000
    309        -17.617330   1.000000
    310        -17.616581   1.000000
    311        -17.615443   1.000000
    312        -17.608102   1.000000
    313        -17.607056   1.000000
    314        -17.605434   1.000000
    315        -17.604774   1.000000
    316        -17.604048   1.000000
    317        -17.598623   1.000000
    318        -17.598034   1.000000
    319        -17.595681   1.000000
    320        -17.595102   1.000000
    321        -17.594886   1.000000
    322        -17.592511   1.000000
    323        -17.586123   1.000000
    324        -17.582959   1.000000
    325        -17.582874   1.000000
    326        -17.582395   1.000000
    327        -17.581875   1.000000
    328        -17.579621   1.000000
    329        -17.579559   1.000000
    330        -17.578391   1.000000
    331        -17.578343   1.000000
    332        -17.574091   1.000000
    333        -17.571105   1.000000
    334        -17.570683   1.000000
    335        -17.567828   1.000000
    336        -17.567322   1.000000
    337        -17.567208   1.000000
    338        -17.566701   1.000000
    339        -17.563678   1.000000
    340        -17.562912   1.000000
    341        -17.562814   1.000000
    342        -17.561037   1.000000
    343        -17.560343   1.000000
    344        -17.555133   1.000000
    345        -17.554668   1.000000
    346        -17.550257   1.000000
    347        -17.550137   1.000000
    348        -17.549579   1.000000
    349        -17.548784   1.000000
    350        -17.546378   1.000000
    351        -17.546291   1.000000
    352        -17.543602   1.000000
    353        -17.541901   1.000000
    354        -17.536704   1.000000
    355        -17.536164   1.000000
    356        -17.529595   1.000000
    357        -17.522953   1.000000
    358        -17.522665   1.000000
    359        -17.518825   1.000000
    360        -17.517872   1.000000
    361        -17.514133   1.000000
    362        -17.513492   1.000000
    363        -17.512574   1.000000
    364        -17.507044   1.000000
    365        -17.504603   1.000000
    366        -17.501411   1.000000
    367        -17.500405   1.000000
    368        -17.498821   1.000000
    369        -17.498260   1.000000
    370        -17.496289   1.000000
    371        -17.493970   1.000000
    372        -17.490371   1.000000
    373        -17.490212   1.000000
    374        -17.482416   1.000000
    375        -17.481735   1.000000
    376        -17.478203   1.000000
    377        -17.475765   1.000000
    378        -17.475605   1.000000
    379        -17.468933   1.000000
    380        -17.454815   1.000000
    381        -17.448366   1.000000
    382        -17.439216   1.000000
    383        -17.436250   1.000000
    384        -17.426637   1.000000
    385          2.448119   1.000000
    386          3.563686   1.000000
    387          3.858722   1.000000
    388          4.328788   1.000000
    389          4.567854   1.000000
    390          4.652622   1.000000
    391          4.700577   1.000000
    392          4.822343   1.000000
    393          4.877776   1.000000
    394          4.950769   1.000000
    395          5.252404   1.000000
    396          5.280795   1.000000
    397          5.364267   1.000000
    398          5.403267   1.000000
    399          5.422483   1.000000
    400          5.454796   1.000000
    401          5.507139   1.000000
    402          5.588363   1.000000
    403          5.690623   1.000000
    404          5.726936   1.000000
    405          5.960723   1.000000
    406          5.969442   1.000000
    407          5.982930   1.000000
    408          5.990795   1.000000
    409          6.003093   1.000000
    410          6.012646   1.000000
    411          6.017220   1.000000
    412          6.031866   1.000000
    413          6.042402   1.000000
    414          6.060223   1.000000
    415          6.074449   1.000000
    416          6.098688   1.000000
    417          6.146723   1.000000
    418          6.202688   1.000000
    419          6.218247   1.000000
    420          6.235718   1.000000
    421          6.249563   1.000000
    422          6.265511   1.000000
    423          6.290417   1.000000
    424          6.292374   1.000000
    425          6.307994   1.000000
    426          6.318636   1.000000
    427          6.329526   1.000000
    428          6.346032   1.000000
    429          6.378223   1.000000
    430          6.391570   1.000000
    431          6.431194   1.000000
    432          6.516140   1.000000
    433          6.520608   1.000000
    434          6.523406   1.000000
    435          6.526486   1.000000
    436          6.532123   1.000000
    437          6.534803   1.000000
    438          6.540330   1.000000
    439          6.567805   1.000000
    440          6.583800   1.000000
    441          6.587396   1.000000
    442          6.592581   1.000000
    443          6.611190   1.000000
    444          6.649676   1.000000
    445          6.657048   1.000000
    446          6.675329   1.000000
    447          6.697608   1.000000
    448          6.704583   1.000000
    449          6.742329   1.000000
    450          6.768047   1.000000
    451          6.794254   1.000000
    452          6.857399   1.000000
    453          6.861385   1.000000
    454          6.888273   1.000000
    455          6.892544   1.000000
    456          6.922854   1.000000
    457          6.924553   1.000000
    458          6.928204   1.000000
    459          6.929962   1.000000
    460          6.930347   1.000000
    461          6.932059   1.000000
    462          6.933342   1.000000
    463          7.002928   1.000000
    464          7.054703   1.000000
    465          7.060014   1.000000
    466          7.064940   1.000000
    467          7.071427   1.000000
    468          7.073168   1.000000
    469          7.074854   1.000000
    470          7.076989   1.000000
    471          7.117354   1.000000
    472          7.134997   1.000000
    473          7.155079   1.000000
    474          7.163919   1.000000
    475          7.166420   1.000000
    476          7.180323   1.000000
    477          7.183603   1.000000
    478          7.185398   1.000000
    479          7.191485   1.000000
    480          7.214458   1.000000
    481          7.256130   1.000000
    482          7.262459   1.000000
    483          7.263483   1.000000
    484          7.283167   1.000000
    485          7.297377   1.000000
    486          7.376652   1.000000
    487          7.439682   1.000000
    488          7.448416   1.000000
    489          7.461916   1.000000
    490          7.472486   1.000000
    491          7.501551   1.000000
    492          7.505334   1.000000
    493          7.523270   1.000000
    494          7.534951   1.000000
    495          7.548069   1.000000
    496          7.557029   1.000000
    497          7.573353   1.000000
    498          7.604879   1.000000
    499          7.610023   1.000000
    500          7.615807   1.000000
    501          7.628263   1.000000
    502          7.660881   1.000000
    503          7.669881   1.000000
    504          7.671295   1.000000
    505          7.737911   1.000000
    506          7.809809   1.000000
    507          7.822431   1.000000
    508          7.831691   1.000000
    509          7.875932   1.000000
    510          7.878064   1.000000
    511          7.887982   1.000000
    512          7.896515   1.000000
    513          7.912533   1.000000
    514          7.927441   1.000000
    515          7.942374   1.000000
    516          7.944401   1.000000
    517          7.953180   1.000000
    518          7.967617   1.000000
    519          7.977390   1.000000
    520          8.000821   1.000000
    521          8.010958   1.000000
    522          8.028961   1.000000
    523          8.036831   1.000000
    524          8.039659   1.000000
    525          8.042683   1.000000
    526          8.043958   1.000000
    527          8.050863   1.000000
    528          8.054601   1.000000
    529          8.055898   1.000000
    530          8.064619   1.000000
    531          8.081511   1.000000
    532          8.093007   1.000000
    533          8.095055   1.000000
    534          8.101058   1.000000
    535          8.124887   1.000000
    536          8.142123   1.000000
    537          8.143890   1.000000
    538          8.149789   1.000000
    539          8.154100   1.000000
    540          8.157062   1.000000
    541          8.178153   1.000000
    542          8.211588   1.000001
    543          8.242879   1.000003
    544          8.277244   1.000009
    545          8.280161   1.000010
    546          8.300675   1.000018
    547          8.323621   1.000037
    548          8.330900   1.000045
    549          8.334933   1.000051
    550          8.344947   1.000068
    551          8.353117   1.000086
    552          8.369435   1.000135
    553          8.377309   1.000167
    554          8.398430   1.000290
    555          8.410614   1.000395
    556          8.425054   1.000563
    557          8.428894   1.000617
    558          8.436869   1.000745
    559          8.438421   1.000773
    560          8.439989   1.000802
    561          8.441323   1.000827
    562          8.445920   1.000919
    563          8.450674   1.001025
    564          8.461372   1.001301
    565          8.489985   1.002386
    566          8.544055   1.006548
    567          8.545319   1.006689
    568          8.554642   1.007806
    569          8.684660   1.033213
    570          8.731870   1.033564
    571          8.769374   1.016808
    572          8.771353   1.015305
    573          8.792873   0.994078
    574          8.894970   0.745800
    575          8.911877   0.682199
    576          8.936579   0.582223
    577          8.937481   0.578461
    578          8.954423   0.507151
    579          8.987722   0.368086
    580          9.000200   0.318385
    581          9.032419   0.201703
    582          9.055360   0.131977
    583          9.069792   0.094672
    584          9.072971   0.087160
    585          9.105440   0.024892
    586          9.106249   0.023669
    587          9.139193  -0.013974
    588          9.153710  -0.023835
    589          9.155242  -0.024669
    590          9.170173  -0.030968
    591          9.179447  -0.033382
    592          9.182722  -0.033994
    593          9.185418  -0.034411
    594          9.193443  -0.035222
    595          9.193662  -0.035236
    596          9.197315  -0.035402
    597          9.199971  -0.035453
    598          9.200326  -0.035456
    599          9.206132  -0.035362
    600          9.207308  -0.035314
    601          9.211888  -0.035039
    602          9.230696  -0.032715
    603          9.238722  -0.031285
    604          9.251116  -0.028750
    605          9.252911  -0.028359
    606          9.305796  -0.016490
    607          9.345379  -0.009472
    608          9.393103  -0.004205
    609          9.393955  -0.004139
    610          9.409670  -0.003066
    611          9.411101  -0.002981
    612          9.433659  -0.001884
    613          9.453766  -0.001220
    614          9.454862  -0.001191
    615          9.469587  -0.000853
    616          9.474310  -0.000764
    617          9.476996  -0.000717
    618          9.482650  -0.000627
    619          9.482758  -0.000626
    620          9.487031  -0.000565
    621          9.496561  -0.000448
    622          9.497069  -0.000442
    623          9.499960  -0.000411
    624          9.503874  -0.000373
    625          9.511060  -0.000311
    626          9.552992  -0.000102
    627          9.565073  -0.000073
    628          9.569565  -0.000064
    629          9.596695  -0.000029
    630          9.604144  -0.000023
    631          9.608601  -0.000020
    632          9.616898  -0.000015
    633          9.621536  -0.000013
    634          9.630901  -0.000010
    635          9.641399  -0.000007
    636          9.644570  -0.000006
    637          9.662143  -0.000004
    638          9.672217  -0.000003
    639          9.681075  -0.000002
    640          9.688195  -0.000001
    641          9.737401  -0.000000
    642          9.744849  -0.000000
    643          9.779990  -0.000000
    644          9.796368  -0.000000
    645          9.842528  -0.000000
    646          9.867589  -0.000000
    647          9.872483  -0.000000
    648          9.881697  -0.000000
    649          9.882544  -0.000000
    650          9.900183  -0.000000
    651          9.906454  -0.000000
    652          9.911482  -0.000000
    653          9.923635  -0.000000
    654          9.929489  -0.000000
    655          9.946652  -0.000000
    656          9.951186  -0.000000
    657          9.963904  -0.000000
    658          9.968657  -0.000000
    659          9.983564  -0.000000
    660          9.985948  -0.000000
    661          9.992282  -0.000000
    662         10.004511  -0.000000
    663         10.007335  -0.000000
    664         10.014820  -0.000000
    665         10.015185  -0.000000
    666         10.021479  -0.000000
    667         10.022809  -0.000000
    668         10.024309  -0.000000
    669         10.035029  -0.000000
    670         10.093769  -0.000000
    671         10.108041  -0.000000
    672         10.112568  -0.000000
    673         10.123757  -0.000000
    674         10.164376  -0.000000
    675         10.165740  -0.000000
    676         10.198989  -0.000000
    677         10.209325  -0.000000
    678         10.223057  -0.000000
    679         10.224494  -0.000000
    680         10.227865  -0.000000
    681         10.250278  -0.000000
    682         10.256554  -0.000000
    683         10.257846  -0.000000
    684         10.269677  -0.000000
    685         10.271884  -0.000000
    686         10.274526  -0.000000
    687         10.280274  -0.000000
    688         10.291750  -0.000000
    689         10.299269  -0.000000
    690         10.307943  -0.000000
    691         10.312064  -0.000000
    692         10.316801  -0.000000
 
  0.2500000E+00 -0.2500000E+00  0.3333333E+00  0.4166667E-01
      1        -39.902213   1.000000
      2        -39.886078   1.000000
      3        -39.870583   1.000000
      4        -39.856881   1.000000
      5        -39.856411   1.000000
      6        -39.853165   1.000000
      7        -39.846262   1.000000
      8        -39.842372   1.000000
      9        -39.841872   1.000000
     10        -39.836137   1.000000
     11        -39.829005   1.000000
     12        -39.825657   1.000000
     13        -39.821186   1.000000
     14        -39.819621   1.000000
     15        -39.818737   1.000000
     16        -39.814058   1.000000
     17        -39.809759   1.000000
     18        -39.809628   1.000000
     19        -39.805514   1.000000
     20        -39.803726   1.000000
     21        -39.798513   1.000000
     22        -39.798151   1.000000
     23        -39.790454   1.000000
     24        -39.787299   1.000000
     25        -39.786460   1.000000
     26        -39.784453   1.000000
     27        -39.784326   1.000000
     28        -39.783127   1.000000
     29        -39.780776   1.000000
     30        -39.778885   1.000000
     31        -39.776635   1.000000
     32        -39.775736   1.000000
     33        -39.773737   1.000000
     34        -39.771522   1.000000
     35        -39.768954   1.000000
     36        -39.768457   1.000000
     37        -39.767415   1.000000
     38        -39.767264   1.000000
     39        -39.766091   1.000000
     40        -39.765030   1.000000
     41        -39.764965   1.000000
     42        -39.763052   1.000000
     43        -39.762565   1.000000
     44        -39.761134   1.000000
     45        -39.760123   1.000000
     46        -39.758046   1.000000
     47        -39.758014   1.000000
     48        -39.756609   1.000000
     49        -39.754862   1.000000
     50        -39.753294   1.000000
     51        -39.752835   1.000000
     52        -39.752592   1.000000
     53        -39.750535   1.000000
     54        -39.750446   1.000000
     55        -39.749266   1.000000
     56        -39.749005   1.000000
     57        -39.747946   1.000000
     58        -39.747544   1.000000
     59        -39.746736   1.000000
     60        -39.745268   1.000000
     61        -39.745178   1.000000
     62        -39.744182   1.000000
     63        -39.744109   1.000000
     64        -39.740902   1.000000
     65        -39.739819   1.000000
     66        -39.739592   1.000000
     67        -39.738770   1.000000
     68        -39.738540   1.000000
     69        -39.737474   1.000000
     70        -39.737245   1.000000
     71        -39.736382   1.000000
     72        -39.735791   1.000000
     73        -39.734146   1.000000
     74        -39.733441   1.000000
     75        -39.733293   1.000000
     76        -39.731225   1.000000
     77        -39.730229   1.000000
     78        -39.729891   1.000000
     79        -39.727303   1.000000
     80        -39.726853   1.000000
     81        -39.726730   1.000000
     82        -39.724532   1.000000
     83        -39.724178   1.000000
     84        -39.723621   1.000000
     85        -39.723481   1.000000
     86        -39.723045   1.000000
     87        -39.722915   1.000000
     88        -39.721668   1.000000
     89        -39.720568   1.000000
     90        -39.719728   1.000000
     91        -39.716062   1.000000
     92        -39.715690   1.000000
     93        -39.714682   1.000000
     94        -39.714320   1.000000
     95        -39.713896   1.000000
     96        -39.712924   1.000000
     97        -18.380232   1.000000
     98        -18.335747   1.000000
     99        -18.315519   1.000000
    100        -18.311191   1.000000
    101        -18.303831   1.000000
    102        -18.300327   1.000000
    103        -18.297523   1.000000
    104        -18.296618   1.000000
    105        -18.292954   1.000000
    106        -18.285951   1.000000
    107        -18.281806   1.000000
    108        -18.275084   1.000000
    109        -18.264328   1.000000
    110        -18.262155   1.000000
    111        -18.259604   1.000000
    112        -18.255574   1.000000
    113        -18.250211   1.000000
    114        -18.244226   1.000000
    115        -18.238897   1.000000
    116        -18.236461   1.000000
    117        -18.227057   1.000000
    118        -18.222452   1.000000
    119        -18.219934   1.000000
    120        -18.218740   1.000000
    121        -18.214161   1.000000
    122        -18.211998   1.000000
    123        -18.211202   1.000000
    124        -18.206224   1.000000
    125        -18.205638   1.000000
    126        -18.204714   1.000000
    127        -18.204017   1.000000
    128        -18.202537   1.000000
    129        -18.202115   1.000000
    130        -18.200241   1.000000
    131        -18.199790   1.000000
    132        -18.198378   1.000000
    133        -18.198017   1.000000
    134        -18.186304   1.000000
    135        -18.182377   1.000000
    136        -18.180745   1.000000
    137        -18.176443   1.000000
    138        -18.172076   1.000000
    139        -18.171040   1.000000
    140        -18.168574   1.000000
    141        -18.168124   1.000000
    142        -18.164077   1.000000
    143        -18.160466   1.000000
    144        -18.156867   1.000000
    145        -18.155219   1.000000
    146        -18.147282   1.000000
    147        -18.140056   1.000000
    148        -18.139841   1.000000
    149        -18.136828   1.000000
    150        -18.136037   1.000000
    151        -18.130952   1.000000
    152        -18.130107   1.000000
    153        -18.122609   1.000000
    154        -18.119549   1.000000
    155        -18.118908   1.000000
    156        -18.113733   1.000000
    157        -18.111603   1.000000
    158        -18.095746   1.000000
    159        -18.092977   1.000000
    160        -18.086113   1.000000
    161        -18.081941   1.000000
    162        -18.081255   1.000000
    163        -18.078297   1.000000
    164        -18.077075   1.000000
    165        -18.074974   1.000000
    166        -18.074860   1.000000
    167        -18.067726   1.000000
    168        -18.065534   1.000000
    169        -18.060849   1.000000
    170        -18.060203   1.000000
    171        -18.053550   1.000000
    172        -18.053309   1.000000
    173        -18.052524   1.000000
    174        -18.027126   1.000000
    175        -18.001591   1.000000
    176        -17.993863   1.000000
    177        -17.984530   1.000000
    178        -17.984448   1.000000
    179        -17.972925   1.000000
    180        -17.962347   1.000000
    181        -17.959555   1.000000
    182        -17.956259   1.000000
    183        -17.955815   1.000000
    184        -17.951588   1.000000
    185        -17.951448   1.000000
    186        -17.946592   1.000000
    187        -17.945538   1.000000
    188        -17.942125   1.000000
    189        -17.941951   1.000000
    190        -17.938673   1.000000
    191        -17.935111   1.000000
    192        -17.934264   1.000000
    193        -17.931462   1.000000
    194        -17.930891   1.000000
    195        -17.917827   1.000000
    196        -17.915646   1.000000
    197        -17.905459   1.000000
    198        -17.900982   1.000000
    199        -17.897214   1.000000
    200        -17.886792   1.000000
    201        -17.882941   1.000000
    202        -17.878075   1.000000
    203        -17.877779   1.000000
    204        -17.872587   1.000000
    205        -17.869792   1.000000
    206        -17.863855   1.000000
    207        -17.863402   1.000000
    208        -17.861352   1.000000
    209        -17.860121   1.000000
    210        -17.859948   1.000000
    211        -17.857130   1.000000
    212        -17.857003   1.000000
    213        -17.853675   1.000000
    214        -17.852566   1.000000
    215        -17.842104   1.000000
    216        -17.838474   1.000000
    217        -17.834450   1.000000
    218        -17.832956   1.000000
    219        -17.829794   1.000000
    220        -17.826326   1.000000
    221        -17.823919   1.000000
    222        -17.822284   1.000000
    223        -17.810383   1.000000
    224        -17.809343   1.000000
    225        -17.804093   1.000000
    226        -17.801427   1.000000
    227        -17.797191   1.000000
    228        -17.796183   1.000000
    229        -17.796036   1.000000
    230        -17.795097   1.000000
    231        -17.790179   1.000000
    232        -17.788645   1.000000
    233        -17.782346   1.000000
    234        -17.781831   1.000000
    235        -17.773080   1.000000
    236        -17.770440   1.000000
    237        -17.768161   1.000000
    238        -17.766696   1.000000
    239        -17.764209   1.000000
    240        -17.764054   1.000000
    241        -17.761002   1.000000
    242        -17.752447   1.000000
    243        -17.751009   1.000000
    244        -17.748360   1.000000
    245        -17.748233   1.000000
    246        -17.744482   1.000000
    247        -17.743710   1.000000
    248        -17.739428   1.000000
    249        -17.738665   1.000000
    250        -17.732664   1.000000
    251        -17.732421   1.000000
    252        -17.728360   1.000000
    253        -17.726620   1.000000
    254        -17.724829   1.000000
    255        -17.717789   1.000000
    256        -17.712933   1.000000
    257        -17.708292   1.000000
    258        -17.704743   1.000000
    259        -17.703569   1.000000
    260        -17.697797   1.000000
    261        -17.694811   1.000000
    262        -17.690512   1.000000
    263        -17.690301   1.000000
    264        -17.686227   1.000000
    265        -17.683968   1.000000
    266        -17.683039   1.000000
    267        -17.682223   1.000000
    268        -17.680864   1.000000
    269        -17.678311   1.000000
    270        -17.677841   1.000000
    271        -17.674450   1.000000
    272        -17.672041   1.000000
    273        -17.671774   1.000000
    274        -17.670522   1.000000
    275        -17.669866   1.000000
    276        -17.664433   1.000000
    277        -17.662326   1.000000
    278        -17.661419   1.000000
    279        -17.660943   1.000000
    280        -17.652180   1.000000
    281        -17.651990   1.000000
    282        -17.651358   1.000000
    283        -17.649083   1.000000
    284        -17.648868   1.000000
    285        -17.647441   1.000000
    286        -17.644804   1.000000
    287        -17.642436   1.000000
    288        -17.641849   1.000000
    289        -17.641468   1.000000
    290        -17.638367   1.000000
    291        -17.635602   1.000000
    292        -17.634445   1.000000
    293        -17.634277   1.000000
    294        -17.633153   1.000000
    295        -17.633058   1.000000
    296        -17.630931   1.000000
    297        -17.630925   1.000000
    298        -17.629676   1.000000
    299        -17.628646   1.000000
    300        -17.627307   1.000000
    301        -17.625642   1.000000
    302        -17.622994   1.000000
    303        -17.621046   1.000000
    304        -17.620414   1.000000
    305        -17.619045   1.000000
    306        -17.618502   1.000000
    307        -17.617849   1.000000
    308        -17.617135   1.000000
    309        -17.616923   1.000000
    310        -17.616292   1.000000
    311        -17.616119   1.000000
    312        -17.607981   1.000000
    313        -17.606600   1.000000
    314        -17.605132   1.000000
    315        -17.604836   1.000000
    316        -17.603608   1.000000
    317        -17.597998   1.000000
    318        -17.597330   1.000000
    319        -17.596303   1.000000
    320        -17.594601   1.000000
    321        -17.594093   1.000000
    322        -17.592364   1.000000
    323        -17.588173   1.000000
    324        -17.583170   1.000000
    325        -17.583005   1.000000
    326        -17.582731   1.000000
    327        -17.581704   1.000000
    328        -17.579815   1.000000
    329        -17.579206   1.000000
    330        -17.578566   1.000000
    331        -17.578506   1.000000
    332        -17.575534   1.000000
    333        -17.571003   1.000000
    334        -17.570625   1.000000
    335        -17.569223   1.000000
    336        -17.567571   1.000000
    337        -17.567036   1.000000
    338        -17.566271   1.000000
    339        -17.563915   1.000000
    340        -17.562358   1.000000
    341        -17.562264   1.000000
    342        -17.561236   1.000000
    343        -17.560040   1.000000
    344        -17.554439   1.000000
    345        -17.553663   1.000000
    346        -17.551410   1.000000
    347        -17.549231   1.000000
    348        -17.548930   1.000000
    349        -17.547891   1.000000
    350        -17.546967   1.000000
    351        -17.546632   1.000000
    352        -17.544026   1.000000
    353        -17.542138   1.000000
    354        -17.536985   1.000000
    355        -17.536353   1.000000
    356        -17.530225   1.000000
    357        -17.522982   1.000000
    358        -17.522585   1.000000
    359        -17.518416   1.000000
    360        -17.517460   1.000000
    361        -17.514741   1.000000
    362        -17.514129   1.000000
    363        -17.512297   1.000000
    364        -17.506791   1.000000
    365        -17.503046   1.000000
    366        -17.502543   1.000000
    367        -17.500920   1.000000
    368        -17.499172   1.000000
    369        -17.497649   1.000000
    370        -17.496353   1.000000
    371        -17.494166   1.000000
    372        -17.489896   1.000000
    373        -17.489603   1.000000
    374        -17.482305   1.000000
    375        -17.481829   1.000000
    376        -17.478041   1.000000
    377        -17.476504   1.000000
    378        -17.475253   1.000000
    379        -17.469757   1.000000
    380        -17.454366   1.000000
    381        -17.448294   1.000000
    382        -17.439385   1.000000
    383        -17.436219   1.000000
    384        -17.426611   1.000000
    385          2.448120   1.000000
    386          3.563710   1.000000
    387          3.858699   1.000000
    388          4.328233   1.000000
    389          4.568517   1.000000
    390          4.652889   1.000000
    391          4.701649   1.000000
    392          4.822299   1.000000
    393          4.877302   1.000000
    394          4.949437   1.000000
    395          5.251685   1.000000
    396          5.279657   1.000000
    397          5.364496   1.000000
    398          5.404526   1.000000
    399          5.423976   1.000000
    400          5.454947   1.000000
    401          5.507176   1.000000
    402          5.585879   1.000000
    403          5.690959   1.000000
    404          5.729259   1.000000
    405          5.961923   1.000000
    406          5.970153   1.000000
    407          5.983343   1.000000
    408          5.989594   1.000000
    409          6.002130   1.000000
    410          6.012372   1.000000
    411          6.017410   1.000000
    412          6.030966   1.000000
    413          6.041124   1.000000
    414          6.061206   1.000000
    415          6.075868   1.000000
    416          6.098467   1.000000
    417          6.145747   1.000000
    418          6.202915   1.000000
    419          6.217436   1.000000
    420          6.235088   1.000000
    421          6.250501   1.000000
    422          6.264932   1.000000
    423          6.289391   1.000000
    424          6.294565   1.000000
    425          6.308684   1.000000
    426          6.318061   1.000000
    427          6.328140   1.000000
    428          6.346242   1.000000
    429          6.375884   1.000000
    430          6.391497   1.000000
    431          6.434911   1.000000
    432          6.516219   1.000000
    433          6.523258   1.000000
    434          6.523747   1.000000
    435          6.528407   1.000000
    436          6.533773   1.000000
    437          6.536391   1.000000
    438          6.540834   1.000000
    439          6.559596   1.000000
    440          6.584484   1.000000
    441          6.585858   1.000000
    442          6.588750   1.000000
    443          6.610616   1.000000
    444          6.646049   1.000000
    445          6.658707   1.000000
    446          6.676311   1.000000
    447          6.697361   1.000000
    448          6.703285   1.000000
    449          6.752206   1.000000
    450          6.770771   1.000000
    451          6.787283   1.000000
    452          6.856667   1.000000
    453          6.864906   1.000000
    454          6.888741   1.000000
    455          6.890469   1.000000
    456          6.923153   1.000000
    457          6.923924   1.000000
    458          6.926936   1.000000
    459          6.929383   1.000000
    460          6.929601   1.000000
    461          6.933040   1.000000
    462          6.934386   1.000000
    463          7.004537   1.000000
    464          7.054523   1.000000
    465          7.057462   1.000000
    466          7.063451   1.000000
    467          7.072629   1.000000
    468          7.074271   1.000000
    469          7.078432   1.000000
    470          7.080628   1.000000
    471          7.121790   1.000000
    472          7.134532   1.000000
    473          7.136532   1.000000
    474          7.165550   1.000000
    475          7.171575   1.000000
    476          7.178994   1.000000
    477          7.182097   1.000000
    478          7.185644   1.000000
    479          7.190306   1.000000
    480          7.220187   1.000000
    481          7.257294   1.000000
    482          7.261168   1.000000
    483          7.264132   1.000000
    484          7.290291   1.000000
    485          7.296673   1.000000
    486          7.367204   1.000000
    487          7.437014   1.000000
    488          7.450019   1.000000
    489          7.463172   1.000000
    490          7.477906   1.000000
    491          7.484613   1.000000
    492          7.509870   1.000000
    493          7.523111   1.000000
    494          7.529366   1.000000
    495          7.545046   1.000000
    496          7.557975   1.000000
    497          7.590370   1.000000
    498          7.603680   1.000000
    499          7.611961   1.000000
    500          7.616361   1.000000
    501          7.648375   1.000000
    502          7.660558   1.000000
    503          7.665274   1.000000
    504          7.671408   1.000000
    505          7.716879   1.000000
    506          7.807652   1.000000
    507          7.823370   1.000000
    508          7.834113   1.000000
    509          7.874698   1.000000
    510          7.878002   1.000000
    511          7.888503   1.000000
    512          7.889555   1.000000
    513          7.912848   1.000000
    514          7.920215   1.000000
    515          7.943967   1.000000
    516          7.948159   1.000000
    517          7.960541   1.000000
    518          7.969583   1.000000
    519          7.983555   1.000000
    520          8.002553   1.000000
    521          8.014322   1.000000
    522          8.020282   1.000000
    523          8.032146   1.000000
    524          8.039401   1.000000
    525          8.042144   1.000000
    526          8.043245   1.000000
    527          8.050423   1.000000
    528          8.057940   1.000000
    529          8.058392   1.000000
    530          8.063693   1.000000
    531          8.082159   1.000000
    532          8.093232   1.000000
    533          8.093610   1.000000
    534          8.100213   1.000000
    535          8.132775   1.000000
    536          8.142887   1.000000
    537          8.143908   1.000000
    538          8.146380   1.000000
    539          8.154031   1.000000
    540          8.157023   1.000000
    541          8.177355   1.000000
    542          8.212777   1.000001
    543          8.246498   1.000003
    544          8.272468   1.000007
    545          8.280873   1.000010
    546          8.302094   1.000019
    547          8.322961   1.000036
    548          8.329892   1.000044
    549          8.336101   1.000053
    550          8.349503   1.000078
    551          8.351747   1.000083
    552          8.362711   1.000112
    553          8.386690   1.000214
    554          8.398201   1.000289
    555          8.412837   1.000417
    556          8.420256   1.000501
    557          8.430641   1.000643
    558          8.434112   1.000699
    559          8.437200   1.000751
    560          8.440478   1.000811
    561          8.441679   1.000834
    562          8.446089   1.000923
    563          8.449660   1.001001
    564          8.459655   1.001253
    565          8.487480   1.002267
    566          8.543337   1.006468
    567          8.544261   1.006571
    568          8.557916   1.008230
    569          8.686918   1.033548
    570          8.730939   1.033741
    571          8.765785   1.019353
    572          8.771683   1.015048
    573          8.793139   0.993754
    574          8.880688   0.795383
    575          8.915758   0.666961
    576          8.930014   0.609399
    577          8.939142   0.571525
    578          8.965695   0.459509
    579          8.988088   0.366601
    580          9.003929   0.303946
    581          9.048428   0.151731
    582          9.053673   0.136677
    583          9.062723   0.112294
    584          9.067676   0.099816
    585          9.100381   0.032897
    586          9.107500   0.021805
    587          9.138138  -0.013111
    588          9.152610  -0.023213
    589          9.163330  -0.028478
    590          9.171241  -0.031301
    591          9.179806  -0.033455
    592          9.181616  -0.033801
    593          9.182961  -0.034035
    594          9.193575  -0.035231
    595          9.195025  -0.035312
    596          9.197133  -0.035397
    597          9.200168  -0.035455
    598          9.201932  -0.035455
    599          9.206313  -0.035355
    600          9.206947  -0.035330
    601          9.214706  -0.034805
    602          9.231491  -0.032583
    603          9.237419  -0.031531
    604          9.240968  -0.030851
    605          9.249565  -0.029084
    606          9.308222  -0.015993
    607          9.356010  -0.008008
    608          9.387088  -0.004696
    609          9.402304  -0.003536
    610          9.407432  -0.003203
    611          9.410562  -0.003013
    612          9.434385  -0.001856
    613          9.452308  -0.001260
    614          9.459210  -0.001080
    615          9.468319  -0.000878
    616          9.474306  -0.000764
    617          9.475982  -0.000734
    618          9.481980  -0.000637
    619          9.485674  -0.000583
    620          9.490868  -0.000515
    621          9.496235  -0.000451
    622          9.498521  -0.000426
    623          9.500090  -0.000410
    624          9.503207  -0.000379
    625          9.506687  -0.000348
    626          9.544308  -0.000129
    627          9.564483  -0.000074
    628          9.571581  -0.000060
    629          9.597197  -0.000028
    630          9.601187  -0.000025
    631          9.608343  -0.000020
    632          9.617755  -0.000015
    633          9.622060  -0.000013
    634          9.631712  -0.000010
    635          9.632171  -0.000010
    636          9.643194  -0.000007
    637          9.660810  -0.000004
    638          9.670965  -0.000003
    639          9.683554  -0.000002
    640          9.693372  -0.000001
    641          9.737302  -0.000000
    642          9.744546  -0.000000
    643          9.784370  -0.000000
    644          9.796529  -0.000000
    645          9.842331  -0.000000
    646          9.866660  -0.000000
    647          9.872641  -0.000000
    648          9.878338  -0.000000
    649          9.879080  -0.000000
    650          9.897709  -0.000000
    651          9.903289  -0.000000
    652          9.925776  -0.000000
    653          9.926049  -0.000000
    654          9.933647  -0.000000
    655          9.939213  -0.000000
    656          9.947220  -0.000000
    657          9.961201  -0.000000
    658          9.972439  -0.000000
    659          9.981214  -0.000000
    660          9.981347  -0.000000
    661          9.997961  -0.000000
    662         10.005482  -0.000000
    663         10.008476  -0.000000
    664         10.012271  -0.000000
    665         10.014008  -0.000000
    666         10.020418  -0.000000
    667         10.027325  -0.000000
    668         10.028713  -0.000000
    669         10.035323  -0.000000
    670         10.103351  -0.000000
    671         10.106784  -0.000000
    672         10.107773  -0.000000
    673         10.123037  -0.000000
    674         10.164535  -0.000000
    675         10.166730  -0.000000
    676         10.199679  -0.000000
    677         10.202722  -0.000000
    678         10.221342  -0.000000
    679         10.222369  -0.000000
    680         10.229753  -0.000000
    681         10.250905  -0.000000
    682         10.255670  -0.000000
    683         10.255973  -0.000000
    684         10.271056  -0.000000
    685         10.273342  -0.000000
    686         10.274781  -0.000000
    687         10.277912  -0.000000
    688         10.297281  -0.000000
    689         10.299495  -0.000000
    690         10.306532  -0.000000
    691         10.311301  -0.000000
    692         10.316284  -0.000000
 
  0.5000000E+00  0.2690550E-16  0.3333333E+00  0.4166667E-01
      1        -39.896728   1.000000
      2        -39.882215   1.000000
      3        -39.875539   1.000000
      4        -39.870364   1.000000
      5        -39.858872   1.000000
      6        -39.856658   1.000000
      7        -39.845765   1.000000
      8        -39.844800   1.000000
      9        -39.839567   1.000000
     10        -39.836381   1.000000
     11        -39.825177   1.000000
     12        -39.824410   1.000000
     13        -39.819276   1.000000
     14        -39.815670   1.000000
     15        -39.807921   1.000000
     16        -39.806975   1.000000
     17        -39.804458   1.000000
     18        -39.804258   1.000000
     19        -39.802642   1.000000
     20        -39.801436   1.000000
     21        -39.800710   1.000000
     22        -39.798791   1.000000
     23        -39.795075   1.000000
     24        -39.792148   1.000000
     25        -39.790307   1.000000
     26        -39.789777   1.000000
     27        -39.787709   1.000000
     28        -39.785373   1.000000
     29        -39.783241   1.000000
     30        -39.782306   1.000000
     31        -39.780065   1.000000
     32        -39.773613   1.000000
     33        -39.773300   1.000000
     34        -39.771510   1.000000
     35        -39.770174   1.000000
     36        -39.768450   1.000000
     37        -39.767712   1.000000
     38        -39.766855   1.000000
     39        -39.766396   1.000000
     40        -39.765996   1.000000
     41        -39.764096   1.000000
     42        -39.763132   1.000000
     43        -39.763062   1.000000
     44        -39.761070   1.000000
     45        -39.760508   1.000000
     46        -39.759247   1.000000
     47        -39.758946   1.000000
     48        -39.756796   1.000000
     49        -39.756244   1.000000
     50        -39.753487   1.000000
     51        -39.752585   1.000000
     52        -39.751856   1.000000
     53        -39.750736   1.000000
     54        -39.748891   1.000000
     55        -39.748501   1.000000
     56        -39.748085   1.000000
     57        -39.747962   1.000000
     58        -39.746493   1.000000
     59        -39.745936   1.000000
     60        -39.745683   1.000000
     61        -39.744104   1.000000
     62        -39.743922   1.000000
     63        -39.742837   1.000000
     64        -39.742440   1.000000
     65        -39.739888   1.000000
     66        -39.738680   1.000000
     67        -39.738431   1.000000
     68        -39.737951   1.000000
     69        -39.737476   1.000000
     70        -39.736674   1.000000
     71        -39.736315   1.000000
     72        -39.734189   1.000000
     73        -39.733561   1.000000
     74        -39.732032   1.000000
     75        -39.731951   1.000000
     76        -39.730537   1.000000
     77        -39.729852   1.000000
     78        -39.728622   1.000000
     79        -39.728311   1.000000
     80        -39.727799   1.000000
     81        -39.726129   1.000000
     82        -39.725123   1.000000
     83        -39.724620   1.000000
     84        -39.724440   1.000000
     85        -39.723715   1.000000
     86        -39.723295   1.000000
     87        -39.723075   1.000000
     88        -39.721960   1.000000
     89        -39.720434   1.000000
     90        -39.719305   1.000000
     91        -39.716606   1.000000
     92        -39.715705   1.000000
     93        -39.715253   1.000000
     94        -39.714979   1.000000
     95        -39.713880   1.000000
     96        -39.713342   1.000000
     97        -18.353073   1.000000
     98        -18.344785   1.000000
     99        -18.314914   1.000000
    100        -18.281450   1.000000
    101        -18.279873   1.000000
    102        -18.279722   1.000000
    103        -18.278277   1.000000
    104        -18.274994   1.000000
    105        -18.272987   1.000000
    106        -18.269754   1.000000
    107        -18.268271   1.000000
    108        -18.259686   1.000000
    109        -18.257783   1.000000
    110        -18.257436   1.000000
    111        -18.256009   1.000000
    112        -18.252550   1.000000
    113        -18.250909   1.000000
    114        -18.249673   1.000000
    115        -18.248487   1.000000
    116        -18.247568   1.000000
    117        -18.246613   1.000000
    118        -18.243440   1.000000
    119        -18.229164   1.000000
    120        -18.225196   1.000000
    121        -18.224010   1.000000
    122        -18.219349   1.000000
    123        -18.218810   1.000000
    124        -18.218178   1.000000
    125        -18.216175   1.000000
    126        -18.215709   1.000000
    127        -18.214435   1.000000
    128        -18.210400   1.000000
    129        -18.202423   1.000000
    130        -18.202332   1.000000
    131        -18.199482   1.000000
    132        -18.195567   1.000000
    133        -18.191314   1.000000
    134        -18.191059   1.000000
    135        -18.190427   1.000000
    136        -18.190055   1.000000
    137        -18.178458   1.000000
    138        -18.177578   1.000000
    139        -18.173859   1.000000
    140        -18.173352   1.000000
    141        -18.172480   1.000000
    142        -18.172447   1.000000
    143        -18.164735   1.000000
    144        -18.163285   1.000000
    145        -18.163230   1.000000
    146        -18.161649   1.000000
    147        -18.151101   1.000000
    148        -18.150337   1.000000
    149        -18.137520   1.000000
    150        -18.130772   1.000000
    151        -18.129166   1.000000
    152        -18.128928   1.000000
    153        -18.127658   1.000000
    154        -18.127563   1.000000
    155        -18.126234   1.000000
    156        -18.125899   1.000000
    157        -18.096905   1.000000
    158        -18.091378   1.000000
    159        -18.085071   1.000000
    160        -18.082718   1.000000
    161        -18.074751   1.000000
    162        -18.070206   1.000000
    163        -18.068891   1.000000
    164        -18.066875   1.000000
    165        -18.066148   1.000000
    166        -18.065878   1.000000
    167        -18.046607   1.000000
    168        -18.040463   1.000000
    169        -18.035318   1.000000
    170        -18.030507   1.000000
    171        -18.023200   1.000000
    172        -18.021385   1.000000
    173        -18.020609   1.000000
    174        -18.016856   1.000000
    175        -18.014475   1.000000
    176        -18.014180   1.000000
    177        -18.006689   1.000000
    178        -18.002515   1.000000
    179        -18.001146   1.000000
    180        -18.000771   1.000000
    181        -17.999304   1.000000
    182        -17.997815   1.000000
    183        -17.989765   1.000000
    184        -17.985799   1.000000
    185        -17.984601   1.000000
    186        -17.981830   1.000000
    187        -17.969869   1.000000
    188        -17.969595   1.000000
    189        -17.959219   1.000000
    190        -17.955095   1.000000
    191        -17.951811   1.000000
    192        -17.951156   1.000000
    193        -17.941579   1.000000
    194        -17.937683   1.000000
    195        -17.930757   1.000000
    196        -17.927695   1.000000
    197        -17.926594   1.000000
    198        -17.925922   1.000000
    199        -17.904224   1.000000
    200        -17.900511   1.000000
    201        -17.895804   1.000000
    202        -17.894432   1.000000
    203        -17.892160   1.000000
    204        -17.890170   1.000000
    205        -17.888096   1.000000
    206        -17.887789   1.000000
    207        -17.886470   1.000000
    208        -17.883763   1.000000
    209        -17.873417   1.000000
    210        -17.871461   1.000000
    211        -17.870525   1.000000
    212        -17.870327   1.000000
    213        -17.822171   1.000000
    214        -17.820509   1.000000
    215        -17.816704   1.000000
    216        -17.815624   1.000000
    217        -17.801275   1.000000
    218        -17.798716   1.000000
    219        -17.798424   1.000000
    220        -17.797359   1.000000
    221        -17.795650   1.000000
    222        -17.794907   1.000000
    223        -17.791588   1.000000
    224        -17.790861   1.000000
    225        -17.787030   1.000000
    226        -17.785191   1.000000
    227        -17.783778   1.000000
    228        -17.783339   1.000000
    229        -17.775030   1.000000
    230        -17.774196   1.000000
    231        -17.768594   1.000000
    232        -17.766391   1.000000
    233        -17.762322   1.000000
    234        -17.761952   1.000000
    235        -17.759515   1.000000
    236        -17.756935   1.000000
    237        -17.756693   1.000000
    238        -17.754722   1.000000
    239        -17.747387   1.000000
    240        -17.742187   1.000000
    241        -17.741298   1.000000
    242        -17.739770   1.000000
    243        -17.738257   1.000000
    244        -17.737138   1.000000
    245        -17.733889   1.000000
    246        -17.731101   1.000000
    247        -17.730840   1.000000
    248        -17.730286   1.000000
    249        -17.729730   1.000000
    250        -17.727948   1.000000
    251        -17.726981   1.000000
    252        -17.726009   1.000000
    253        -17.724985   1.000000
    254        -17.724358   1.000000
    255        -17.723721   1.000000
    256        -17.722521   1.000000
    257        -17.721593   1.000000
    258        -17.721196   1.000000
    259        -17.715155   1.000000
    260        -17.710845   1.000000
    261        -17.709177   1.000000
    262        -17.708184   1.000000
    263        -17.706061   1.000000
    264        -17.705149   1.000000
    265        -17.704665   1.000000
    266        -17.702591   1.000000
    267        -17.700051   1.000000
    268        -17.699245   1.000000
    269        -17.674897   1.000000
    270        -17.673968   1.000000
    271        -17.668413   1.000000
    272        -17.664306   1.000000
    273        -17.663368   1.000000
    274        -17.661381   1.000000
    275        -17.660895   1.000000
    276        -17.659922   1.000000
    277        -17.659028   1.000000
    278        -17.658468   1.000000
    279        -17.656507   1.000000
    280        -17.652645   1.000000
    281        -17.648833   1.000000
    282        -17.648525   1.000000
    283        -17.645279   1.000000
    284        -17.643981   1.000000
    285        -17.643156   1.000000
    286        -17.643084   1.000000
    287        -17.641759   1.000000
    288        -17.640213   1.000000
    289        -17.633949   1.000000
    290        -17.633134   1.000000
    291        -17.630762   1.000000
    292        -17.630572   1.000000
    293        -17.629150   1.000000
    294        -17.628326   1.000000
    295        -17.627771   1.000000
    296        -17.626361   1.000000
    297        -17.621546   1.000000
    298        -17.619454   1.000000
    299        -17.616125   1.000000
    300        -17.614375   1.000000
    301        -17.614277   1.000000
    302        -17.613585   1.000000
    303        -17.612456   1.000000
    304        -17.610690   1.000000
    305        -17.605547   1.000000
    306        -17.604930   1.000000
    307        -17.603447   1.000000
    308        -17.602485   1.000000
    309        -17.601629   1.000000
    310        -17.600758   1.000000
    311        -17.598550   1.000000
    312        -17.597025   1.000000
    313        -17.594114   1.000000
    314        -17.593562   1.000000
    315        -17.591706   1.000000
    316        -17.591565   1.000000
    317        -17.590185   1.000000
    318        -17.588925   1.000000
    319        -17.588377   1.000000
    320        -17.587247   1.000000
    321        -17.586689   1.000000
    322        -17.585411   1.000000
    323        -17.584910   1.000000
    324        -17.584405   1.000000
    325        -17.584079   1.000000
    326        -17.583307   1.000000
    327        -17.582734   1.000000
    328        -17.582575   1.000000
    329        -17.581073   1.000000
    330        -17.580813   1.000000
    331        -17.580001   1.000000
    332        -17.579314   1.000000
    333        -17.578685   1.000000
    334        -17.577813   1.000000
    335        -17.576997   1.000000
    336        -17.576953   1.000000
    337        -17.576372   1.000000
    338        -17.573961   1.000000
    339        -17.571661   1.000000
    340        -17.570947   1.000000
    341        -17.569954   1.000000
    342        -17.569131   1.000000
    343        -17.568796   1.000000
    344        -17.568650   1.000000
    345        -17.558335   1.000000
    346        -17.553806   1.000000
    347        -17.553518   1.000000
    348        -17.549249   1.000000
    349        -17.548254   1.000000
    350        -17.547412   1.000000
    351        -17.547183   1.000000
    352        -17.544610   1.000000
    353        -17.543452   1.000000
    354        -17.543140   1.000000
    355        -17.540823   1.000000
    356        -17.540087   1.000000
    357        -17.539567   1.000000
    358        -17.539050   1.000000
    359        -17.537868   1.000000
    360        -17.536901   1.000000
    361        -17.535077   1.000000
    362        -17.533376   1.000000
    363        -17.527268   1.000000
    364        -17.523880   1.000000
    365        -17.516821   1.000000
    366        -17.515412   1.000000
    367        -17.504033   1.000000
    368        -17.503091   1.000000
    369        -17.501875   1.000000
    370        -17.499966   1.000000
    371        -17.498571   1.000000
    372        -17.495824   1.000000
    373        -17.492619   1.000000
    374        -17.489598   1.000000
    375        -17.487672   1.000000
    376        -17.484415   1.000000
    377        -17.476390   1.000000
    378        -17.474412   1.000000
    379        -17.457025   1.000000
    380        -17.455944   1.000000
    381        -17.454360   1.000000
    382        -17.449622   1.000000
    383        -17.438381   1.000000
    384        -17.435894   1.000000
    385          2.455552   1.000000
    386          3.818734   1.000000
    387          3.891942   1.000000
    388          4.098510   1.000000
    389          4.194596   1.000000
    390          4.575984   1.000000
    391          4.633221   1.000000
    392          4.810245   1.000000
    393          4.870688   1.000000
    394          5.071871   1.000000
    395          5.126664   1.000000
    396          5.623930   1.000000
    397          5.632591   1.000000
    398          5.654798   1.000000
    399          5.675984   1.000000
    400          5.742196   1.000000
    401          5.743776   1.000000
    402          5.745612   1.000000
    403          5.776236   1.000000
    404          5.833023   1.000000
    405          5.834715   1.000000
    406          5.836530   1.000000
    407          5.853694   1.000000
    408          5.863943   1.000000
    409          5.886248   1.000000
    410          5.909198   1.000000
    411          5.972707   1.000000
    412          6.051917   1.000000
    413          6.065892   1.000000
    414          6.183266   1.000000
    415          6.193069   1.000000
    416          6.229714   1.000000
    417          6.229974   1.000000
    418          6.233623   1.000000
    419          6.234853   1.000000
    420          6.240719   1.000000
    421          6.242465   1.000000
    422          6.242584   1.000000
    423          6.252305   1.000000
    424          6.258975   1.000000
    425          6.276056   1.000000
    426          6.290580   1.000000
    427          6.291458   1.000000
    428          6.293196   1.000000
    429          6.294518   1.000000
    430          6.300727   1.000000
    431          6.302735   1.000000
    432          6.304275   1.000000
    433          6.368962   1.000000
    434          6.405467   1.000000
    435          6.407256   1.000000
    436          6.409560   1.000000
    437          6.471700   1.000000
    438          6.511031   1.000000
    439          6.512948   1.000000
    440          6.514182   1.000000
    441          6.533230   1.000000
    442          6.547236   1.000000
    443          6.550135   1.000000
    444          6.550868   1.000000
    445          6.627635   1.000000
    446          6.711841   1.000000
    447          6.714635   1.000000
    448          6.716845   1.000000
    449          6.748348   1.000000
    450          6.822909   1.000000
    451          6.824548   1.000000
    452          6.827608   1.000000
    453          6.831156   1.000000
    454          6.831729   1.000000
    455          6.842932   1.000000
    456          6.850780   1.000000
    457          6.857024   1.000000
    458          6.871151   1.000000
    459          6.874188   1.000000
    460          6.875501   1.000000
    461          6.890159   1.000000
    462          6.921586   1.000000
    463          6.927687   1.000000
    464          6.930381   1.000000
    465          6.969022   1.000000
    466          6.974728   1.000000
    467          7.049555   1.000000
    468          7.169148   1.000000
    469          7.175035   1.000000
    470          7.176729   1.000000
    471          7.182206   1.000000
    472          7.182458   1.000000
    473          7.186929   1.000000
    474          7.215729   1.000000
    475          7.218407   1.000000
    476          7.222780   1.000000
    477          7.233162   1.000000
    478          7.246681   1.000000
    479          7.249833   1.000000
    480          7.250928   1.000000
    481          7.254133   1.000000
    482          7.256014   1.000000
    483          7.320469   1.000000
    484          7.407026   1.000000
    485          7.407893   1.000000
    486          7.413854   1.000000
    487          7.415101   1.000000
    488          7.418401   1.000000
    489          7.424818   1.000000
    490          7.444990   1.000000
    491          7.445510   1.000000
    492          7.448017   1.000000
    493          7.450809   1.000000
    494          7.451371   1.000000
    495          7.465018   1.000000
    496          7.469767   1.000000
    497          7.525117   1.000000
    498          7.554328   1.000000
    499          7.557754   1.000000
    500          7.561431   1.000000
    501          7.575725   1.000000
    502          7.578163   1.000000
    503          7.630917   1.000000
    504          7.648695   1.000000
    505          7.706455   1.000000
    506          7.737723   1.000000
    507          7.775209   1.000000
    508          7.868029   1.000000
    509          7.879431   1.000000
    510          7.928554   1.000000
    511          7.929364   1.000000
    512          7.931666   1.000000
    513          7.931892   1.000000
    514          7.933573   1.000000
    515          7.937779   1.000000
    516          7.947287   1.000000
    517          7.976086   1.000000
    518          8.014169   1.000000
    519          8.019051   1.000000
    520          8.038219   1.000000
    521          8.039868   1.000000
    522          8.043241   1.000000
    523          8.056132   1.000000
    524          8.068870   1.000000
    525          8.069432   1.000000
    526          8.073656   1.000000
    527          8.097188   1.000000
    528          8.119192   1.000000
    529          8.119865   1.000000
    530          8.121225   1.000000
    531          8.125116   1.000000
    532          8.129520   1.000000
    533          8.129692   1.000000
    534          8.133776   1.000000
    535          8.134752   1.000000
    536          8.136836   1.000000
    537          8.186155   1.000000
    538          8.226253   1.000002
    539          8.230232   1.000002
    540          8.236365   1.000002
    541          8.238173   1.000002
    542          8.238685   1.000002
    543          8.241151   1.000003
    544          8.241303   1.000003
    545          8.242823   1.000003
    546          8.243447   1.000003
    547          8.248316   1.000003
    548          8.248704   1.000003
    549          8.261072   1.000005
    550          8.261351   1.000005
    551          8.264015   1.000006
    552          8.264738   1.000006
    553          8.321262   1.000034
    554          8.335808   1.000052
    555          8.337243   1.000055
    556          8.341270   1.000061
    557          8.371954   1.000144
    558          8.387794   1.000220
    559          8.415228   1.000443
    560          8.427024   1.000590
    561          8.462035   1.001320
    562          8.463515   1.001364
    563          8.491117   1.002441
    564          8.505221   1.003230
    565          8.515902   1.003960
    566          8.530800   1.005200
    567          8.686403   1.033473
    568          8.705910   1.035355
    569          8.765012   1.019872
    570          8.780159   1.007736
    571          8.798645   0.986737
    572          8.822347   0.948518
    573          8.932197   0.600399
    574          8.981129   0.395061
    575          9.001902   0.311770
    576          9.013999   0.266068
    577          9.041121   0.173803
    578          9.063851   0.109397
    579          9.068701   0.097310
    580          9.071400   0.090841
    581          9.074631   0.083339
    582          9.084440   0.062178
    583          9.092512   0.046570
    584          9.100654   0.032450
    585          9.105496   0.024806
    586          9.110838   0.017011
    587          9.134364  -0.009853
    588          9.152044  -0.022885
    589          9.152279  -0.023022
    590          9.163212  -0.028430
    591          9.193833  -0.035246
    592          9.201953  -0.035455
    593          9.207884  -0.035287
    594          9.210499  -0.035136
    595          9.243455  -0.030356
    596          9.258133  -0.027199
    597          9.264484  -0.025753
    598          9.271645  -0.024100
    599          9.272746  -0.023845
    600          9.274741  -0.023383
    601          9.283437  -0.021382
    602          9.288954  -0.020132
    603          9.293396  -0.019143
    604          9.297065  -0.018340
    605          9.320451  -0.013612
    606          9.323660  -0.013024
    607          9.333641  -0.011298
    608          9.338383  -0.010533
    609          9.340900  -0.010142
    610          9.343741  -0.009713
    611          9.346370  -0.009328
    612          9.349663  -0.008860
    613          9.351777  -0.008569
    614          9.354579  -0.008195
    615          9.364427  -0.006974
    616          9.369763  -0.006373
    617          9.373104  -0.006018
    618          9.373472  -0.005979
    619          9.444834  -0.001484
    620          9.451377  -0.001286
    621          9.467259  -0.000899
    622          9.476175  -0.000731
    623          9.478037  -0.000700
    624          9.490208  -0.000523
    625          9.639962  -0.000007
    626          9.648246  -0.000006
    627          9.681609  -0.000002
    628          9.714444  -0.000001
    629          9.731614  -0.000000
    630          9.737755  -0.000000
    631          9.741050  -0.000000
    632          9.744360  -0.000000
    633          9.750072  -0.000000
    634          9.753527  -0.000000
    635          9.762123  -0.000000
    636          9.763103  -0.000000
    637          9.783664  -0.000000
    638          9.784345  -0.000000
    639          9.790741  -0.000000
    640          9.796508  -0.000000
    641          9.797575  -0.000000
    642          9.798708  -0.000000
    643          9.801427  -0.000000
    644          9.802219  -0.000000
    645          9.807614  -0.000000
    646          9.809120  -0.000000
    647          9.815788  -0.000000
    648          9.824439  -0.000000
    649          9.824555  -0.000000
    650          9.836847  -0.000000
    651          9.847340  -0.000000
    652          9.869502  -0.000000
    653          9.881109  -0.000000
    654          9.883398  -0.000000
    655          9.887970  -0.000000
    656          9.896053  -0.000000
    657          9.924979  -0.000000
    658          9.925574  -0.000000
    659          9.939588  -0.000000
    660          9.939977  -0.000000
    661          9.943145  -0.000000
    662          9.943867  -0.000000
    663          9.957326  -0.000000
    664          9.963296  -0.000000
    665          9.964194  -0.000000
    666          9.969420  -0.000000
    667          9.971387  -0.000000
    668          9.973115  -0.000000
    669         10.002432  -0.000000
    670         10.005020  -0.000000
    671         10.009744  -0.000000
    672         10.014543  -0.000000
    673         10.047373  -0.000000
    674         10.055168  -0.000000
    675         10.068600  -0.000000
    676         10.095794  -0.000000
    677         10.096947  -0.000000
    678         10.101084  -0.000000
    679         10.103262  -0.000000
    680         10.105006  -0.000000
    681         10.110063  -0.000000
    682         10.110184  -0.000000
    683         10.125952  -0.000000
    684         10.129136  -0.000000
    685         10.129169  -0.000000
    686         10.138839  -0.000000
    687         10.201980  -0.000000
    688         10.216354  -0.000000
    689         10.226802  -0.000000
    690         10.231874  -0.000000
    691         10.284072  -0.000000
    692         10.294443  -0.000000
 
  0.2690550E-16  0.5000000E+00  0.3333333E+00  0.4166667E-01
      1        -39.896757   1.000000
      2        -39.882100   1.000000
      3        -39.875645   1.000000
      4        -39.870230   1.000000
      5        -39.858996   1.000000
      6        -39.856723   1.000000
      7        -39.845768   1.000000
      8        -39.844893   1.000000
      9        -39.839596   1.000000
     10        -39.836198   1.000000
     11        -39.825305   1.000000
     12        -39.824293   1.000000
     13        -39.819120   1.000000
     14        -39.815717   1.000000
     15        -39.808031   1.000000
     16        -39.806836   1.000000
     17        -39.804423   1.000000
     18        -39.804367   1.000000
     19        -39.802568   1.000000
     20        -39.801437   1.000000
     21        -39.800578   1.000000
     22        -39.798884   1.000000
     23        -39.795093   1.000000
     24        -39.792076   1.000000
     25        -39.790276   1.000000
     26        -39.789878   1.000000
     27        -39.787904   1.000000
     28        -39.785415   1.000000
     29        -39.783193   1.000000
     30        -39.782431   1.000000
     31        -39.780001   1.000000
     32        -39.773619   1.000000
     33        -39.773369   1.000000
     34        -39.771423   1.000000
     35        -39.770241   1.000000
     36        -39.768692   1.000000
     37        -39.767563   1.000000
     38        -39.767126   1.000000
     39        -39.766211   1.000000
     40        -39.765988   1.000000
     41        -39.763905   1.000000
     42        -39.763041   1.000000
     43        -39.762846   1.000000
     44        -39.760998   1.000000
     45        -39.760417   1.000000
     46        -39.759375   1.000000
     47        -39.758781   1.000000
     48        -39.756924   1.000000
     49        -39.756335   1.000000
     50        -39.753627   1.000000
     51        -39.752484   1.000000
     52        -39.751874   1.000000
     53        -39.750712   1.000000
     54        -39.749002   1.000000
     55        -39.748522   1.000000
     56        -39.748121   1.000000
     57        -39.747898   1.000000
     58        -39.746546   1.000000
     59        -39.745869   1.000000
     60        -39.745572   1.000000
     61        -39.744202   1.000000
     62        -39.743944   1.000000
     63        -39.742906   1.000000
     64        -39.742516   1.000000
     65        -39.739876   1.000000
     66        -39.738769   1.000000
     67        -39.738197   1.000000
     68        -39.737853   1.000000
     69        -39.737544   1.000000
     70        -39.736606   1.000000
     71        -39.736432   1.000000
     72        -39.734236   1.000000
     73        -39.733367   1.000000
     74        -39.732078   1.000000
     75        -39.732033   1.000000
     76        -39.730529   1.000000
     77        -39.729802   1.000000
     78        -39.728714   1.000000
     79        -39.728237   1.000000
     80        -39.727795   1.000000
     81        -39.726127   1.000000
     82        -39.725297   1.000000
     83        -39.724609   1.000000
     84        -39.724442   1.000000
     85        -39.723703   1.000000
     86        -39.723233   1.000000
     87        -39.723087   1.000000
     88        -39.721850   1.000000
     89        -39.720543   1.000000
     90        -39.719273   1.000000
     91        -39.716552   1.000000
     92        -39.715718   1.000000
     93        -39.715358   1.000000
     94        -39.714902   1.000000
     95        -39.713983   1.000000
     96        -39.713240   1.000000
     97        -18.353094   1.000000
     98        -18.344731   1.000000
     99        -18.314869   1.000000
    100        -18.281402   1.000000
    101        -18.280007   1.000000
    102        -18.279635   1.000000
    103        -18.278236   1.000000
    104        -18.274947   1.000000
    105        -18.273011   1.000000
    106        -18.269762   1.000000
    107        -18.268247   1.000000
    108        -18.259726   1.000000
    109        -18.257845   1.000000
    110        -18.257401   1.000000
    111        -18.256034   1.000000
    112        -18.252590   1.000000
    113        -18.250991   1.000000
    114        -18.249562   1.000000
    115        -18.248367   1.000000
    116        -18.247570   1.000000
    117        -18.246503   1.000000
    118        -18.243389   1.000000
    119        -18.229286   1.000000
    120        -18.225213   1.000000
    121        -18.224026   1.000000
    122        -18.219414   1.000000
    123        -18.218934   1.000000
    124        -18.218127   1.000000
    125        -18.216321   1.000000
    126        -18.215680   1.000000
    127        -18.214464   1.000000
    128        -18.210446   1.000000
    129        -18.202461   1.000000
    130        -18.202324   1.000000
    131        -18.199488   1.000000
    132        -18.195492   1.000000
    133        -18.191289   1.000000
    134        -18.191125   1.000000
    135        -18.190516   1.000000
    136        -18.189973   1.000000
    137        -18.178503   1.000000
    138        -18.177545   1.000000
    139        -18.173955   1.000000
    140        -18.173339   1.000000
    141        -18.172477   1.000000
    142        -18.172390   1.000000
    143        -18.164713   1.000000
    144        -18.163362   1.000000
    145        -18.163227   1.000000
    146        -18.161590   1.000000
    147        -18.151157   1.000000
    148        -18.150322   1.000000
    149        -18.137446   1.000000
    150        -18.130674   1.000000
    151        -18.129170   1.000000
    152        -18.128965   1.000000
    153        -18.127636   1.000000
    154        -18.127526   1.000000
    155        -18.126223   1.000000
    156        -18.125891   1.000000
    157        -18.097063   1.000000
    158        -18.091444   1.000000
    159        -18.085164   1.000000
    160        -18.082736   1.000000
    161        -18.074720   1.000000
    162        -18.070119   1.000000
    163        -18.068850   1.000000
    164        -18.066907   1.000000
    165        -18.066056   1.000000
    166        -18.065811   1.000000
    167        -18.046612   1.000000
    168        -18.040461   1.000000
    169        -18.035475   1.000000
    170        -18.030431   1.000000
    171        -18.023250   1.000000
    172        -18.021496   1.000000
    173        -18.020588   1.000000
    174        -18.016765   1.000000
    175        -18.014545   1.000000
    176        -18.014159   1.000000
    177        -18.006527   1.000000
    178        -18.002442   1.000000
    179        -18.001059   1.000000
    180        -18.000789   1.000000
    181        -17.999246   1.000000
    182        -17.997851   1.000000
    183        -17.989722   1.000000
    184        -17.985781   1.000000
    185        -17.984381   1.000000
    186        -17.981804   1.000000
    187        -17.969792   1.000000
    188        -17.969558   1.000000
    189        -17.959462   1.000000
    190        -17.955335   1.000000
    191        -17.951768   1.000000
    192        -17.951186   1.000000
    193        -17.941509   1.000000
    194        -17.937694   1.000000
    195        -17.930733   1.000000
    196        -17.927731   1.000000
    197        -17.926636   1.000000
    198        -17.925914   1.000000
    199        -17.904148   1.000000
    200        -17.900372   1.000000
    201        -17.895805   1.000000
    202        -17.894465   1.000000
    203        -17.892190   1.000000
    204        -17.890243   1.000000
    205        -17.888224   1.000000
    206        -17.887788   1.000000
    207        -17.886550   1.000000
    208        -17.883722   1.000000
    209        -17.873538   1.000000
    210        -17.871592   1.000000
    211        -17.870417   1.000000
    212        -17.870287   1.000000
    213        -17.822068   1.000000
    214        -17.820352   1.000000
    215        -17.816679   1.000000
    216        -17.815630   1.000000
    217        -17.801276   1.000000
    218        -17.798665   1.000000
    219        -17.798488   1.000000
    220        -17.797434   1.000000
    221        -17.795632   1.000000
    222        -17.794622   1.000000
    223        -17.791513   1.000000
    224        -17.790923   1.000000
    225        -17.787107   1.000000
    226        -17.785239   1.000000
    227        -17.783862   1.000000
    228        -17.783304   1.000000
    229        -17.775147   1.000000
    230        -17.774320   1.000000
    231        -17.768613   1.000000
    232        -17.766645   1.000000
    233        -17.762339   1.000000
    234        -17.761957   1.000000
    235        -17.759259   1.000000
    236        -17.757118   1.000000
    237        -17.756656   1.000000
    238        -17.754735   1.000000
    239        -17.747353   1.000000
    240        -17.742205   1.000000
    241        -17.741334   1.000000
    242        -17.739938   1.000000
    243        -17.738350   1.000000
    244        -17.737070   1.000000
    245        -17.733765   1.000000
    246        -17.731048   1.000000
    247        -17.730906   1.000000
    248        -17.730279   1.000000
    249        -17.729692   1.000000
    250        -17.727852   1.000000
    251        -17.727010   1.000000
    252        -17.725844   1.000000
    253        -17.724823   1.000000
    254        -17.724372   1.000000
    255        -17.723621   1.000000
    256        -17.722617   1.000000
    257        -17.721431   1.000000
    258        -17.721119   1.000000
    259        -17.715125   1.000000
    260        -17.710974   1.000000
    261        -17.709092   1.000000
    262        -17.708098   1.000000
    263        -17.706080   1.000000
    264        -17.705187   1.000000
    265        -17.704620   1.000000
    266        -17.702609   1.000000
    267        -17.700063   1.000000
    268        -17.699260   1.000000
    269        -17.675032   1.000000
    270        -17.673981   1.000000
    271        -17.668333   1.000000
    272        -17.664243   1.000000
    273        -17.663330   1.000000
    274        -17.661305   1.000000
    275        -17.661084   1.000000
    276        -17.659770   1.000000
    277        -17.658708   1.000000
    278        -17.658455   1.000000
    279        -17.656576   1.000000
    280        -17.652767   1.000000
    281        -17.648808   1.000000
    282        -17.648571   1.000000
    283        -17.645367   1.000000
    284        -17.643932   1.000000
    285        -17.643294   1.000000
    286        -17.643006   1.000000
    287        -17.641748   1.000000
    288        -17.640156   1.000000
    289        -17.634001   1.000000
    290        -17.633150   1.000000
    291        -17.630892   1.000000
    292        -17.630540   1.000000
    293        -17.629391   1.000000
    294        -17.628411   1.000000
    295        -17.627718   1.000000
    296        -17.626355   1.000000
    297        -17.621624   1.000000
    298        -17.619349   1.000000
    299        -17.616042   1.000000
    300        -17.614362   1.000000
    301        -17.614134   1.000000
    302        -17.613751   1.000000
    303        -17.612497   1.000000
    304        -17.610640   1.000000
    305        -17.605611   1.000000
    306        -17.605024   1.000000
    307        -17.603476   1.000000
    308        -17.602593   1.000000
    309        -17.601657   1.000000
    310        -17.600790   1.000000
    311        -17.598769   1.000000
    312        -17.596951   1.000000
    313        -17.594128   1.000000
    314        -17.593528   1.000000
    315        -17.591758   1.000000
    316        -17.591594   1.000000
    317        -17.590103   1.000000
    318        -17.588932   1.000000
    319        -17.588321   1.000000
    320        -17.587159   1.000000
    321        -17.586640   1.000000
    322        -17.585416   1.000000
    323        -17.584965   1.000000
    324        -17.584457   1.000000
    325        -17.584081   1.000000
    326        -17.583180   1.000000
    327        -17.582714   1.000000
    328        -17.582486   1.000000
    329        -17.581170   1.000000
    330        -17.580906   1.000000
    331        -17.580043   1.000000
    332        -17.579256   1.000000
    333        -17.578659   1.000000
    334        -17.577851   1.000000
    335        -17.577103   1.000000
    336        -17.576939   1.000000
    337        -17.576461   1.000000
    338        -17.574096   1.000000
    339        -17.571513   1.000000
    340        -17.571034   1.000000
    341        -17.570043   1.000000
    342        -17.569051   1.000000
    343        -17.568690   1.000000
    344        -17.568563   1.000000
    345        -17.558443   1.000000
    346        -17.553712   1.000000
    347        -17.553531   1.000000
    348        -17.549162   1.000000
    349        -17.548181   1.000000
    350        -17.547378   1.000000
    351        -17.547148   1.000000
    352        -17.544592   1.000000
    353        -17.543605   1.000000
    354        -17.543224   1.000000
    355        -17.540801   1.000000
    356        -17.540285   1.000000
    357        -17.539505   1.000000
    358        -17.539051   1.000000
    359        -17.537980   1.000000
    360        -17.536814   1.000000
    361        -17.535012   1.000000
    362        -17.533205   1.000000
    363        -17.527410   1.000000
    364        -17.523741   1.000000
    365        -17.516863   1.000000
    366        -17.515377   1.000000
    367        -17.503914   1.000000
    368        -17.503143   1.000000
    369        -17.501812   1.000000
    370        -17.500004   1.000000
    371        -17.498642   1.000000
    372        -17.495666   1.000000
    373        -17.492511   1.000000
    374        -17.489633   1.000000
    375        -17.487569   1.000000
    376        -17.484472   1.000000
    377        -17.476409   1.000000
    378        -17.474334   1.000000
    379        -17.457087   1.000000
    380        -17.455896   1.000000
    381        -17.454505   1.000000
    382        -17.449508   1.000000
    383        -17.438592   1.000000
    384        -17.435794   1.000000
    385          2.455553   1.000000
    386          3.818647   1.000000
    387          3.892034   1.000000
    388          4.098424   1.000000
    389          4.194714   1.000000
    390          4.576058   1.000000
    391          4.633105   1.000000
    392          4.810321   1.000000
    393          4.870610   1.000000
    394          5.071801   1.000000
    395          5.126733   1.000000
    396          5.623862   1.000000
    397          5.632671   1.000000
    398          5.654842   1.000000
    399          5.675929   1.000000
    400          5.742157   1.000000
    401          5.743640   1.000000
    402          5.745689   1.000000
    403          5.776263   1.000000
    404          5.833044   1.000000
    405          5.834534   1.000000
    406          5.836614   1.000000
    407          5.853732   1.000000
    408          5.863972   1.000000
    409          5.886315   1.000000
    410          5.909347   1.000000
    411          5.972893   1.000000
    412          6.051725   1.000000
    413          6.065860   1.000000
    414          6.183255   1.000000
    415          6.192917   1.000000
    416          6.229683   1.000000
    417          6.229972   1.000000
    418          6.233531   1.000000
    419          6.234740   1.000000
    420          6.240877   1.000000
    421          6.242435   1.000000
    422          6.242719   1.000000
    423          6.252295   1.000000
    424          6.258914   1.000000
    425          6.276301   1.000000
    426          6.290541   1.000000
    427          6.291518   1.000000
    428          6.293310   1.000000
    429          6.294581   1.000000
    430          6.300557   1.000000
    431          6.302694   1.000000
    432          6.304163   1.000000
    433          6.369013   1.000000
    434          6.405298   1.000000
    435          6.407038   1.000000
    436          6.409424   1.000000
    437          6.471832   1.000000
    438          6.511270   1.000000
    439          6.512899   1.000000
    440          6.514184   1.000000
    441          6.533426   1.000000
    442          6.547428   1.000000
    443          6.550251   1.000000
    444          6.550894   1.000000
    445          6.627385   1.000000
    446          6.712213   1.000000
    447          6.714590   1.000000
    448          6.716816   1.000000
    449          6.747879   1.000000
    450          6.822967   1.000000
    451          6.824264   1.000000
    452          6.827569   1.000000
    453          6.831145   1.000000
    454          6.831817   1.000000
    455          6.843443   1.000000
    456          6.851091   1.000000
    457          6.857234   1.000000
    458          6.871310   1.000000
    459          6.873997   1.000000
    460          6.875392   1.000000
    461          6.890413   1.000000
    462          6.921674   1.000000
    463          6.927396   1.000000
    464          6.930271   1.000000
    465          6.968690   1.000000
    466          6.974801   1.000000
    467          7.049385   1.000000
    468          7.169244   1.000000
    469          7.174953   1.000000
    470          7.176869   1.000000
    471          7.182061   1.000000
    472          7.182554   1.000000
    473          7.186845   1.000000
    474          7.215276   1.000000
    475          7.217966   1.000000
    476          7.222714   1.000000
    477          7.233042   1.000000
    478          7.246778   1.000000
    479          7.249954   1.000000
    480          7.250905   1.000000
    481          7.254581   1.000000
    482          7.256447   1.000000
    483          7.319927   1.000000
    484          7.406980   1.000000
    485          7.407891   1.000000
    486          7.413860   1.000000
    487          7.415213   1.000000
    488          7.418615   1.000000
    489          7.424688   1.000000
    490          7.445103   1.000000
    491          7.445608   1.000000
    492          7.447735   1.000000
    493          7.450872   1.000000
    494          7.451176   1.000000
    495          7.465244   1.000000
    496          7.469806   1.000000
    497          7.525197   1.000000
    498          7.554315   1.000000
    499          7.557615   1.000000
    500          7.561496   1.000000
    501          7.575371   1.000000
    502          7.578328   1.000000
    503          7.631004   1.000000
    504          7.649079   1.000000
    505          7.706946   1.000000
    506          7.737753   1.000000
    507          7.775132   1.000000
    508          7.868078   1.000000
    509          7.879217   1.000000
    510          7.928695   1.000000
    511          7.929511   1.000000
    512          7.931594   1.000000
    513          7.931763   1.000000
    514          7.933466   1.000000
    515          7.937598   1.000000
    516          7.947421   1.000000
    517          7.976186   1.000000
    518          8.014226   1.000000
    519          8.018782   1.000000
    520          8.038167   1.000000
    521          8.039580   1.000000
    522          8.042869   1.000000
    523          8.055623   1.000000
    524          8.068645   1.000000
    525          8.069183   1.000000
    526          8.073442   1.000000
    527          8.097265   1.000000
    528          8.119489   1.000000
    529          8.119934   1.000000
    530          8.121548   1.000000
    531          8.124899   1.000000
    532          8.129554   1.000000
    533          8.130057   1.000000
    534          8.133790   1.000000
    535          8.134805   1.000000
    536          8.137126   1.000000
    537          8.185846   1.000000
    538          8.226085   1.000002
    539          8.230113   1.000002
    540          8.236412   1.000002
    541          8.238195   1.000002
    542          8.238660   1.000002
    543          8.240850   1.000003
    544          8.241487   1.000003
    545          8.242604   1.000003
    546          8.243548   1.000003
    547          8.248240   1.000003
    548          8.248497   1.000003
    549          8.260675   1.000005
    550          8.261719   1.000005
    551          8.263960   1.000006
    552          8.264933   1.000006
    553          8.321299   1.000034
    554          8.335841   1.000052
    555          8.337053   1.000054
    556          8.340968   1.000061
    557          8.371285   1.000142
    558          8.388041   1.000222
    559          8.415600   1.000447
    560          8.426959   1.000589
    561          8.461752   1.001312
    562          8.463921   1.001376
    563          8.491117   1.002441
    564          8.504963   1.003214
    565          8.516336   1.003992
    566          8.530540   1.005176
    567          8.686453   1.033481
    568          8.705958   1.035357
    569          8.765310   1.019674
    570          8.779831   1.008045
    571          8.798738   0.986614
    572          8.822709   0.947829
    573          8.932603   0.598722
    574          8.981261   0.394519
    575          9.002111   0.310958
    576          9.014578   0.263946
    577          9.041457   0.172763
    578          9.063949   0.109147
    579          9.069094   0.096358
    580          9.071809   0.089876
    581          9.074297   0.084103
    582          9.084467   0.062123
    583          9.092660   0.046300
    584          9.101399   0.031237
    585          9.105673   0.024539
    586          9.111093   0.016657
    587          9.133627  -0.009185
    588          9.152313  -0.023041
    589          9.152563  -0.023185
    590          9.163299  -0.028465
    591          9.193884  -0.035249
    592          9.202492  -0.035450
    593          9.207757  -0.035293
    594          9.210862  -0.035112
    595          9.242151  -0.030618
    596          9.257183  -0.027412
    597          9.264066  -0.025849
    598          9.272180  -0.023976
    599          9.272998  -0.023787
    600          9.274626  -0.023410
    601          9.283488  -0.021370
    602          9.289307  -0.020053
    603          9.293911  -0.019030
    604          9.296950  -0.018365
    605          9.319641  -0.013763
    606          9.322946  -0.013153
    607          9.333411  -0.011335
    608          9.338842  -0.010461
    609          9.340628  -0.010184
    610          9.343505  -0.009748
    611          9.346150  -0.009359
    612          9.349669  -0.008859
    613          9.353070  -0.008395
    614          9.354522  -0.008202
    615          9.364266  -0.006992
    616          9.369518  -0.006399
    617          9.372887  -0.006040
    618          9.373361  -0.005991
    619          9.445261  -0.001471
    620          9.451259  -0.001290
    621          9.466794  -0.000909
    622          9.476276  -0.000729
    623          9.478514  -0.000692
    624          9.490618  -0.000518
    625          9.639972  -0.000007
    626          9.647691  -0.000006
    627          9.681282  -0.000002
    628          9.713883  -0.000001
    629          9.732219  -0.000000
    630          9.737490  -0.000000
    631          9.741145  -0.000000
    632          9.744505  -0.000000
    633          9.750152  -0.000000
    634          9.753258  -0.000000
    635          9.762210  -0.000000
    636          9.763087  -0.000000
    637          9.783913  -0.000000
    638          9.785120  -0.000000
    639          9.791245  -0.000000
    640          9.795467  -0.000000
    641          9.797287  -0.000000
    642          9.799234  -0.000000
    643          9.801253  -0.000000
    644          9.803066  -0.000000
    645          9.808204  -0.000000
    646          9.809451  -0.000000
    647          9.815761  -0.000000
    648          9.824002  -0.000000
    649          9.824663  -0.000000
    650          9.836043  -0.000000
    651          9.846487  -0.000000
    652          9.869664  -0.000000
    653          9.881212  -0.000000
    654          9.884203  -0.000000
    655          9.888583  -0.000000
    656          9.895759  -0.000000
    657          9.925047  -0.000000
    658          9.925498  -0.000000
    659          9.939378  -0.000000
    660          9.939922  -0.000000
    661          9.943736  -0.000000
    662          9.944282  -0.000000
    663          9.957375  -0.000000
    664          9.963398  -0.000000
    665          9.963924  -0.000000
    666          9.969454  -0.000000
    667          9.971899  -0.000000
    668          9.973163  -0.000000
    669         10.002637  -0.000000
    670         10.004944  -0.000000
    671         10.010071  -0.000000
    672         10.014125  -0.000000
    673         10.046865  -0.000000
    674         10.054558  -0.000000
    675         10.067467  -0.000000
    676         10.096096  -0.000000
    677         10.097097  -0.000000
    678         10.100610  -0.000000
    679         10.102956  -0.000000
    680         10.105070  -0.000000
    681         10.109662  -0.000000
    682         10.110333  -0.000000
    683         10.125967  -0.000000
    684         10.128650  -0.000000
    685         10.130104  -0.000000
    686         10.138916  -0.000000
    687         10.201380  -0.000000
    688         10.216313  -0.000000
    689         10.227189  -0.000000
    690         10.231260  -0.000000
    691         10.284414  -0.000000
    692         10.294086  -0.000000
 
  0.5000000E+00  0.5000000E+00  0.3333333E+00  0.4166667E-01
      1        -39.896757   1.000000
      2        -39.882100   1.000000
      3        -39.875645   1.000000
      4        -39.870230   1.000000
      5        -39.858996   1.000000
      6        -39.856723   1.000000
      7        -39.845768   1.000000
      8        -39.844893   1.000000
      9        -39.839596   1.000000
     10        -39.836198   1.000000
     11        -39.825305   1.000000
     12        -39.824293   1.000000
     13        -39.819120   1.000000
     14        -39.815717   1.000000
     15        -39.808031   1.000000
     16        -39.806836   1.000000
     17        -39.804423   1.000000
     18        -39.804367   1.000000
     19        -39.802568   1.000000
     20        -39.801437   1.000000
     21        -39.800578   1.000000
     22        -39.798884   1.000000
     23        -39.795093   1.000000
     24        -39.792076   1.000000
     25        -39.790276   1.000000
     26        -39.789878   1.000000
     27        -39.787904   1.000000
     28        -39.785415   1.000000
     29        -39.783193   1.000000
     30        -39.782431   1.000000
     31        -39.780001   1.000000
     32        -39.773619   1.000000
     33        -39.773369   1.000000
     34        -39.771423   1.000000
     35        -39.770241   1.000000
     36        -39.768692   1.000000
     37        -39.767563   1.000000
     38        -39.767126   1.000000
     39        -39.766211   1.000000
     40        -39.765988   1.000000
     41        -39.763905   1.000000
     42        -39.763041   1.000000
     43        -39.762846   1.000000
     44        -39.760998   1.000000
     45        -39.760417   1.000000
     46        -39.759375   1.000000
     47        -39.758781   1.000000
     48        -39.756924   1.000000
     49        -39.756335   1.000000
     50        -39.753627   1.000000
     51        -39.752484   1.000000
     52        -39.751874   1.000000
     53        -39.750712   1.000000
     54        -39.749002   1.000000
     55        -39.748522   1.000000
     56        -39.748121   1.000000
     57        -39.747898   1.000000
     58        -39.746546   1.000000
     59        -39.745869   1.000000
     60        -39.745572   1.000000
     61        -39.744202   1.000000
     62        -39.743943   1.000000
     63        -39.742906   1.000000
     64        -39.742516   1.000000
     65        -39.739876   1.000000
     66        -39.738769   1.000000
     67        -39.738197   1.000000
     68        -39.737853   1.000000
     69        -39.737544   1.000000
     70        -39.736606   1.000000
     71        -39.736432   1.000000
     72        -39.734236   1.000000
     73        -39.733367   1.000000
     74        -39.732078   1.000000
     75        -39.732033   1.000000
     76        -39.730529   1.000000
     77        -39.729802   1.000000
     78        -39.728714   1.000000
     79        -39.728237   1.000000
     80        -39.727795   1.000000
     81        -39.726127   1.000000
     82        -39.725297   1.000000
     83        -39.724609   1.000000
     84        -39.724442   1.000000
     85        -39.723703   1.000000
     86        -39.723233   1.000000
     87        -39.723087   1.000000
     88        -39.721850   1.000000
     89        -39.720543   1.000000
     90        -39.719273   1.000000
     91        -39.716552   1.000000
     92        -39.715718   1.000000
     93        -39.715358   1.000000
     94        -39.714902   1.000000
     95        -39.713983   1.000000
     96        -39.713240   1.000000
     97        -18.353094   1.000000
     98        -18.344731   1.000000
     99        -18.314869   1.000000
    100        -18.281402   1.000000
    101        -18.280007   1.000000
    102        -18.279635   1.000000
    103        -18.278236   1.000000
    104        -18.274947   1.000000
    105        -18.273011   1.000000
    106        -18.269762   1.000000
    107        -18.268247   1.000000
    108        -18.259726   1.000000
    109        -18.257845   1.000000
    110        -18.257401   1.000000
    111        -18.256034   1.000000
    112        -18.252590   1.000000
    113        -18.250991   1.000000
    114        -18.249562   1.000000
    115        -18.248367   1.000000
    116        -18.247570   1.000000
    117        -18.246503   1.000000
    118        -18.243389   1.000000
    119        -18.229285   1.000000
    120        -18.225213   1.000000
    121        -18.224026   1.000000
    122        -18.219414   1.000000
    123        -18.218934   1.000000
    124        -18.218127   1.000000
    125        -18.216321   1.000000
    126        -18.215680   1.000000
    127        -18.214464   1.000000
    128        -18.210446   1.000000
    129        -18.202461   1.000000
    130        -18.202324   1.000000
    131        -18.199488   1.000000
    132        -18.195492   1.000000
    133        -18.191289   1.000000
    134        -18.191125   1.000000
    135        -18.190516   1.000000
    136        -18.189973   1.000000
    137        -18.178503   1.000000
    138        -18.177545   1.000000
    139        -18.173955   1.000000
    140        -18.173338   1.000000
    141        -18.172477   1.000000
    142        -18.172390   1.000000
    143        -18.164713   1.000000
    144        -18.163362   1.000000
    145        -18.163227   1.000000
    146        -18.161590   1.000000
    147        -18.151157   1.000000
    148        -18.150322   1.000000
    149        -18.137446   1.000000
    150        -18.130674   1.000000
    151        -18.129170   1.000000
    152        -18.128965   1.000000
    153        -18.127636   1.000000
    154        -18.127526   1.000000
    155        -18.126223   1.000000
    156        -18.125891   1.000000
    157        -18.097063   1.000000
    158        -18.091444   1.000000
    159        -18.085164   1.000000
    160        -18.082736   1.000000
    161        -18.074720   1.000000
    162        -18.070119   1.000000
    163        -18.068850   1.000000
    164        -18.066907   1.000000
    165        -18.066056   1.000000
    166        -18.065811   1.000000
    167        -18.046612   1.000000
    168        -18.040461   1.000000
    169        -18.035475   1.000000
    170        -18.030431   1.000000
    171        -18.023250   1.000000
    172        -18.021496   1.000000
    173        -18.020588   1.000000
    174        -18.016765   1.000000
    175        -18.014545   1.000000
    176        -18.014159   1.000000
    177        -18.006527   1.000000
    178        -18.002442   1.000000
    179        -18.001059   1.000000
    180        -18.000789   1.000000
    181        -17.999246   1.000000
    182        -17.997851   1.000000
    183        -17.989722   1.000000
    184        -17.985781   1.000000
    185        -17.984381   1.000000
    186        -17.981804   1.000000
    187        -17.969792   1.000000
    188        -17.969558   1.000000
    189        -17.959462   1.000000
    190        -17.955335   1.000000
    191        -17.951768   1.000000
    192        -17.951186   1.000000
    193        -17.941509   1.000000
    194        -17.937694   1.000000
    195        -17.930733   1.000000
    196        -17.927731   1.000000
    197        -17.926636   1.000000
    198        -17.925914   1.000000
    199        -17.904148   1.000000
    200        -17.900372   1.000000
    201        -17.895805   1.000000
    202        -17.894465   1.000000
    203        -17.892190   1.000000
    204        -17.890243   1.000000
    205        -17.888224   1.000000
    206        -17.887788   1.000000
    207        -17.886550   1.000000
    208        -17.883722   1.000000
    209        -17.873538   1.000000
    210        -17.871592   1.000000
    211        -17.870417   1.000000
    212        -17.870287   1.000000
    213        -17.822068   1.000000
    214        -17.820352   1.000000
    215        -17.816679   1.000000
    216        -17.815630   1.000000
    217        -17.801276   1.000000
    218        -17.798665   1.000000
    219        -17.798488   1.000000
    220        -17.797434   1.000000
    221        -17.795632   1.000000
    222        -17.794622   1.000000
    223        -17.791513   1.000000
    224        -17.790923   1.000000
    225        -17.787107   1.000000
    226        -17.785239   1.000000
    227        -17.783862   1.000000
    228        -17.783304   1.000000
    229        -17.775147   1.000000
    230        -17.774320   1.000000
    231        -17.768613   1.000000
    232        -17.766645   1.000000
    233        -17.762339   1.000000
    234        -17.761957   1.000000
    235        -17.759259   1.000000
    236        -17.757118   1.000000
    237        -17.756656   1.000000
    238        -17.754735   1.000000
    239        -17.747353   1.000000
    240        -17.742205   1.000000
    241        -17.741334   1.000000
    242        -17.739938   1.000000
    243        -17.738350   1.000000
    244        -17.737070   1.000000
    245        -17.733764   1.000000
    246        -17.731048   1.000000
    247        -17.730906   1.000000
    248        -17.730280   1.000000
    249        -17.729692   1.000000
    250        -17.727852   1.000000
    251        -17.727010   1.000000
    252        -17.725844   1.000000
    253        -17.724823   1.000000
    254        -17.724372   1.000000
    255        -17.723622   1.000000
    256        -17.722617   1.000000
    257        -17.721431   1.000000
    258        -17.721119   1.000000
    259        -17.715125   1.000000
    260        -17.710974   1.000000
    261        -17.709092   1.000000
    262        -17.708098   1.000000
    263        -17.706080   1.000000
    264        -17.705187   1.000000
    265        -17.704620   1.000000
    266        -17.702609   1.000000
    267        -17.700063   1.000000
    268        -17.699260   1.000000
    269        -17.675032   1.000000
    270        -17.673981   1.000000
    271        -17.668333   1.000000
    272        -17.664243   1.000000
    273        -17.663330   1.000000
    274        -17.661305   1.000000
    275        -17.661085   1.000000
    276        -17.659770   1.000000
    277        -17.658708   1.000000
    278        -17.658455   1.000000
    279        -17.656576   1.000000
    280        -17.652767   1.000000
    281        -17.648808   1.000000
    282        -17.648571   1.000000
    283        -17.645367   1.000000
    284        -17.643932   1.000000
    285        -17.643294   1.000000
    286        -17.643006   1.000000
    287        -17.641748   1.000000
    288        -17.640156   1.000000
    289        -17.634001   1.000000
    290        -17.633150   1.000000
    291        -17.630892   1.000000
    292        -17.630540   1.000000
    293        -17.629391   1.000000
    294        -17.628411   1.000000
    295        -17.627718   1.000000
    296        -17.626355   1.000000
    297        -17.621623   1.000000
    298        -17.619349   1.000000
    299        -17.616042   1.000000
    300        -17.614362   1.000000
    301        -17.614134   1.000000
    302        -17.613751   1.000000
    303        -17.612497   1.000000
    304        -17.610640   1.000000
    305        -17.605611   1.000000
    306        -17.605024   1.000000
    307        -17.603476   1.000000
    308        -17.602593   1.000000
    309        -17.601657   1.000000
    310        -17.600790   1.000000
    311        -17.598768   1.000000
    312        -17.596951   1.000000
    313        -17.594128   1.000000
    314        -17.593528   1.000000
    315        -17.591758   1.000000
    316        -17.591594   1.000000
    317        -17.590103   1.000000
    318        -17.588932   1.000000
    319        -17.588321   1.000000
    320        -17.587159   1.000000
    321        -17.586640   1.000000
    322        -17.585416   1.000000
    323        -17.584965   1.000000
    324        -17.584457   1.000000
    325        -17.584081   1.000000
    326        -17.583180   1.000000
    327        -17.582714   1.000000
    328        -17.582486   1.000000
    329        -17.581170   1.000000
    330        -17.580906   1.000000
    331        -17.580043   1.000000
    332        -17.579256   1.000000
    333        -17.578659   1.000000
    334        -17.577851   1.000000
    335        -17.577103   1.000000
    336        -17.576939   1.000000
    337        -17.576461   1.000000
    338        -17.574096   1.000000
    339        -17.571513   1.000000
    340        -17.571034   1.000000
    341        -17.570043   1.000000
    342        -17.569051   1.000000
    343        -17.568690   1.000000
    344        -17.568563   1.000000
    345        -17.558443   1.000000
    346        -17.553712   1.000000
    347        -17.553531   1.000000
    348        -17.549162   1.000000
    349        -17.548181   1.000000
    350        -17.547378   1.000000
    351        -17.547148   1.000000
    352        -17.544592   1.000000
    353        -17.543605   1.000000
    354        -17.543224   1.000000
    355        -17.540801   1.000000
    356        -17.540285   1.000000
    357        -17.539505   1.000000
    358        -17.539051   1.000000
    359        -17.537980   1.000000
    360        -17.536814   1.000000
    361        -17.535012   1.000000
    362        -17.533205   1.000000
    363        -17.527410   1.000000
    364        -17.523741   1.000000
    365        -17.516863   1.000000
    366        -17.515377   1.000000
    367        -17.503914   1.000000
    368        -17.503143   1.000000
    369        -17.501812   1.000000
    370        -17.500004   1.000000
    371        -17.498642   1.000000
    372        -17.495666   1.000000
    373        -17.492511   1.000000
    374        -17.489633   1.000000
    375        -17.487569   1.000000
    376        -17.484472   1.000000
    377        -17.476409   1.000000
    378        -17.474334   1.000000
    379        -17.457087   1.000000
    380        -17.455896   1.000000
    381        -17.454505   1.000000
    382        -17.449508   1.000000
    383        -17.438592   1.000000
    384        -17.435794   1.000000
    385          2.455553   1.000000
    386          3.818647   1.000000
    387          3.892034   1.000000
    388          4.098424   1.000000
    389          4.194714   1.000000
    390          4.576058   1.000000
    391          4.633105   1.000000
    392          4.810321   1.000000
    393          4.870610   1.000000
    394          5.071801   1.000000
    395          5.126733   1.000000
    396          5.623862   1.000000
    397          5.632671   1.000000
    398          5.654842   1.000000
    399          5.675929   1.000000
    400          5.742157   1.000000
    401          5.743640   1.000000
    402          5.745689   1.000000
    403          5.776263   1.000000
    404          5.833044   1.000000
    405          5.834534   1.000000
    406          5.836614   1.000000
    407          5.853732   1.000000
    408          5.863972   1.000000
    409          5.886315   1.000000
    410          5.909347   1.000000
    411          5.972893   1.000000
    412          6.051725   1.000000
    413          6.065860   1.000000
    414          6.183255   1.000000
    415          6.192917   1.000000
    416          6.229683   1.000000
    417          6.229972   1.000000
    418          6.233531   1.000000
    419          6.234740   1.000000
    420          6.240877   1.000000
    421          6.242435   1.000000
    422          6.242719   1.000000
    423          6.252295   1.000000
    424          6.258914   1.000000
    425          6.276301   1.000000
    426          6.290541   1.000000
    427          6.291518   1.000000
    428          6.293310   1.000000
    429          6.294581   1.000000
    430          6.300557   1.000000
    431          6.302694   1.000000
    432          6.304163   1.000000
    433          6.369013   1.000000
    434          6.405298   1.000000
    435          6.407038   1.000000
    436          6.409424   1.000000
    437          6.471832   1.000000
    438          6.511270   1.000000
    439          6.512899   1.000000
    440          6.514184   1.000000
    441          6.533426   1.000000
    442          6.547428   1.000000
    443          6.550251   1.000000
    444          6.550894   1.000000
    445          6.627385   1.000000
    446          6.712213   1.000000
    447          6.714590   1.000000
    448          6.716816   1.000000
    449          6.747879   1.000000
    450          6.822967   1.000000
    451          6.824264   1.000000
    452          6.827569   1.000000
    453          6.831145   1.000000
    454          6.831817   1.000000
    455          6.843443   1.000000
    456          6.851091   1.000000
    457          6.857234   1.000000
    458          6.871310   1.000000
    459          6.873997   1.000000
    460          6.875392   1.000000
    461          6.890413   1.000000
    462          6.921674   1.000000
    463          6.927396   1.000000
    464          6.930271   1.000000
    465          6.968690   1.000000
    466          6.974801   1.000000
    467          7.049385   1.000000
    468          7.169244   1.000000
    469          7.174953   1.000000
    470          7.176869   1.000000
    471          7.182061   1.000000
    472          7.182554   1.000000
    473          7.186845   1.000000
    474          7.215276   1.000000
    475          7.217966   1.000000
    476          7.222714   1.000000
    477          7.233042   1.000000
    478          7.246778   1.000000
    479          7.249954   1.000000
    480          7.250905   1.000000
    481          7.254581   1.000000
    482          7.256447   1.000000
    483          7.319927   1.000000
    484          7.406980   1.000000
    485          7.407891   1.000000
    486          7.413861   1.000000
    487          7.415213   1.000000
    488          7.418615   1.000000
    489          7.424688   1.000000
    490          7.445103   1.000000
    491          7.445608   1.000000
    492          7.447735   1.000000
    493          7.450872   1.000000
    494          7.451176   1.000000
    495          7.465244   1.000000
    496          7.469806   1.000000
    497          7.525197   1.000000
    498          7.554315   1.000000
    499          7.557615   1.000000
    500          7.561496   1.000000
    501          7.575371   1.000000
    502          7.578328   1.000000
    503          7.631004   1.000000
    504          7.649079   1.000000
    505          7.706946   1.000000
    506          7.737753   1.000000
    507          7.775132   1.000000
    508          7.868078   1.000000
    509          7.879217   1.000000
    510          7.928695   1.000000
    511          7.929511   1.000000
    512          7.931594   1.000000
    513          7.931763   1.000000
    514          7.933466   1.000000
    515          7.937598   1.000000
    516          7.947421   1.000000
    517          7.976186   1.000000
    518          8.014226   1.000000
    519          8.018782   1.000000
    520          8.038167   1.000000
    521          8.039580   1.000000
    522          8.042869   1.000000
    523          8.055623   1.000000
    524          8.068645   1.000000
    525          8.069183   1.000000
    526          8.073442   1.000000
    527          8.097265   1.000000
    528          8.119489   1.000000
    529          8.119935   1.000000
    530          8.121548   1.000000
    531          8.124899   1.000000
    532          8.129554   1.000000
    533          8.130057   1.000000
    534          8.133790   1.000000
    535          8.134805   1.000000
    536          8.137126   1.000000
    537          8.185846   1.000000
    538          8.226085   1.000002
    539          8.230113   1.000002
    540          8.236412   1.000002
    541          8.238195   1.000002
    542          8.238660   1.000002
    543          8.240850   1.000003
    544          8.241487   1.000003
    545          8.242604   1.000003
    546          8.243548   1.000003
    547          8.248240   1.000003
    548          8.248497   1.000003
    549          8.260675   1.000005
    550          8.261719   1.000005
    551          8.263960   1.000006
    552          8.264933   1.000006
    553          8.321300   1.000034
    554          8.335841   1.000052
    555          8.337053   1.000054
    556          8.340968   1.000061
    557          8.371285   1.000142
    558          8.388040   1.000222
    559          8.415601   1.000447
    560          8.426959   1.000589
    561          8.461752   1.001312
    562          8.463921   1.001376
    563          8.491117   1.002441
    564          8.504963   1.003214
    565          8.516336   1.003992
    566          8.530540   1.005176
    567          8.686453   1.033481
    568          8.705958   1.035357
    569          8.765309   1.019674
    570          8.779831   1.008045
    571          8.798738   0.986614
    572          8.822709   0.947829
    573          8.932603   0.598722
    574          8.981261   0.394519
    575          9.002111   0.310958
    576          9.014578   0.263946
    577          9.041457   0.172763
    578          9.063949   0.109147
    579          9.069094   0.096358
    580          9.071809   0.089876
    581          9.074297   0.084103
    582          9.084466   0.062123
    583          9.092660   0.046300
    584          9.101399   0.031237
    585          9.105672   0.024539
    586          9.111093   0.016657
    587          9.133627  -0.009185
    588          9.152313  -0.023041
    589          9.152563  -0.023185
    590          9.163299  -0.028465
    591          9.193884  -0.035249
    592          9.202492  -0.035450
    593          9.207757  -0.035293
    594          9.210862  -0.035112
    595          9.242151  -0.030618
    596          9.257183  -0.027412
    597          9.264066  -0.025849
    598          9.272180  -0.023976
    599          9.272998  -0.023787
    600          9.274626  -0.023410
    601          9.283488  -0.021370
    602          9.289307  -0.020053
    603          9.293911  -0.019030
    604          9.296950  -0.018365
    605          9.319641  -0.013763
    606          9.322946  -0.013153
    607          9.333411  -0.011335
    608          9.338842  -0.010461
    609          9.340628  -0.010184
    610          9.343505  -0.009748
    611          9.346150  -0.009359
    612          9.349669  -0.008859
    613          9.353070  -0.008395
    614          9.354522  -0.008202
    615          9.364266  -0.006992
    616          9.369518  -0.006399
    617          9.372887  -0.006040
    618          9.373361  -0.005991
    619          9.445261  -0.001471
    620          9.451259  -0.001290
    621          9.466794  -0.000909
    622          9.476276  -0.000729
    623          9.478514  -0.000692
    624          9.490618  -0.000518
    625          9.639972  -0.000007
    626          9.647691  -0.000006
    627          9.681282  -0.000002
    628          9.713883  -0.000001
    629          9.732219  -0.000000
    630          9.737490  -0.000000
    631          9.741145  -0.000000
    632          9.744505  -0.000000
    633          9.750152  -0.000000
    634          9.753258  -0.000000
    635          9.762210  -0.000000
    636          9.763087  -0.000000
    637          9.783913  -0.000000
    638          9.785120  -0.000000
    639          9.791245  -0.000000
    640          9.795467  -0.000000
    641          9.797287  -0.000000
    642          9.799234  -0.000000
    643          9.801253  -0.000000
    644          9.803066  -0.000000
    645          9.808204  -0.000000
    646          9.809451  -0.000000
    647          9.815761  -0.000000
    648          9.824002  -0.000000
    649          9.824663  -0.000000
    650          9.836042  -0.000000
    651          9.846487  -0.000000
    652          9.869664  -0.000000
    653          9.881212  -0.000000
    654          9.884203  -0.000000
    655          9.888583  -0.000000
    656          9.895759  -0.000000
    657          9.925047  -0.000000
    658          9.925498  -0.000000
    659          9.939378  -0.000000
    660          9.939922  -0.000000
    661          9.943736  -0.000000
    662          9.944282  -0.000000
    663          9.957375  -0.000000
    664          9.963398  -0.000000
    665          9.963924  -0.000000
    666          9.969454  -0.000000
    667          9.971899  -0.000000
    668          9.973163  -0.000000
    669         10.002637  -0.000000
    670         10.004944  -0.000000
    671         10.010071  -0.000000
    672         10.014125  -0.000000
    673         10.046865  -0.000000
    674         10.054558  -0.000000
    675         10.067467  -0.000000
    676         10.096097  -0.000000
    677         10.097097  -0.000000
    678         10.100610  -0.000000
    679         10.102956  -0.000000
    680         10.105070  -0.000000
    681         10.109662  -0.000000
    682         10.110333  -0.000000
    683         10.125967  -0.000000
    684         10.128650  -0.000000
    685         10.130104  -0.000000
    686         10.138917  -0.000000
    687         10.201380  -0.000000
    688         10.216313  -0.000000
    689         10.227189  -0.000000
    690         10.231260  -0.000000
    691         10.283848  -0.000000
    692         10.294173  -0.000000
 
  0.2500000E+00  0.2500000E+00  0.3333333E+00  0.4166667E-01
      1        -39.897150   1.000000
      2        -39.880712   1.000000
      3        -39.874051   1.000000
      4        -39.870752   1.000000
      5        -39.863236   1.000000
      6        -39.859619   1.000000
      7        -39.845175   1.000000
      8        -39.841663   1.000000
      9        -39.835248   1.000000
     10        -39.830427   1.000000
     11        -39.826415   1.000000
     12        -39.825580   1.000000
     13        -39.821762   1.000000
     14        -39.818159   1.000000
     15        -39.815344   1.000000
     16        -39.811763   1.000000
     17        -39.806517   1.000000
     18        -39.802928   1.000000
     19        -39.801187   1.000000
     20        -39.799962   1.000000
     21        -39.797594   1.000000
     22        -39.794320   1.000000
     23        -39.793966   1.000000
     24        -39.792387   1.000000
     25        -39.790059   1.000000
     26        -39.787041   1.000000
     27        -39.785121   1.000000
     28        -39.783093   1.000000
     29        -39.782692   1.000000
     30        -39.780390   1.000000
     31        -39.778754   1.000000
     32        -39.777836   1.000000
     33        -39.776151   1.000000
     34        -39.775128   1.000000
     35        -39.773574   1.000000
     36        -39.771758   1.000000
     37        -39.769866   1.000000
     38        -39.768358   1.000000
     39        -39.767225   1.000000
     40        -39.764707   1.000000
     41        -39.762692   1.000000
     42        -39.761476   1.000000
     43        -39.760398   1.000000
     44        -39.759507   1.000000
     45        -39.758266   1.000000
     46        -39.757608   1.000000
     47        -39.756765   1.000000
     48        -39.755385   1.000000
     49        -39.755037   1.000000
     50        -39.754755   1.000000
     51        -39.754194   1.000000
     52        -39.753087   1.000000
     53        -39.752614   1.000000
     54        -39.750816   1.000000
     55        -39.750251   1.000000
     56        -39.749093   1.000000
     57        -39.747747   1.000000
     58        -39.746293   1.000000
     59        -39.746106   1.000000
     60        -39.744815   1.000000
     61        -39.744085   1.000000
     62        -39.742710   1.000000
     63        -39.741434   1.000000
     64        -39.740741   1.000000
     65        -39.740121   1.000000
     66        -39.739589   1.000000
     67        -39.739171   1.000000
     68        -39.738160   1.000000
     69        -39.737019   1.000000
     70        -39.736401   1.000000
     71        -39.735460   1.000000
     72        -39.734150   1.000000
     73        -39.733281   1.000000
     74        -39.732625   1.000000
     75        -39.731870   1.000000
     76        -39.731121   1.000000
     77        -39.730374   1.000000
     78        -39.729096   1.000000
     79        -39.728295   1.000000
     80        -39.727257   1.000000
     81        -39.725992   1.000000
     82        -39.725451   1.000000
     83        -39.724545   1.000000
     84        -39.724142   1.000000
     85        -39.723852   1.000000
     86        -39.723173   1.000000
     87        -39.722895   1.000000
     88        -39.722326   1.000000
     89        -39.720484   1.000000
     90        -39.719512   1.000000
     91        -39.716152   1.000000
     92        -39.715917   1.000000
     93        -39.715282   1.000000
     94        -39.714564   1.000000
     95        -39.714208   1.000000
     96        -39.713312   1.000000
     97        -18.359601   1.000000
     98        -18.326502   1.000000
     99        -18.314679   1.000000
    100        -18.310172   1.000000
    101        -18.292588   1.000000
    102        -18.283653   1.000000
    103        -18.278077   1.000000
    104        -18.276373   1.000000
    105        -18.271097   1.000000
    106        -18.265568   1.000000
    107        -18.263330   1.000000
    108        -18.259703   1.000000
    109        -18.257223   1.000000
    110        -18.256619   1.000000
    111        -18.253180   1.000000
    112        -18.249202   1.000000
    113        -18.242869   1.000000
    114        -18.239762   1.000000
    115        -18.235494   1.000000
    116        -18.235381   1.000000
    117        -18.233406   1.000000
    118        -18.232267   1.000000
    119        -18.230510   1.000000
    120        -18.228485   1.000000
    121        -18.222792   1.000000
    122        -18.219640   1.000000
    123        -18.218310   1.000000
    124        -18.217652   1.000000
    125        -18.216502   1.000000
    126        -18.215430   1.000000
    127        -18.214035   1.000000
    128        -18.213366   1.000000
    129        -18.211406   1.000000
    130        -18.209640   1.000000
    131        -18.203688   1.000000
    132        -18.199603   1.000000
    133        -18.197454   1.000000
    134        -18.196923   1.000000
    135        -18.195260   1.000000
    136        -18.193594   1.000000
    137        -18.191036   1.000000
    138        -18.187374   1.000000
    139        -18.180783   1.000000
    140        -18.176147   1.000000
    141        -18.173125   1.000000
    142        -18.172405   1.000000
    143        -18.169471   1.000000
    144        -18.168391   1.000000
    145        -18.166297   1.000000
    146        -18.161782   1.000000
    147        -18.156517   1.000000
    148        -18.144137   1.000000
    149        -18.125795   1.000000
    150        -18.119870   1.000000
    151        -18.117014   1.000000
    152        -18.115394   1.000000
    153        -18.114350   1.000000
    154        -18.112858   1.000000
    155        -18.112540   1.000000
    156        -18.111328   1.000000
    157        -18.110392   1.000000
    158        -18.109834   1.000000
    159        -18.091945   1.000000
    160        -18.086913   1.000000
    161        -18.079391   1.000000
    162        -18.064096   1.000000
    163        -18.060516   1.000000
    164        -18.054815   1.000000
    165        -18.052160   1.000000
    166        -18.051825   1.000000
    167        -18.049360   1.000000
    168        -18.047112   1.000000
    169        -18.046234   1.000000
    170        -18.045028   1.000000
    171        -18.043683   1.000000
    172        -18.041899   1.000000
    173        -18.040223   1.000000
    174        -18.036562   1.000000
    175        -18.035297   1.000000
    176        -18.032242   1.000000
    177        -18.029244   1.000000
    178        -18.028125   1.000000
    179        -18.006575   1.000000
    180        -17.988137   1.000000
    181        -17.985010   1.000000
    182        -17.981499   1.000000
    183        -17.978265   1.000000
    184        -17.973864   1.000000
    185        -17.968841   1.000000
    186        -17.965087   1.000000
    187        -17.958499   1.000000
    188        -17.953111   1.000000
    189        -17.943924   1.000000
    190        -17.941699   1.000000
    191        -17.940758   1.000000
    192        -17.934613   1.000000
    193        -17.932459   1.000000
    194        -17.928149   1.000000
    195        -17.924679   1.000000
    196        -17.918402   1.000000
    197        -17.914129   1.000000
    198        -17.912566   1.000000
    199        -17.910697   1.000000
    200        -17.901159   1.000000
    201        -17.897957   1.000000
    202        -17.896090   1.000000
    203        -17.893192   1.000000
    204        -17.891996   1.000000
    205        -17.890707   1.000000
    206        -17.889811   1.000000
    207        -17.888472   1.000000
    208        -17.885783   1.000000
    209        -17.877082   1.000000
    210        -17.867713   1.000000
    211        -17.862777   1.000000
    212        -17.857437   1.000000
    213        -17.855624   1.000000
    214        -17.852474   1.000000
    215        -17.836764   1.000000
    216        -17.835688   1.000000
    217        -17.832845   1.000000
    218        -17.826273   1.000000
    219        -17.824531   1.000000
    220        -17.821343   1.000000
    221        -17.817067   1.000000
    222        -17.815390   1.000000
    223        -17.805769   1.000000
    224        -17.795963   1.000000
    225        -17.786299   1.000000
    226        -17.776145   1.000000
    227        -17.771618   1.000000
    228        -17.770635   1.000000
    229        -17.766799   1.000000
    230        -17.765279   1.000000
    231        -17.762616   1.000000
    232        -17.761655   1.000000
    233        -17.758571   1.000000
    234        -17.757381   1.000000
    235        -17.753328   1.000000
    236        -17.752365   1.000000
    237        -17.747949   1.000000
    238        -17.743589   1.000000
    239        -17.741473   1.000000
    240        -17.737461   1.000000
    241        -17.736735   1.000000
    242        -17.733609   1.000000
    243        -17.731359   1.000000
    244        -17.729961   1.000000
    245        -17.728076   1.000000
    246        -17.727378   1.000000
    247        -17.725581   1.000000
    248        -17.724315   1.000000
    249        -17.723518   1.000000
    250        -17.722745   1.000000
    251        -17.721412   1.000000
    252        -17.720535   1.000000
    253        -17.720060   1.000000
    254        -17.717684   1.000000
    255        -17.715426   1.000000
    256        -17.714661   1.000000
    257        -17.712270   1.000000
    258        -17.711276   1.000000
    259        -17.710517   1.000000
    260        -17.709022   1.000000
    261        -17.705996   1.000000
    262        -17.705128   1.000000
    263        -17.702249   1.000000
    264        -17.699113   1.000000
    265        -17.697332   1.000000
    266        -17.688848   1.000000
    267        -17.684863   1.000000
    268        -17.683218   1.000000
    269        -17.682249   1.000000
    270        -17.681426   1.000000
    271        -17.679155   1.000000
    272        -17.678442   1.000000
    273        -17.676645   1.000000
    274        -17.672310   1.000000
    275        -17.670508   1.000000
    276        -17.668830   1.000000
    277        -17.668177   1.000000
    278        -17.667419   1.000000
    279        -17.665214   1.000000
    280        -17.664811   1.000000
    281        -17.653749   1.000000
    282        -17.651986   1.000000
    283        -17.650293   1.000000
    284        -17.647074   1.000000
    285        -17.642025   1.000000
    286        -17.640106   1.000000
    287        -17.635984   1.000000
    288        -17.633411   1.000000
    289        -17.630676   1.000000
    290        -17.628756   1.000000
    291        -17.627273   1.000000
    292        -17.625382   1.000000
    293        -17.624425   1.000000
    294        -17.624001   1.000000
    295        -17.623318   1.000000
    296        -17.622735   1.000000
    297        -17.621212   1.000000
    298        -17.620649   1.000000
    299        -17.619448   1.000000
    300        -17.617368   1.000000
    301        -17.616297   1.000000
    302        -17.615531   1.000000
    303        -17.614291   1.000000
    304        -17.612696   1.000000
    305        -17.611573   1.000000
    306        -17.611107   1.000000
    307        -17.610560   1.000000
    308        -17.608441   1.000000
    309        -17.607463   1.000000
    310        -17.602256   1.000000
    311        -17.601540   1.000000
    312        -17.599342   1.000000
    313        -17.596007   1.000000
    314        -17.595620   1.000000
    315        -17.594101   1.000000
    316        -17.593237   1.000000
    317        -17.591795   1.000000
    318        -17.590868   1.000000
    319        -17.590432   1.000000
    320        -17.589485   1.000000
    321        -17.587439   1.000000
    322        -17.587080   1.000000
    323        -17.586303   1.000000
    324        -17.585220   1.000000
    325        -17.584617   1.000000
    326        -17.584259   1.000000
    327        -17.583120   1.000000
    328        -17.582245   1.000000
    329        -17.581681   1.000000
    330        -17.581205   1.000000
    331        -17.580752   1.000000
    332        -17.580021   1.000000
    333        -17.579243   1.000000
    334        -17.578134   1.000000
    335        -17.577457   1.000000
    336        -17.575851   1.000000
    337        -17.574657   1.000000
    338        -17.573565   1.000000
    339        -17.570960   1.000000
    340        -17.570039   1.000000
    341        -17.568049   1.000000
    342        -17.567140   1.000000
    343        -17.563965   1.000000
    344        -17.562892   1.000000
    345        -17.562298   1.000000
    346        -17.555946   1.000000
    347        -17.555040   1.000000
    348        -17.553926   1.000000
    349        -17.552838   1.000000
    350        -17.544513   1.000000
    351        -17.543453   1.000000
    352        -17.542478   1.000000
    353        -17.540687   1.000000
    354        -17.539016   1.000000
    355        -17.537484   1.000000
    356        -17.536089   1.000000
    357        -17.535131   1.000000
    358        -17.534212   1.000000
    359        -17.531119   1.000000
    360        -17.528242   1.000000
    361        -17.526707   1.000000
    362        -17.522711   1.000000
    363        -17.521766   1.000000
    364        -17.520545   1.000000
    365        -17.519857   1.000000
    366        -17.517752   1.000000
    367        -17.516947   1.000000
    368        -17.516423   1.000000
    369        -17.514993   1.000000
    370        -17.512722   1.000000
    371        -17.511520   1.000000
    372        -17.494484   1.000000
    373        -17.489872   1.000000
    374        -17.487403   1.000000
    375        -17.473544   1.000000
    376        -17.470656   1.000000
    377        -17.468999   1.000000
    378        -17.467403   1.000000
    379        -17.464107   1.000000
    380        -17.455573   1.000000
    381        -17.453998   1.000000
    382        -17.449475   1.000000
    383        -17.449089   1.000000
    384        -17.436274   1.000000
    385          2.455508   1.000000
    386          3.757531   1.000000
    387          4.025451   1.000000
    388          4.115350   1.000000
    389          4.196936   1.000000
    390          4.379570   1.000000
    391          4.478759   1.000000
    392          5.004579   1.000000
    393          5.150522   1.000000
    394          5.182058   1.000000
    395          5.312159   1.000000
    396          5.319361   1.000000
    397          5.332380   1.000000
    398          5.398169   1.000000
    399          5.556797   1.000000
    400          5.742442   1.000000
    401          5.789266   1.000000
    402          5.796343   1.000000
    403          5.817606   1.000000
    404          5.830057   1.000000
    405          5.857579   1.000000
    406          5.862077   1.000000
    407          5.904676   1.000000
    408          6.002405   1.000000
    409          6.005220   1.000000
    410          6.007733   1.000000
    411          6.035370   1.000000
    412          6.106218   1.000000
    413          6.107993   1.000000
    414          6.114492   1.000000
    415          6.116855   1.000000
    416          6.125945   1.000000
    417          6.137142   1.000000
    418          6.155194   1.000000
    419          6.160370   1.000000
    420          6.182743   1.000000
    421          6.208772   1.000000
    422          6.212427   1.000000
    423          6.227940   1.000000
    424          6.261335   1.000000
    425          6.286368   1.000000
    426          6.310859   1.000000
    427          6.312717   1.000000
    428          6.324234   1.000000
    429          6.335286   1.000000
    430          6.361897   1.000000
    431          6.396166   1.000000
    432          6.407801   1.000000
    433          6.440672   1.000000
    434          6.453227   1.000000
    435          6.472585   1.000000
    436          6.500975   1.000000
    437          6.516565   1.000000
    438          6.518393   1.000000
    439          6.527778   1.000000
    440          6.533723   1.000000
    441          6.541213   1.000000
    442          6.548710   1.000000
    443          6.560372   1.000000
    444          6.583911   1.000000
    445          6.592738   1.000000
    446          6.619680   1.000000
    447          6.644117   1.000000
    448          6.668120   1.000000
    449          6.677264   1.000000
    450          6.686668   1.000000
    451          6.695612   1.000000
    452          6.701717   1.000000
    453          6.747335   1.000000
    454          6.784474   1.000000
    455          6.810721   1.000000
    456          6.817993   1.000000
    457          6.848566   1.000000
    458          6.903172   1.000000
    459          6.906161   1.000000
    460          6.910883   1.000000
    461          6.922771   1.000000
    462          6.955932   1.000000
    463          7.002372   1.000000
    464          7.005128   1.000000
    465          7.017081   1.000000
    466          7.043691   1.000000
    467          7.058928   1.000000
    468          7.121816   1.000000
    469          7.134004   1.000000
    470          7.198036   1.000000
    471          7.202030   1.000000
    472          7.204885   1.000000
    473          7.208288   1.000000
    474          7.220009   1.000000
    475          7.226310   1.000000
    476          7.240114   1.000000
    477          7.254084   1.000000
    478          7.260310   1.000000
    479          7.269928   1.000000
    480          7.280421   1.000000
    481          7.292209   1.000000
    482          7.304552   1.000000
    483          7.307944   1.000000
    484          7.326561   1.000000
    485          7.339667   1.000000
    486          7.354243   1.000000
    487          7.366069   1.000000
    488          7.389726   1.000000
    489          7.404664   1.000000
    490          7.417982   1.000000
    491          7.428459   1.000000
    492          7.442810   1.000000
    493          7.459560   1.000000
    494          7.482416   1.000000
    495          7.488597   1.000000
    496          7.548351   1.000000
    497          7.587935   1.000000
    498          7.591483   1.000000
    499          7.617384   1.000000
    500          7.638652   1.000000
    501          7.659566   1.000000
    502          7.693996   1.000000
    503          7.724974   1.000000
    504          7.755251   1.000000
    505          7.782424   1.000000
    506          7.788250   1.000000
    507          7.791462   1.000000
    508          7.796066   1.000000
    509          7.808868   1.000000
    510          7.822655   1.000000
    511          7.836578   1.000000
    512          7.854138   1.000000
    513          7.865330   1.000000
    514          7.866146   1.000000
    515          7.888007   1.000000
    516          7.919236   1.000000
    517          7.930638   1.000000
    518          7.933927   1.000000
    519          7.942514   1.000000
    520          7.952065   1.000000
    521          7.966071   1.000000
    522          7.980057   1.000000
    523          8.008716   1.000000
    524          8.029727   1.000000
    525          8.039952   1.000000
    526          8.057532   1.000000
    527          8.075183   1.000000
    528          8.101373   1.000000
    529          8.107368   1.000000
    530          8.126684   1.000000
    531          8.129170   1.000000
    532          8.132921   1.000000
    533          8.138383   1.000000
    534          8.142387   1.000000
    535          8.165005   1.000000
    536          8.187391   1.000000
    537          8.200313   1.000001
    538          8.208345   1.000001
    539          8.217480   1.000001
    540          8.234836   1.000002
    541          8.235417   1.000002
    542          8.243614   1.000003
    543          8.245713   1.000003
    544          8.251015   1.000004
    545          8.259642   1.000005
    546          8.270597   1.000007
    547          8.291152   1.000014
    548          8.298093   1.000017
    549          8.306653   1.000022
    550          8.311539   1.000025
    551          8.321910   1.000035
    552          8.330391   1.000045
    553          8.334943   1.000051
    554          8.343227   1.000065
    555          8.344469   1.000067
    556          8.348358   1.000075
    557          8.350926   1.000081
    558          8.353050   1.000086
    559          8.361422   1.000108
    560          8.364831   1.000119
    561          8.390250   1.000235
    562          8.394815   1.000264
    563          8.579386   1.011430
    564          8.619363   1.019261
    565          8.632477   1.022227
    566          8.694333   1.034487
    567          8.709545   1.035448
    568          8.788853   0.998761
    569          8.791308   0.995942
    570          8.814239   0.963102
    571          8.845221   0.898532
    572          8.852741   0.879219
    573          8.862518   0.852007
    574          8.869633   0.830746
    575          8.872652   0.821364
    576          8.881384   0.793064
    577          8.926227   0.624907
    578          8.938176   0.575563
    579          9.008701   0.285781
    580          9.022798   0.234470
    581          9.028550   0.214645
    582          9.036281   0.189110
    583          9.044541   0.163316
    584          9.081087   0.069138
    585          9.095210   0.041713
    586          9.115716   0.010462
    587          9.154567  -0.024306
    588          9.166578  -0.029740
    589          9.187701  -0.034706
    590          9.207113  -0.035323
    591          9.212475  -0.034994
    592          9.231391  -0.032600
    593          9.241389  -0.030769
    594          9.251688  -0.028626
    595          9.266831  -0.025213
    596          9.284371  -0.021169
    597          9.287992  -0.020349
    598          9.293063  -0.019217
    599          9.297663  -0.018211
    600          9.299869  -0.017737
    601          9.308906  -0.015854
    602          9.310998  -0.015434
    603          9.314699  -0.014705
    604          9.317306  -0.014203
    605          9.320922  -0.013524
    606          9.326130  -0.012582
    607          9.332880  -0.011424
    608          9.337806  -0.010624
    609          9.344571  -0.009590
    610          9.351218  -0.008646
    611          9.372477  -0.006083
    612          9.412620  -0.002894
    613          9.422923  -0.002353
    614          9.460126  -0.001058
    615          9.485672  -0.000583
    616          9.491431  -0.000508
    617          9.499712  -0.000414
    618          9.503370  -0.000378
    619          9.506339  -0.000351
    620          9.517387  -0.000265
    621          9.526850  -0.000207
    622          9.535345  -0.000165
    623          9.549094  -0.000113
    624          9.557216  -0.000091
    625          9.564894  -0.000073
    626          9.578314  -0.000050
    627          9.581536  -0.000045
    628          9.585712  -0.000040
    629          9.602295  -0.000024
    630          9.606637  -0.000021
    631          9.614667  -0.000017
    632          9.620218  -0.000014
    633          9.625480  -0.000012
    634          9.633957  -0.000009
    635          9.663024  -0.000003
    636          9.694195  -0.000001
    637          9.699449  -0.000001
    638          9.712282  -0.000001
    639          9.726185  -0.000000
    640          9.740519  -0.000000
    641          9.749153  -0.000000
    642          9.759182  -0.000000
    643          9.764577  -0.000000
    644          9.783719  -0.000000
    645          9.798775  -0.000000
    646          9.806846  -0.000000
    647          9.813036  -0.000000
    648          9.832741  -0.000000
    649          9.841444  -0.000000
    650          9.854531  -0.000000
    651          9.877284  -0.000000
    652          9.881374  -0.000000
    653          9.882592  -0.000000
    654          9.892333  -0.000000
    655          9.899131  -0.000000
    656          9.906212  -0.000000
    657          9.916994  -0.000000
    658          9.924554  -0.000000
    659          9.944729  -0.000000
    660          9.950553  -0.000000
    661          9.960060  -0.000000
    662          9.993202  -0.000000
    663         10.004911  -0.000000
    664         10.022998  -0.000000
    665         10.031180  -0.000000
    666         10.044130  -0.000000
    667         10.057355  -0.000000
    668         10.062880  -0.000000
    669         10.067950  -0.000000
    670         10.072097  -0.000000
    671         10.078392  -0.000000
    672         10.080820  -0.000000
    673         10.088384  -0.000000
    674         10.098071  -0.000000
    675         10.101058  -0.000000
    676         10.111744  -0.000000
    677         10.118126  -0.000000
    678         10.124234  -0.000000
    679         10.128057  -0.000000
    680         10.130543  -0.000000
    681         10.135634  -0.000000
    682         10.148118  -0.000000
    683         10.156890  -0.000000
    684         10.165127  -0.000000
    685         10.170560  -0.000000
    686         10.175104  -0.000000
    687         10.177729  -0.000000
    688         10.184900  -0.000000
    689         10.188546  -0.000000
    690         10.194041  -0.000000
    691         10.203455  -0.000000
    692         10.205992  -0.000000
 
 -0.2500000E+00  0.5000000E+00  0.3333333E+00  0.4166667E-01
      1        -39.897163   1.000000
      2        -39.880659   1.000000
      3        -39.873990   1.000000
      4        -39.870883   1.000000
      5        -39.863081   1.000000
      6        -39.859768   1.000000
      7        -39.845144   1.000000
      8        -39.841795   1.000000
      9        -39.835165   1.000000
     10        -39.830356   1.000000
     11        -39.826389   1.000000
     12        -39.825616   1.000000
     13        -39.821777   1.000000
     14        -39.818163   1.000000
     15        -39.815405   1.000000
     16        -39.811678   1.000000
     17        -39.806501   1.000000
     18        -39.802864   1.000000
     19        -39.801099   1.000000
     20        -39.799943   1.000000
     21        -39.797559   1.000000
     22        -39.794437   1.000000
     23        -39.794048   1.000000
     24        -39.792437   1.000000
     25        -39.790108   1.000000
     26        -39.787051   1.000000
     27        -39.785217   1.000000
     28        -39.783077   1.000000
     29        -39.782682   1.000000
     30        -39.780333   1.000000
     31        -39.778729   1.000000
     32        -39.777914   1.000000
     33        -39.776087   1.000000
     34        -39.775099   1.000000
     35        -39.773571   1.000000
     36        -39.771713   1.000000
     37        -39.769864   1.000000
     38        -39.768390   1.000000
     39        -39.767243   1.000000
     40        -39.764680   1.000000
     41        -39.762761   1.000000
     42        -39.761398   1.000000
     43        -39.760400   1.000000
     44        -39.759313   1.000000
     45        -39.758319   1.000000
     46        -39.757753   1.000000
     47        -39.756799   1.000000
     48        -39.755538   1.000000
     49        -39.754863   1.000000
     50        -39.754751   1.000000
     51        -39.754234   1.000000
     52        -39.753015   1.000000
     53        -39.752527   1.000000
     54        -39.750857   1.000000
     55        -39.750292   1.000000
     56        -39.749099   1.000000
     57        -39.747754   1.000000
     58        -39.746262   1.000000
     59        -39.746101   1.000000
     60        -39.744824   1.000000
     61        -39.744092   1.000000
     62        -39.742763   1.000000
     63        -39.741415   1.000000
     64        -39.740730   1.000000
     65        -39.740170   1.000000
     66        -39.739584   1.000000
     67        -39.739098   1.000000
     68        -39.738129   1.000000
     69        -39.737026   1.000000
     70        -39.736390   1.000000
     71        -39.735476   1.000000
     72        -39.734201   1.000000
     73        -39.733380   1.000000
     74        -39.732584   1.000000
     75        -39.731962   1.000000
     76        -39.730847   1.000000
     77        -39.730332   1.000000
     78        -39.729197   1.000000
     79        -39.728487   1.000000
     80        -39.727171   1.000000
     81        -39.725934   1.000000
     82        -39.725404   1.000000
     83        -39.724851   1.000000
     84        -39.723953   1.000000
     85        -39.723801   1.000000
     86        -39.723111   1.000000
     87        -39.722904   1.000000
     88        -39.722348   1.000000
     89        -39.720515   1.000000
     90        -39.719518   1.000000
     91        -39.716193   1.000000
     92        -39.715821   1.000000
     93        -39.715343   1.000000
     94        -39.714534   1.000000
     95        -39.714264   1.000000
     96        -39.713274   1.000000
     97        -18.359598   1.000000
     98        -18.326453   1.000000
     99        -18.314730   1.000000
    100        -18.310132   1.000000
    101        -18.292585   1.000000
    102        -18.283618   1.000000
    103        -18.278138   1.000000
    104        -18.276372   1.000000
    105        -18.271052   1.000000
    106        -18.265541   1.000000
    107        -18.263374   1.000000
    108        -18.259704   1.000000
    109        -18.257164   1.000000
    110        -18.256562   1.000000
    111        -18.253222   1.000000
    112        -18.249243   1.000000
    113        -18.243011   1.000000
    114        -18.239779   1.000000
    115        -18.235547   1.000000
    116        -18.235347   1.000000
    117        -18.233300   1.000000
    118        -18.232182   1.000000
    119        -18.230559   1.000000
    120        -18.228455   1.000000
    121        -18.222768   1.000000
    122        -18.219644   1.000000
    123        -18.218265   1.000000
    124        -18.217663   1.000000
    125        -18.216412   1.000000
    126        -18.215530   1.000000
    127        -18.214091   1.000000
    128        -18.213386   1.000000
    129        -18.211462   1.000000
    130        -18.209743   1.000000
    131        -18.203584   1.000000
    132        -18.199577   1.000000
    133        -18.197449   1.000000
    134        -18.196898   1.000000
    135        -18.195205   1.000000
    136        -18.193557   1.000000
    137        -18.191031   1.000000
    138        -18.187502   1.000000
    139        -18.180802   1.000000
    140        -18.176075   1.000000
    141        -18.173064   1.000000
    142        -18.172452   1.000000
    143        -18.169490   1.000000
    144        -18.168461   1.000000
    145        -18.166397   1.000000
    146        -18.161742   1.000000
    147        -18.156607   1.000000
    148        -18.144048   1.000000
    149        -18.125745   1.000000
    150        -18.119938   1.000000
    151        -18.117216   1.000000
    152        -18.115381   1.000000
    153        -18.114283   1.000000
    154        -18.112890   1.000000
    155        -18.112523   1.000000
    156        -18.111349   1.000000
    157        -18.110373   1.000000
    158        -18.109822   1.000000
    159        -18.091879   1.000000
    160        -18.086882   1.000000
    161        -18.079310   1.000000
    162        -18.064058   1.000000
    163        -18.060611   1.000000
    164        -18.054895   1.000000
    165        -18.051990   1.000000
    166        -18.051835   1.000000
    167        -18.049394   1.000000
    168        -18.047052   1.000000
    169        -18.046100   1.000000
    170        -18.045120   1.000000
    171        -18.043642   1.000000
    172        -18.041991   1.000000
    173        -18.040290   1.000000
    174        -18.036473   1.000000
    175        -18.035269   1.000000
    176        -18.032262   1.000000
    177        -18.029211   1.000000
    178        -18.028140   1.000000
    179        -18.006609   1.000000
    180        -17.988195   1.000000
    181        -17.984820   1.000000
    182        -17.981475   1.000000
    183        -17.978301   1.000000
    184        -17.973913   1.000000
    185        -17.968897   1.000000
    186        -17.965152   1.000000
    187        -17.958446   1.000000
    188        -17.953120   1.000000
    189        -17.943937   1.000000
    190        -17.941636   1.000000
    191        -17.940909   1.000000
    192        -17.934605   1.000000
    193        -17.932427   1.000000
    194        -17.928122   1.000000
    195        -17.924593   1.000000
    196        -17.918377   1.000000
    197        -17.914063   1.000000
    198        -17.912592   1.000000
    199        -17.910697   1.000000
    200        -17.901038   1.000000
    201        -17.898114   1.000000
    202        -17.896221   1.000000
    203        -17.893196   1.000000
    204        -17.891983   1.000000
    205        -17.890609   1.000000
    206        -17.889839   1.000000
    207        -17.888333   1.000000
    208        -17.885975   1.000000
    209        -17.877100   1.000000
    210        -17.867707   1.000000
    211        -17.862796   1.000000
    212        -17.857400   1.000000
    213        -17.855666   1.000000
    214        -17.852464   1.000000
    215        -17.836715   1.000000
    216        -17.835716   1.000000
    217        -17.832776   1.000000
    218        -17.826166   1.000000
    219        -17.824566   1.000000
    220        -17.821339   1.000000
    221        -17.817037   1.000000
    222        -17.815358   1.000000
    223        -17.805879   1.000000
    224        -17.796012   1.000000
    225        -17.786232   1.000000
    226        -17.776105   1.000000
    227        -17.771621   1.000000
    228        -17.770734   1.000000
    229        -17.766737   1.000000
    230        -17.765409   1.000000
    231        -17.762803   1.000000
    232        -17.761787   1.000000
    233        -17.758632   1.000000
    234        -17.757406   1.000000
    235        -17.753371   1.000000
    236        -17.752260   1.000000
    237        -17.747938   1.000000
    238        -17.743535   1.000000
    239        -17.741588   1.000000
    240        -17.737390   1.000000
    241        -17.736532   1.000000
    242        -17.733635   1.000000
    243        -17.731390   1.000000
    244        -17.729900   1.000000
    245        -17.727963   1.000000
    246        -17.727299   1.000000
    247        -17.725490   1.000000
    248        -17.724392   1.000000
    249        -17.723524   1.000000
    250        -17.722854   1.000000
    251        -17.721397   1.000000
    252        -17.720517   1.000000
    253        -17.720000   1.000000
    254        -17.717563   1.000000
    255        -17.715393   1.000000
    256        -17.714699   1.000000
    257        -17.712220   1.000000
    258        -17.711303   1.000000
    259        -17.710469   1.000000
    260        -17.709015   1.000000
    261        -17.706060   1.000000
    262        -17.705144   1.000000
    263        -17.702270   1.000000
    264        -17.699122   1.000000
    265        -17.697321   1.000000
    266        -17.688675   1.000000
    267        -17.684896   1.000000
    268        -17.683141   1.000000
    269        -17.682360   1.000000
    270        -17.681467   1.000000
    271        -17.679260   1.000000
    272        -17.678352   1.000000
    273        -17.676598   1.000000
    274        -17.672366   1.000000
    275        -17.670468   1.000000
    276        -17.668825   1.000000
    277        -17.668103   1.000000
    278        -17.667498   1.000000
    279        -17.665249   1.000000
    280        -17.664816   1.000000
    281        -17.653661   1.000000
    282        -17.652017   1.000000
    283        -17.650266   1.000000
    284        -17.647145   1.000000
    285        -17.641947   1.000000
    286        -17.640103   1.000000
    287        -17.635995   1.000000
    288        -17.633451   1.000000
    289        -17.630677   1.000000
    290        -17.628760   1.000000
    291        -17.627207   1.000000
    292        -17.625520   1.000000
    293        -17.624415   1.000000
    294        -17.623969   1.000000
    295        -17.623334   1.000000
    296        -17.622784   1.000000
    297        -17.621252   1.000000
    298        -17.620715   1.000000
    299        -17.619336   1.000000
    300        -17.617393   1.000000
    301        -17.616322   1.000000
    302        -17.615463   1.000000
    303        -17.614291   1.000000
    304        -17.612875   1.000000
    305        -17.611695   1.000000
    306        -17.610964   1.000000
    307        -17.610549   1.000000
    308        -17.608417   1.000000
    309        -17.607484   1.000000
    310        -17.602286   1.000000
    311        -17.601613   1.000000
    312        -17.599357   1.000000
    313        -17.596072   1.000000
    314        -17.595608   1.000000
    315        -17.594091   1.000000
    316        -17.593234   1.000000
    317        -17.591686   1.000000
    318        -17.590916   1.000000
    319        -17.590446   1.000000
    320        -17.589419   1.000000
    321        -17.587406   1.000000
    322        -17.586954   1.000000
    323        -17.586285   1.000000
    324        -17.585347   1.000000
    325        -17.584697   1.000000
    326        -17.584256   1.000000
    327        -17.583148   1.000000
    328        -17.582374   1.000000
    329        -17.581637   1.000000
    330        -17.581140   1.000000
    331        -17.580754   1.000000
    332        -17.580023   1.000000
    333        -17.579270   1.000000
    334        -17.578135   1.000000
    335        -17.577490   1.000000
    336        -17.575838   1.000000
    337        -17.574669   1.000000
    338        -17.573481   1.000000
    339        -17.570966   1.000000
    340        -17.570068   1.000000
    341        -17.568031   1.000000
    342        -17.567163   1.000000
    343        -17.563899   1.000000
    344        -17.562870   1.000000
    345        -17.562264   1.000000
    346        -17.555973   1.000000
    347        -17.555155   1.000000
    348        -17.553901   1.000000
    349        -17.552873   1.000000
    350        -17.544514   1.000000
    351        -17.543491   1.000000
    352        -17.542535   1.000000
    353        -17.540709   1.000000
    354        -17.539081   1.000000
    355        -17.537496   1.000000
    356        -17.536026   1.000000
    357        -17.535077   1.000000
    358        -17.534209   1.000000
    359        -17.531119   1.000000
    360        -17.528193   1.000000
    361        -17.526742   1.000000
    362        -17.522694   1.000000
    363        -17.521815   1.000000
    364        -17.520538   1.000000
    365        -17.519801   1.000000
    366        -17.517629   1.000000
    367        -17.516868   1.000000
    368        -17.516458   1.000000
    369        -17.515034   1.000000
    370        -17.512623   1.000000
    371        -17.511558   1.000000
    372        -17.494475   1.000000
    373        -17.489753   1.000000
    374        -17.487484   1.000000
    375        -17.473420   1.000000
    376        -17.470635   1.000000
    377        -17.469031   1.000000
    378        -17.467526   1.000000
    379        -17.464085   1.000000
    380        -17.455505   1.000000
    381        -17.454062   1.000000
    382        -17.449418   1.000000
    383        -17.449168   1.000000
    384        -17.436300   1.000000
    385          2.455509   1.000000
    386          3.757514   1.000000
    387          4.025439   1.000000
    388          4.115431   1.000000
    389          4.196869   1.000000
    390          4.379649   1.000000
    391          4.478700   1.000000
    392          5.004583   1.000000
    393          5.150509   1.000000
    394          5.182024   1.000000
    395          5.312223   1.000000
    396          5.319324   1.000000
    397          5.332391   1.000000
    398          5.398135   1.000000
    399          5.556816   1.000000
    400          5.742347   1.000000
    401          5.789370   1.000000
    402          5.796381   1.000000
    403          5.817626   1.000000
    404          5.829952   1.000000
    405          5.857625   1.000000
    406          5.862114   1.000000
    407          5.904767   1.000000
    408          6.002380   1.000000
    409          6.005368   1.000000
    410          6.007732   1.000000
    411          6.035329   1.000000
    412          6.106055   1.000000
    413          6.107830   1.000000
    414          6.114486   1.000000
    415          6.116879   1.000000
    416          6.126065   1.000000
    417          6.137218   1.000000
    418          6.155181   1.000000
    419          6.160342   1.000000
    420          6.182858   1.000000
    421          6.208641   1.000000
    422          6.212363   1.000000
    423          6.227859   1.000000
    424          6.261503   1.000000
    425          6.286226   1.000000
    426          6.310935   1.000000
    427          6.312929   1.000000
    428          6.324164   1.000000
    429          6.335124   1.000000
    430          6.361742   1.000000
    431          6.396131   1.000000
    432          6.407776   1.000000
    433          6.440516   1.000000
    434          6.453261   1.000000
    435          6.472540   1.000000
    436          6.501227   1.000000
    437          6.516492   1.000000
    438          6.518441   1.000000
    439          6.527879   1.000000
    440          6.533719   1.000000
    441          6.541390   1.000000
    442          6.548602   1.000000
    443          6.560516   1.000000
    444          6.583922   1.000000
    445          6.592631   1.000000
    446          6.619815   1.000000
    447          6.644050   1.000000
    448          6.668164   1.000000
    449          6.677274   1.000000
    450          6.686727   1.000000
    451          6.695572   1.000000
    452          6.701703   1.000000
    453          6.747447   1.000000
    454          6.784327   1.000000
    455          6.810653   1.000000
    456          6.818269   1.000000
    457          6.848239   1.000000
    458          6.903250   1.000000
    459          6.906154   1.000000
    460          6.910981   1.000000
    461          6.922817   1.000000
    462          6.956324   1.000000
    463          7.002126   1.000000
    464          7.005112   1.000000
    465          7.017060   1.000000
    466          7.043683   1.000000
    467          7.058995   1.000000
    468          7.121908   1.000000
    469          7.133953   1.000000
    470          7.198158   1.000000
    471          7.201855   1.000000
    472          7.205087   1.000000
    473          7.208297   1.000000
    474          7.219568   1.000000
    475          7.226032   1.000000
    476          7.240191   1.000000
    477          7.253573   1.000000
    478          7.260110   1.000000
    479          7.269783   1.000000
    480          7.280117   1.000000
    481          7.292299   1.000000
    482          7.304721   1.000000
    483          7.307994   1.000000
    484          7.326697   1.000000
    485          7.340142   1.000000
    486          7.354198   1.000000
    487          7.365869   1.000000
    488          7.389592   1.000000
    489          7.404788   1.000000
    490          7.418081   1.000000
    491          7.428658   1.000000
    492          7.442641   1.000000
    493          7.459422   1.000000
    494          7.482544   1.000000
    495          7.488911   1.000000
    496          7.548637   1.000000
    497          7.587827   1.000000
    498          7.591497   1.000000
    499          7.617570   1.000000
    500          7.638891   1.000000
    501          7.659713   1.000000
    502          7.693916   1.000000
    503          7.725230   1.000000
    504          7.754918   1.000000
    505          7.782270   1.000000
    506          7.788097   1.000000
    507          7.791358   1.000000
    508          7.795956   1.000000
    509          7.808717   1.000000
    510          7.822567   1.000000
    511          7.836618   1.000000
    512          7.853986   1.000000
    513          7.865511   1.000000
    514          7.866423   1.000000
    515          7.887918   1.000000
    516          7.919421   1.000000
    517          7.930640   1.000000
    518          7.934001   1.000000
    519          7.942387   1.000000
    520          7.951935   1.000000
    521          7.965632   1.000000
    522          7.980074   1.000000
    523          8.009046   1.000000
    524          8.029941   1.000000
    525          8.039855   1.000000
    526          8.057389   1.000000
    527          8.074916   1.000000
    528          8.101131   1.000000
    529          8.107149   1.000000
    530          8.126759   1.000000
    531          8.129202   1.000000
    532          8.133285   1.000000
    533          8.138498   1.000000
    534          8.142523   1.000000
    535          8.164952   1.000000
    536          8.187392   1.000000
    537          8.200340   1.000001
    538          8.207984   1.000001
    539          8.217432   1.000001
    540          8.235125   1.000002
    541          8.235339   1.000002
    542          8.243326   1.000003
    543          8.245502   1.000003
    544          8.251225   1.000004
    545          8.259873   1.000005
    546          8.270510   1.000007
    547          8.290886   1.000013
    548          8.298282   1.000017
    549          8.306500   1.000022
    550          8.311798   1.000026
    551          8.322049   1.000035
    552          8.329947   1.000044
    553          8.334621   1.000051
    554          8.343028   1.000064
    555          8.344844   1.000068
    556          8.348549   1.000075
    557          8.350876   1.000081
    558          8.353245   1.000086
    559          8.361255   1.000108
    560          8.364734   1.000119
    561          8.390337   1.000235
    562          8.395009   1.000266
    563          8.579320   1.011419
    564          8.618991   1.019179
    565          8.632761   1.022293
    566          8.694324   1.034486
    567          8.709508   1.035447
    568          8.788612   0.999030
    569          8.791606   0.995591
    570          8.814380   0.962863
    571          8.845237   0.898491
    572          8.852561   0.879696
    573          8.862482   0.852111
    574          8.869420   0.831397
    575          8.873209   0.819610
    576          8.881032   0.794238
    577          8.926421   0.624114
    578          8.938071   0.576002
    579          9.008782   0.285477
    580          9.023244   0.232909
    581          9.028811   0.213761
    582          9.036504   0.188394
    583          9.044041   0.164831
    584          9.081523   0.068217
    585          9.095083   0.041938
    586          9.115872   0.010261
    587          9.154518  -0.024280
    588          9.166833  -0.029832
    589          9.187714  -0.034707
    590          9.206925  -0.035331
    591          9.212338  -0.035005
    592          9.231628  -0.032560
    593          9.241074  -0.030831
    594          9.251769  -0.028608
    595          9.266467  -0.025297
    596          9.284761  -0.021080
    597          9.287939  -0.020360
    598          9.293703  -0.019076
    599          9.297440  -0.018259
    600          9.299778  -0.017756
    601          9.309095  -0.015816
    602          9.310733  -0.015487
    603          9.314948  -0.014657
    604          9.316991  -0.014263
    605          9.321002  -0.013510
    606          9.325930  -0.012617
    607          9.333040  -0.011397
    608          9.338323  -0.010543
    609          9.344767  -0.009561
    610          9.351199  -0.008648
    611          9.372347  -0.006097
    612          9.412002  -0.002929
    613          9.423034  -0.002348
    614          9.460414  -0.001051
    615          9.485904  -0.000580
    616          9.491305  -0.000509
    617          9.499965  -0.000411
    618          9.503552  -0.000376
    619          9.506566  -0.000349
    620          9.517577  -0.000263
    621          9.526975  -0.000206
    622          9.534791  -0.000167
    623          9.548515  -0.000115
    624          9.557403  -0.000090
    625          9.564581  -0.000074
    626          9.577938  -0.000050
    627          9.581677  -0.000045
    628          9.585696  -0.000040
    629          9.602338  -0.000024
    630          9.606530  -0.000021
    631          9.614228  -0.000017
    632          9.620021  -0.000014
    633          9.625700  -0.000012
    634          9.633874  -0.000009
    635          9.662903  -0.000003
    636          9.694253  -0.000001
    637          9.699086  -0.000001
    638          9.712500  -0.000001
    639          9.726317  -0.000000
    640          9.740633  -0.000000
    641          9.749171  -0.000000
    642          9.758987  -0.000000
    643          9.765746  -0.000000
    644          9.784103  -0.000000
    645          9.798925  -0.000000
    646          9.807016  -0.000000
    647          9.813035  -0.000000
    648          9.832882  -0.000000
    649          9.841542  -0.000000
    650          9.854135  -0.000000
    651          9.877330  -0.000000
    652          9.881354  -0.000000
    653          9.882947  -0.000000
    654          9.892436  -0.000000
    655          9.899154  -0.000000
    656          9.906178  -0.000000
    657          9.916494  -0.000000
    658          9.924538  -0.000000
    659          9.944515  -0.000000
    660          9.950693  -0.000000
    661          9.959872  -0.000000
    662          9.993403  -0.000000
    663         10.004829  -0.000000
    664         10.022924  -0.000000
    665         10.031053  -0.000000
    666         10.044047  -0.000000
    667         10.057266  -0.000000
    668         10.062988  -0.000000
    669         10.068234  -0.000000
    670         10.072355  -0.000000
    671         10.078340  -0.000000
    672         10.080737  -0.000000
    673         10.088180  -0.000000
    674         10.097707  -0.000000
    675         10.101082  -0.000000
    676         10.111880  -0.000000
    677         10.117851  -0.000000
    678         10.123870  -0.000000
    679         10.127755  -0.000000
    680         10.130602  -0.000000
    681         10.136058  -0.000000
    682         10.148325  -0.000000
    683         10.156647  -0.000000
    684         10.165075  -0.000000
    685         10.170070  -0.000000
    686         10.175270  -0.000000
    687         10.177744  -0.000000
    688         10.184925  -0.000000
    689         10.187905  -0.000000
    690         10.194133  -0.000000
    691         10.203333  -0.000000
    692         10.206376  -0.000000
 
  0.5000000E+00  0.2500000E+00  0.3333333E+00  0.4166667E-01
      1        -39.897151   1.000000
      2        -39.880705   1.000000
      3        -39.874051   1.000000
      4        -39.870767   1.000000
      5        -39.863230   1.000000
      6        -39.859623   1.000000
      7        -39.845172   1.000000
      8        -39.841670   1.000000
      9        -39.835189   1.000000
     10        -39.830456   1.000000
     11        -39.826410   1.000000
     12        -39.825585   1.000000
     13        -39.821783   1.000000
     14        -39.818181   1.000000
     15        -39.815360   1.000000
     16        -39.811786   1.000000
     17        -39.806506   1.000000
     18        -39.802848   1.000000
     19        -39.801155   1.000000
     20        -39.799945   1.000000
     21        -39.797629   1.000000
     22        -39.794345   1.000000
     23        -39.794100   1.000000
     24        -39.792327   1.000000
     25        -39.790036   1.000000
     26        -39.786938   1.000000
     27        -39.785183   1.000000
     28        -39.783063   1.000000
     29        -39.782622   1.000000
     30        -39.780400   1.000000
     31        -39.778805   1.000000
     32        -39.777872   1.000000
     33        -39.776143   1.000000
     34        -39.775137   1.000000
     35        -39.773674   1.000000
     36        -39.771768   1.000000
     37        -39.769802   1.000000
     38        -39.768342   1.000000
     39        -39.767132   1.000000
     40        -39.764734   1.000000
     41        -39.762658   1.000000
     42        -39.761474   1.000000
     43        -39.760448   1.000000
     44        -39.759328   1.000000
     45        -39.758398   1.000000
     46        -39.757816   1.000000
     47        -39.756880   1.000000
     48        -39.755389   1.000000
     49        -39.754940   1.000000
     50        -39.754710   1.000000
     51        -39.754241   1.000000
     52        -39.753070   1.000000
     53        -39.752542   1.000000
     54        -39.750794   1.000000
     55        -39.750260   1.000000
     56        -39.749058   1.000000
     57        -39.747793   1.000000
     58        -39.746253   1.000000
     59        -39.745994   1.000000
     60        -39.744849   1.000000
     61        -39.744077   1.000000
     62        -39.742662   1.000000
     63        -39.741393   1.000000
     64        -39.740821   1.000000
     65        -39.740109   1.000000
     66        -39.739620   1.000000
     67        -39.739107   1.000000
     68        -39.738137   1.000000
     69        -39.737053   1.000000
     70        -39.736446   1.000000
     71        -39.735429   1.000000
     72        -39.734281   1.000000
     73        -39.733376   1.000000
     74        -39.732678   1.000000
     75        -39.731829   1.000000
     76        -39.731069   1.000000
     77        -39.730294   1.000000
     78        -39.729103   1.000000
     79        -39.728331   1.000000
     80        -39.727204   1.000000
     81        -39.725890   1.000000
     82        -39.725559   1.000000
     83        -39.724589   1.000000
     84        -39.724075   1.000000
     85        -39.723906   1.000000
     86        -39.723148   1.000000
     87        -39.722832   1.000000
     88        -39.722343   1.000000
     89        -39.720519   1.000000
     90        -39.719504   1.000000
     91        -39.716160   1.000000
     92        -39.715891   1.000000
     93        -39.715321   1.000000
     94        -39.714568   1.000000
     95        -39.714179   1.000000
     96        -39.713320   1.000000
     97        -18.359600   1.000000
     98        -18.326508   1.000000
     99        -18.314682   1.000000
    100        -18.310164   1.000000
    101        -18.292588   1.000000
    102        -18.283667   1.000000
    103        -18.278083   1.000000
    104        -18.276361   1.000000
    105        -18.271067   1.000000
    106        -18.265592   1.000000
    107        -18.263304   1.000000
    108        -18.259739   1.000000
    109        -18.257246   1.000000
    110        -18.256586   1.000000
    111        -18.253142   1.000000
    112        -18.249236   1.000000
    113        -18.242872   1.000000
    114        -18.239805   1.000000
    115        -18.235514   1.000000
    116        -18.235377   1.000000
    117        -18.233410   1.000000
    118        -18.232184   1.000000
    119        -18.230604   1.000000
    120        -18.228426   1.000000
    121        -18.222741   1.000000
    122        -18.219680   1.000000
    123        -18.218375   1.000000
    124        -18.217628   1.000000
    125        -18.216368   1.000000
    126        -18.215475   1.000000
    127        -18.214082   1.000000
    128        -18.213290   1.000000
    129        -18.211441   1.000000
    130        -18.209643   1.000000
    131        -18.203701   1.000000
    132        -18.199688   1.000000
    133        -18.197373   1.000000
    134        -18.196914   1.000000
    135        -18.195274   1.000000
    136        -18.193590   1.000000
    137        -18.191014   1.000000
    138        -18.187383   1.000000
    139        -18.180770   1.000000
    140        -18.176177   1.000000
    141        -18.173070   1.000000
    142        -18.172474   1.000000
    143        -18.169464   1.000000
    144        -18.168381   1.000000
    145        -18.166287   1.000000
    146        -18.161791   1.000000
    147        -18.156555   1.000000
    148        -18.144129   1.000000
    149        -18.125787   1.000000
    150        -18.119849   1.000000
    151        -18.117049   1.000000
    152        -18.115420   1.000000
    153        -18.114351   1.000000
    154        -18.112832   1.000000
    155        -18.112535   1.000000
    156        -18.111333   1.000000
    157        -18.110381   1.000000
    158        -18.109840   1.000000
    159        -18.091967   1.000000
    160        -18.086898   1.000000
    161        -18.079364   1.000000
    162        -18.064079   1.000000
    163        -18.060544   1.000000
    164        -18.054806   1.000000
    165        -18.052115   1.000000
    166        -18.051900   1.000000
    167        -18.049264   1.000000
    168        -18.047104   1.000000
    169        -18.046224   1.000000
    170        -18.045068   1.000000
    171        -18.043674   1.000000
    172        -18.041892   1.000000
    173        -18.040220   1.000000
    174        -18.036539   1.000000
    175        -18.035309   1.000000
    176        -18.032269   1.000000
    177        -18.029256   1.000000
    178        -18.028167   1.000000
    179        -18.006602   1.000000
    180        -17.988159   1.000000
    181        -17.984861   1.000000
    182        -17.981582   1.000000
    183        -17.978216   1.000000
    184        -17.973907   1.000000
    185        -17.968846   1.000000
    186        -17.965070   1.000000
    187        -17.958553   1.000000
    188        -17.953130   1.000000
    189        -17.943968   1.000000
    190        -17.941670   1.000000
    191        -17.940744   1.000000
    192        -17.934567   1.000000
    193        -17.932503   1.000000
    194        -17.928064   1.000000
    195        -17.924662   1.000000
    196        -17.918441   1.000000
    197        -17.914132   1.000000
    198        -17.912548   1.000000
    199        -17.910698   1.000000
    200        -17.901078   1.000000
    201        -17.898005   1.000000
    202        -17.896214   1.000000
    203        -17.893176   1.000000
    204        -17.891921   1.000000
    205        -17.890771   1.000000
    206        -17.889857   1.000000
    207        -17.888375   1.000000
    208        -17.885799   1.000000
    209        -17.877070   1.000000
    210        -17.867727   1.000000
    211        -17.862784   1.000000
    212        -17.857417   1.000000
    213        -17.855801   1.000000
    214        -17.852316   1.000000
    215        -17.836757   1.000000
    216        -17.835739   1.000000
    217        -17.832797   1.000000
    218        -17.826211   1.000000
    219        -17.824560   1.000000
    220        -17.821374   1.000000
    221        -17.817069   1.000000
    222        -17.815327   1.000000
    223        -17.805794   1.000000
    224        -17.796011   1.000000
    225        -17.786306   1.000000
    226        -17.776118   1.000000
    227        -17.771589   1.000000
    228        -17.770621   1.000000
    229        -17.766718   1.000000
    230        -17.765358   1.000000
    231        -17.762735   1.000000
    232        -17.761679   1.000000
    233        -17.758512   1.000000
    234        -17.757409   1.000000
    235        -17.753404   1.000000
    236        -17.752337   1.000000
    237        -17.747912   1.000000
    238        -17.743644   1.000000
    239        -17.741441   1.000000
    240        -17.737460   1.000000
    241        -17.736509   1.000000
    242        -17.733617   1.000000
    243        -17.731448   1.000000
    244        -17.729934   1.000000
    245        -17.728051   1.000000
    246        -17.727350   1.000000
    247        -17.725475   1.000000
    248        -17.724322   1.000000
    249        -17.723609   1.000000
    250        -17.722762   1.000000
    251        -17.721422   1.000000
    252        -17.720562   1.000000
    253        -17.720054   1.000000
    254        -17.717666   1.000000
    255        -17.715518   1.000000
    256        -17.714743   1.000000
    257        -17.712328   1.000000
    258        -17.711296   1.000000
    259        -17.710511   1.000000
    260        -17.709040   1.000000
    261        -17.705974   1.000000
    262        -17.705064   1.000000
    263        -17.702196   1.000000
    264        -17.699009   1.000000
    265        -17.697332   1.000000
    266        -17.688752   1.000000
    267        -17.684909   1.000000
    268        -17.683192   1.000000
    269        -17.682415   1.000000
    270        -17.681487   1.000000
    271        -17.679223   1.000000
    272        -17.678363   1.000000
    273        -17.676730   1.000000
    274        -17.672361   1.000000
    275        -17.670339   1.000000
    276        -17.668812   1.000000
    277        -17.668160   1.000000
    278        -17.667399   1.000000
    279        -17.665254   1.000000
    280        -17.664835   1.000000
    281        -17.653664   1.000000
    282        -17.651921   1.000000
    283        -17.650293   1.000000
    284        -17.647093   1.000000
    285        -17.641964   1.000000
    286        -17.640112   1.000000
    287        -17.635969   1.000000
    288        -17.633382   1.000000
    289        -17.630754   1.000000
    290        -17.628639   1.000000
    291        -17.627264   1.000000
    292        -17.625456   1.000000
    293        -17.624439   1.000000
    294        -17.624092   1.000000
    295        -17.623322   1.000000
    296        -17.622774   1.000000
    297        -17.621306   1.000000
    298        -17.620818   1.000000
    299        -17.619350   1.000000
    300        -17.617417   1.000000
    301        -17.616285   1.000000
    302        -17.615415   1.000000
    303        -17.614311   1.000000
    304        -17.612888   1.000000
    305        -17.611570   1.000000
    306        -17.610944   1.000000
    307        -17.610559   1.000000
    308        -17.608526   1.000000
    309        -17.607374   1.000000
    310        -17.602306   1.000000
    311        -17.601641   1.000000
    312        -17.599318   1.000000
    313        -17.596015   1.000000
    314        -17.595638   1.000000
    315        -17.594045   1.000000
    316        -17.593154   1.000000
    317        -17.591702   1.000000
    318        -17.590854   1.000000
    319        -17.590408   1.000000
    320        -17.589506   1.000000
    321        -17.587355   1.000000
    322        -17.587047   1.000000
    323        -17.586351   1.000000
    324        -17.585218   1.000000
    325        -17.584743   1.000000
    326        -17.584206   1.000000
    327        -17.583124   1.000000
    328        -17.582271   1.000000
    329        -17.581681   1.000000
    330        -17.581120   1.000000
    331        -17.580675   1.000000
    332        -17.579950   1.000000
    333        -17.579301   1.000000
    334        -17.578193   1.000000
    335        -17.577368   1.000000
    336        -17.575860   1.000000
    337        -17.574679   1.000000
    338        -17.573583   1.000000
    339        -17.570986   1.000000
    340        -17.570138   1.000000
    341        -17.568101   1.000000
    342        -17.567168   1.000000
    343        -17.563959   1.000000
    344        -17.562810   1.000000
    345        -17.562249   1.000000
    346        -17.555901   1.000000
    347        -17.555015   1.000000
    348        -17.553908   1.000000
    349        -17.552907   1.000000
    350        -17.544541   1.000000
    351        -17.543446   1.000000
    352        -17.542450   1.000000
    353        -17.540652   1.000000
    354        -17.539119   1.000000
    355        -17.537525   1.000000
    356        -17.536070   1.000000
    357        -17.535210   1.000000
    358        -17.534190   1.000000
    359        -17.531066   1.000000
    360        -17.528210   1.000000
    361        -17.526757   1.000000
    362        -17.522732   1.000000
    363        -17.521724   1.000000
    364        -17.520520   1.000000
    365        -17.519817   1.000000
    366        -17.517691   1.000000
    367        -17.516943   1.000000
    368        -17.516490   1.000000
    369        -17.514992   1.000000
    370        -17.512715   1.000000
    371        -17.511550   1.000000
    372        -17.494535   1.000000
    373        -17.489871   1.000000
    374        -17.487403   1.000000
    375        -17.473530   1.000000
    376        -17.470622   1.000000
    377        -17.468911   1.000000
    378        -17.467456   1.000000
    379        -17.464196   1.000000
    380        -17.455572   1.000000
    381        -17.453916   1.000000
    382        -17.449471   1.000000
    383        -17.449151   1.000000
    384        -17.436266   1.000000
    385          2.455508   1.000000
    386          3.757524   1.000000
    387          4.025477   1.000000
    388          4.115347   1.000000
    389          4.196919   1.000000
    390          4.379571   1.000000
    391          4.478750   1.000000
    392          5.004595   1.000000
    393          5.150522   1.000000
    394          5.182073   1.000000
    395          5.312152   1.000000
    396          5.319351   1.000000
    397          5.332390   1.000000
    398          5.398142   1.000000
    399          5.556806   1.000000
    400          5.742444   1.000000
    401          5.789280   1.000000
    402          5.796346   1.000000
    403          5.817599   1.000000
    404          5.830068   1.000000
    405          5.857621   1.000000
    406          5.862055   1.000000
    407          5.904701   1.000000
    408          6.002482   1.000000
    409          6.005201   1.000000
    410          6.007699   1.000000
    411          6.035196   1.000000
    412          6.106272   1.000000
    413          6.107940   1.000000
    414          6.114352   1.000000
    415          6.116967   1.000000
    416          6.125938   1.000000
    417          6.137176   1.000000
    418          6.155202   1.000000
    419          6.160344   1.000000
    420          6.182730   1.000000
    421          6.208710   1.000000
    422          6.212504   1.000000
    423          6.227953   1.000000
    424          6.261300   1.000000
    425          6.286466   1.000000
    426          6.310982   1.000000
    427          6.312686   1.000000
    428          6.324366   1.000000
    429          6.335254   1.000000
    430          6.361700   1.000000
    431          6.396189   1.000000
    432          6.407699   1.000000
    433          6.440766   1.000000
    434          6.453247   1.000000
    435          6.472723   1.000000
    436          6.500979   1.000000
    437          6.516480   1.000000
    438          6.518329   1.000000
    439          6.527793   1.000000
    440          6.533724   1.000000
    441          6.541264   1.000000
    442          6.548711   1.000000
    443          6.560360   1.000000
    444          6.583968   1.000000
    445          6.592719   1.000000
    446          6.619567   1.000000
    447          6.644050   1.000000
    448          6.668078   1.000000
    449          6.677363   1.000000
    450          6.686745   1.000000
    451          6.695532   1.000000
    452          6.701737   1.000000
    453          6.747329   1.000000
    454          6.784438   1.000000
    455          6.810727   1.000000
    456          6.818087   1.000000
    457          6.848544   1.000000
    458          6.903158   1.000000
    459          6.906123   1.000000
    460          6.910856   1.000000
    461          6.922699   1.000000
    462          6.956094   1.000000
    463          7.002281   1.000000
    464          7.005141   1.000000
    465          7.017056   1.000000
    466          7.043853   1.000000
    467          7.058875   1.000000
    468          7.121842   1.000000
    469          7.134087   1.000000
    470          7.198144   1.000000
    471          7.201759   1.000000
    472          7.204781   1.000000
    473          7.208361   1.000000
    474          7.219961   1.000000
    475          7.226298   1.000000
    476          7.240096   1.000000
    477          7.254098   1.000000
    478          7.260288   1.000000
    479          7.270007   1.000000
    480          7.280378   1.000000
    481          7.292136   1.000000
    482          7.304592   1.000000
    483          7.307959   1.000000
    484          7.326704   1.000000
    485          7.340076   1.000000
    486          7.353998   1.000000
    487          7.365936   1.000000
    488          7.389792   1.000000
    489          7.404676   1.000000
    490          7.417782   1.000000
    491          7.428469   1.000000
    492          7.442789   1.000000
    493          7.459467   1.000000
    494          7.482452   1.000000
    495          7.488746   1.000000
    496          7.548543   1.000000
    497          7.587952   1.000000
    498          7.591396   1.000000
    499          7.617183   1.000000
    500          7.638636   1.000000
    501          7.659601   1.000000
    502          7.693969   1.000000
    503          7.725052   1.000000
    504          7.755156   1.000000
    505          7.782235   1.000000
    506          7.788259   1.000000
    507          7.791452   1.000000
    508          7.796008   1.000000
    509          7.808716   1.000000
    510          7.822889   1.000000
    511          7.836523   1.000000
    512          7.854117   1.000000
    513          7.865312   1.000000
    514          7.866245   1.000000
    515          7.888145   1.000000
    516          7.919219   1.000000
    517          7.930758   1.000000
    518          7.933908   1.000000
    519          7.942671   1.000000
    520          7.952060   1.000000
    521          7.966015   1.000000
    522          7.980121   1.000000
    523          8.008817   1.000000
    524          8.029727   1.000000
    525          8.039934   1.000000
    526          8.057541   1.000000
    527          8.075073   1.000000
    528          8.101333   1.000000
    529          8.107242   1.000000
    530          8.126544   1.000000
    531          8.129122   1.000000
    532          8.133270   1.000000
    533          8.138263   1.000000
    534          8.142331   1.000000
    535          8.165149   1.000000
    536          8.187443   1.000000
    537          8.200174   1.000001
    538          8.208303   1.000001
    539          8.217331   1.000001
    540          8.234962   1.000002
    541          8.235440   1.000002
    542          8.243456   1.000003
    543          8.245707   1.000003
    544          8.251082   1.000004
    545          8.259862   1.000005
    546          8.270554   1.000007
    547          8.291200   1.000014
    548          8.298135   1.000017
    549          8.306740   1.000022
    550          8.311594   1.000025
    551          8.322009   1.000035
    552          8.330209   1.000044
    553          8.334588   1.000051
    554          8.343095   1.000065
    555          8.344731   1.000068
    556          8.348557   1.000075
    557          8.350661   1.000080
    558          8.353207   1.000086
    559          8.361200   1.000108
    560          8.365114   1.000120
    561          8.390189   1.000235
    562          8.394763   1.000264
    563          8.579500   1.011449
    564          8.619012   1.019183
    565          8.632472   1.022226
    566          8.694659   1.034522
    567          8.709539   1.035448
    568          8.788527   0.999125
    569          8.791570   0.995633
    570          8.814387   0.962850
    571          8.845208   0.898564
    572          8.852475   0.879924
    573          8.862496   0.852068
    574          8.869780   0.830293
    575          8.872613   0.821486
    576          8.881409   0.792980
    577          8.926083   0.625494
    578          8.938142   0.575704
    579          9.008854   0.285206
    580          9.022967   0.233877
    581          9.028419   0.215089
    582          9.036172   0.189460
    583          9.044412   0.163708
    584          9.081186   0.068928
    585          9.095395   0.041387
    586          9.115613   0.010595
    587          9.154413  -0.024222
    588          9.166733  -0.029796
    589          9.187496  -0.034682
    590          9.207248  -0.035317
    591          9.212313  -0.035007
    592          9.231894  -0.032515
    593          9.241391  -0.030768
    594          9.251563  -0.028653
    595          9.266777  -0.025226
    596          9.284158  -0.021217
    597          9.287685  -0.020418
    598          9.293090  -0.019211
    599          9.297693  -0.018204
    600          9.300543  -0.017593
    601          9.309030  -0.015829
    602          9.310666  -0.015500
    603          9.314751  -0.014695
    604          9.317297  -0.014205
    605          9.320789  -0.013549
    606          9.325817  -0.012637
    607          9.333031  -0.011398
    608          9.337801  -0.010625
    609          9.344593  -0.009587
    610          9.351335  -0.008630
    611          9.372627  -0.006067
    612          9.411954  -0.002932
    613          9.423330  -0.002334
    614          9.460368  -0.001052
    615          9.486096  -0.000578
    616          9.491376  -0.000508
    617          9.499760  -0.000414
    618          9.503421  -0.000377
    619          9.506701  -0.000348
    620          9.517174  -0.000266
    621          9.526938  -0.000206
    622          9.534977  -0.000167
    623          9.548811  -0.000114
    624          9.557256  -0.000090
    625          9.564767  -0.000073
    626          9.578532  -0.000049
    627          9.582054  -0.000044
    628          9.585512  -0.000040
    629          9.602185  -0.000024
    630          9.606670  -0.000021
    631          9.614257  -0.000017
    632          9.620363  -0.000014
    633          9.625542  -0.000012
    634          9.633892  -0.000009
    635          9.663036  -0.000003
    636          9.693977  -0.000001
    637          9.699257  -0.000001
    638          9.712453  -0.000001
    639          9.726199  -0.000000
    640          9.740797  -0.000000
    641          9.749197  -0.000000
    642          9.758888  -0.000000
    643          9.764791  -0.000000
    644          9.783745  -0.000000
    645          9.798392  -0.000000
    646          9.806968  -0.000000
    647          9.813203  -0.000000
    648          9.832903  -0.000000
    649          9.841392  -0.000000
    650          9.854168  -0.000000
    651          9.877158  -0.000000
    652          9.881270  -0.000000
    653          9.882618  -0.000000
    654          9.892328  -0.000000
    655          9.898967  -0.000000
    656          9.906230  -0.000000
    657          9.916596  -0.000000
    658          9.925115  -0.000000
    659          9.944488  -0.000000
    660          9.951064  -0.000000
    661          9.959898  -0.000000
    662          9.993200  -0.000000
    663         10.004878  -0.000000
    664         10.023021  -0.000000
    665         10.031119  -0.000000
    666         10.044413  -0.000000
    667         10.056964  -0.000000
    668         10.062901  -0.000000
    669         10.068233  -0.000000
    670         10.072486  -0.000000
    671         10.078358  -0.000000
    672         10.080812  -0.000000
    673         10.088239  -0.000000
    674         10.097834  -0.000000
    675         10.101501  -0.000000
    676         10.111678  -0.000000
    677         10.118091  -0.000000
    678         10.123861  -0.000000
    679         10.127772  -0.000000
    680         10.130357  -0.000000
    681         10.136025  -0.000000
    682         10.148081  -0.000000
    683         10.157159  -0.000000
    684         10.165116  -0.000000
    685         10.170435  -0.000000
    686         10.174857  -0.000000
    687         10.177933  -0.000000
    688         10.184795  -0.000000
    689         10.188521  -0.000000
    690         10.194344  -0.000000
    691         10.203318  -0.000000
    692         10.206019  -0.000000
 
 -0.2500000E+00 -0.2500000E+00  0.3333333E+00  0.4166667E-01
      1        -39.897151   1.000000
      2        -39.880705   1.000000
      3        -39.874051   1.000000
      4        -39.870767   1.000000
      5        -39.863230   1.000000
      6        -39.859623   1.000000
      7        -39.845172   1.000000
      8        -39.841670   1.000000
      9        -39.835189   1.000000
     10        -39.830456   1.000000
     11        -39.826410   1.000000
     12        -39.825585   1.000000
     13        -39.821783   1.000000
     14        -39.818181   1.000000
     15        -39.815360   1.000000
     16        -39.811786   1.000000
     17        -39.806506   1.000000
     18        -39.802848   1.000000
     19        -39.801155   1.000000
     20        -39.799945   1.000000
     21        -39.797629   1.000000
     22        -39.794345   1.000000
     23        -39.794100   1.000000
     24        -39.792327   1.000000
     25        -39.790036   1.000000
     26        -39.786938   1.000000
     27        -39.785183   1.000000
     28        -39.783064   1.000000
     29        -39.782622   1.000000
     30        -39.780400   1.000000
     31        -39.778805   1.000000
     32        -39.777872   1.000000
     33        -39.776143   1.000000
     34        -39.775137   1.000000
     35        -39.773674   1.000000
     36        -39.771768   1.000000
     37        -39.769802   1.000000
     38        -39.768342   1.000000
     39        -39.767132   1.000000
     40        -39.764734   1.000000
     41        -39.762658   1.000000
     42        -39.761474   1.000000
     43        -39.760448   1.000000
     44        -39.759328   1.000000
     45        -39.758398   1.000000
     46        -39.757816   1.000000
     47        -39.756880   1.000000
     48        -39.755389   1.000000
     49        -39.754939   1.000000
     50        -39.754710   1.000000
     51        -39.754241   1.000000
     52        -39.753070   1.000000
     53        -39.752542   1.000000
     54        -39.750794   1.000000
     55        -39.750260   1.000000
     56        -39.749058   1.000000
     57        -39.747793   1.000000
     58        -39.746253   1.000000
     59        -39.745994   1.000000
     60        -39.744849   1.000000
     61        -39.744077   1.000000
     62        -39.742662   1.000000
     63        -39.741393   1.000000
     64        -39.740821   1.000000
     65        -39.740109   1.000000
     66        -39.739620   1.000000
     67        -39.739107   1.000000
     68        -39.738137   1.000000
     69        -39.737053   1.000000
     70        -39.736446   1.000000
     71        -39.735429   1.000000
     72        -39.734281   1.000000
     73        -39.733376   1.000000
     74        -39.732678   1.000000
     75        -39.731829   1.000000
     76        -39.731069   1.000000
     77        -39.730294   1.000000
     78        -39.729103   1.000000
     79        -39.728331   1.000000
     80        -39.727204   1.000000
     81        -39.725890   1.000000
     82        -39.725559   1.000000
     83        -39.724589   1.000000
     84        -39.724075   1.000000
     85        -39.723906   1.000000
     86        -39.723148   1.000000
     87        -39.722832   1.000000
     88        -39.722343   1.000000
     89        -39.720519   1.000000
     90        -39.719504   1.000000
     91        -39.716160   1.000000
     92        -39.715891   1.000000
     93        -39.715321   1.000000
     94        -39.714568   1.000000
     95        -39.714179   1.000000
     96        -39.713320   1.000000
     97        -18.359600   1.000000
     98        -18.326508   1.000000
     99        -18.314682   1.000000
    100        -18.310164   1.000000
    101        -18.292588   1.000000
    102        -18.283667   1.000000
    103        -18.278083   1.000000
    104        -18.276361   1.000000
    105        -18.271067   1.000000
    106        -18.265592   1.000000
    107        -18.263304   1.000000
    108        -18.259739   1.000000
    109        -18.257246   1.000000
    110        -18.256586   1.000000
    111        -18.253142   1.000000
    112        -18.249236   1.000000
    113        -18.242872   1.000000
    114        -18.239805   1.000000
    115        -18.235514   1.000000
    116        -18.235377   1.000000
    117        -18.233410   1.000000
    118        -18.232184   1.000000
    119        -18.230604   1.000000
    120        -18.228426   1.000000
    121        -18.222741   1.000000
    122        -18.219680   1.000000
    123        -18.218375   1.000000
    124        -18.217628   1.000000
    125        -18.216368   1.000000
    126        -18.215475   1.000000
    127        -18.214082   1.000000
    128        -18.213290   1.000000
    129        -18.211441   1.000000
    130        -18.209643   1.000000
    131        -18.203701   1.000000
    132        -18.199688   1.000000
    133        -18.197373   1.000000
    134        -18.196914   1.000000
    135        -18.195274   1.000000
    136        -18.193590   1.000000
    137        -18.191014   1.000000
    138        -18.187383   1.000000
    139        -18.180770   1.000000
    140        -18.176177   1.000000
    141        -18.173070   1.000000
    142        -18.172474   1.000000
    143        -18.169464   1.000000
    144        -18.168381   1.000000
    145        -18.166287   1.000000
    146        -18.161791   1.000000
    147        -18.156555   1.000000
    148        -18.144129   1.000000
    149        -18.125787   1.000000
    150        -18.119849   1.000000
    151        -18.117049   1.000000
    152        -18.115420   1.000000
    153        -18.114351   1.000000
    154        -18.112832   1.000000
    155        -18.112535   1.000000
    156        -18.111333   1.000000
    157        -18.110381   1.000000
    158        -18.109840   1.000000
    159        -18.091967   1.000000
    160        -18.086898   1.000000
    161        -18.079364   1.000000
    162        -18.064079   1.000000
    163        -18.060544   1.000000
    164        -18.054806   1.000000
    165        -18.052115   1.000000
    166        -18.051900   1.000000
    167        -18.049264   1.000000
    168        -18.047104   1.000000
    169        -18.046224   1.000000
    170        -18.045068   1.000000
    171        -18.043674   1.000000
    172        -18.041892   1.000000
    173        -18.040220   1.000000
    174        -18.036539   1.000000
    175        -18.035309   1.000000
    176        -18.032269   1.000000
    177        -18.029256   1.000000
    178        -18.028167   1.000000
    179        -18.006602   1.000000
    180        -17.988159   1.000000
    181        -17.984861   1.000000
    182        -17.981582   1.000000
    183        -17.978216   1.000000
    184        -17.973907   1.000000
    185        -17.968846   1.000000
    186        -17.965070   1.000000
    187        -17.958553   1.000000
    188        -17.953130   1.000000
    189        -17.943968   1.000000
    190        -17.941670   1.000000
    191        -17.940744   1.000000
    192        -17.934567   1.000000
    193        -17.932503   1.000000
    194        -17.928064   1.000000
    195        -17.924662   1.000000
    196        -17.918441   1.000000
    197        -17.914132   1.000000
    198        -17.912548   1.000000
    199        -17.910698   1.000000
    200        -17.901078   1.000000
    201        -17.898005   1.000000
    202        -17.896214   1.000000
    203        -17.893176   1.000000
    204        -17.891921   1.000000
    205        -17.890771   1.000000
    206        -17.889857   1.000000
    207        -17.888375   1.000000
    208        -17.885799   1.000000
    209        -17.877070   1.000000
    210        -17.867727   1.000000
    211        -17.862784   1.000000
    212        -17.857417   1.000000
    213        -17.855801   1.000000
    214        -17.852316   1.000000
    215        -17.836757   1.000000
    216        -17.835739   1.000000
    217        -17.832797   1.000000
    218        -17.826211   1.000000
    219        -17.824560   1.000000
    220        -17.821374   1.000000
    221        -17.817069   1.000000
    222        -17.815327   1.000000
    223        -17.805794   1.000000
    224        -17.796011   1.000000
    225        -17.786306   1.000000
    226        -17.776118   1.000000
    227        -17.771589   1.000000
    228        -17.770621   1.000000
    229        -17.766718   1.000000
    230        -17.765358   1.000000
    231        -17.762735   1.000000
    232        -17.761679   1.000000
    233        -17.758512   1.000000
    234        -17.757409   1.000000
    235        -17.753404   1.000000
    236        -17.752337   1.000000
    237        -17.747912   1.000000
    238        -17.743644   1.000000
    239        -17.741441   1.000000
    240        -17.737460   1.000000
    241        -17.736509   1.000000
    242        -17.733617   1.000000
    243        -17.731448   1.000000
    244        -17.729934   1.000000
    245        -17.728051   1.000000
    246        -17.727350   1.000000
    247        -17.725475   1.000000
    248        -17.724322   1.000000
    249        -17.723609   1.000000
    250        -17.722762   1.000000
    251        -17.721422   1.000000
    252        -17.720562   1.000000
    253        -17.720054   1.000000
    254        -17.717666   1.000000
    255        -17.715518   1.000000
    256        -17.714743   1.000000
    257        -17.712328   1.000000
    258        -17.711296   1.000000
    259        -17.710511   1.000000
    260        -17.709040   1.000000
    261        -17.705974   1.000000
    262        -17.705064   1.000000
    263        -17.702196   1.000000
    264        -17.699009   1.000000
    265        -17.697332   1.000000
    266        -17.688752   1.000000
    267        -17.684909   1.000000
    268        -17.683192   1.000000
    269        -17.682415   1.000000
    270        -17.681487   1.000000
    271        -17.679223   1.000000
    272        -17.678363   1.000000
    273        -17.676730   1.000000
    274        -17.672361   1.000000
    275        -17.670339   1.000000
    276        -17.668812   1.000000
    277        -17.668160   1.000000
    278        -17.667399   1.000000
    279        -17.665254   1.000000
    280        -17.664835   1.000000
    281        -17.653664   1.000000
    282        -17.651921   1.000000
    283        -17.650293   1.000000
    284        -17.647093   1.000000
    285        -17.641964   1.000000
    286        -17.640112   1.000000
    287        -17.635969   1.000000
    288        -17.633382   1.000000
    289        -17.630754   1.000000
    290        -17.628639   1.000000
    291        -17.627264   1.000000
    292        -17.625456   1.000000
    293        -17.624439   1.000000
    294        -17.624092   1.000000
    295        -17.623322   1.000000
    296        -17.622774   1.000000
    297        -17.621306   1.000000
    298        -17.620818   1.000000
    299        -17.619350   1.000000
    300        -17.617417   1.000000
    301        -17.616285   1.000000
    302        -17.615415   1.000000
    303        -17.614311   1.000000
    304        -17.612888   1.000000
    305        -17.611570   1.000000
    306        -17.610944   1.000000
    307        -17.610559   1.000000
    308        -17.608526   1.000000
    309        -17.607374   1.000000
    310        -17.602306   1.000000
    311        -17.601641   1.000000
    312        -17.599318   1.000000
    313        -17.596015   1.000000
    314        -17.595638   1.000000
    315        -17.594045   1.000000
    316        -17.593154   1.000000
    317        -17.591702   1.000000
    318        -17.590854   1.000000
    319        -17.590408   1.000000
    320        -17.589506   1.000000
    321        -17.587355   1.000000
    322        -17.587047   1.000000
    323        -17.586351   1.000000
    324        -17.585218   1.000000
    325        -17.584743   1.000000
    326        -17.584206   1.000000
    327        -17.583124   1.000000
    328        -17.582271   1.000000
    329        -17.581681   1.000000
    330        -17.581120   1.000000
    331        -17.580675   1.000000
    332        -17.579950   1.000000
    333        -17.579301   1.000000
    334        -17.578193   1.000000
    335        -17.577368   1.000000
    336        -17.575860   1.000000
    337        -17.574679   1.000000
    338        -17.573583   1.000000
    339        -17.570986   1.000000
    340        -17.570138   1.000000
    341        -17.568101   1.000000
    342        -17.567168   1.000000
    343        -17.563959   1.000000
    344        -17.562810   1.000000
    345        -17.562249   1.000000
    346        -17.555901   1.000000
    347        -17.555015   1.000000
    348        -17.553908   1.000000
    349        -17.552907   1.000000
    350        -17.544541   1.000000
    351        -17.543446   1.000000
    352        -17.542450   1.000000
    353        -17.540651   1.000000
    354        -17.539119   1.000000
    355        -17.537525   1.000000
    356        -17.536070   1.000000
    357        -17.535210   1.000000
    358        -17.534190   1.000000
    359        -17.531066   1.000000
    360        -17.528210   1.000000
    361        -17.526757   1.000000
    362        -17.522732   1.000000
    363        -17.521724   1.000000
    364        -17.520520   1.000000
    365        -17.519817   1.000000
    366        -17.517691   1.000000
    367        -17.516943   1.000000
    368        -17.516490   1.000000
    369        -17.514992   1.000000
    370        -17.512715   1.000000
    371        -17.511550   1.000000
    372        -17.494535   1.000000
    373        -17.489871   1.000000
    374        -17.487403   1.000000
    375        -17.473530   1.000000
    376        -17.470622   1.000000
    377        -17.468911   1.000000
    378        -17.467456   1.000000
    379        -17.464196   1.000000
    380        -17.455572   1.000000
    381        -17.453916   1.000000
    382        -17.449471   1.000000
    383        -17.449151   1.000000
    384        -17.436266   1.000000
    385          2.455508   1.000000
    386          3.757524   1.000000
    387          4.025477   1.000000
    388          4.115347   1.000000
    389          4.196919   1.000000
    390          4.379571   1.000000
    391          4.478750   1.000000
    392          5.004595   1.000000
    393          5.150522   1.000000
    394          5.182073   1.000000
    395          5.312152   1.000000
    396          5.319351   1.000000
    397          5.332390   1.000000
    398          5.398142   1.000000
    399          5.556806   1.000000
    400          5.742444   1.000000
    401          5.789280   1.000000
    402          5.796346   1.000000
    403          5.817598   1.000000
    404          5.830068   1.000000
    405          5.857621   1.000000
    406          5.862055   1.000000
    407          5.904701   1.000000
    408          6.002482   1.000000
    409          6.005201   1.000000
    410          6.007699   1.000000
    411          6.035196   1.000000
    412          6.106272   1.000000
    413          6.107940   1.000000
    414          6.114352   1.000000
    415          6.116967   1.000000
    416          6.125938   1.000000
    417          6.137176   1.000000
    418          6.155202   1.000000
    419          6.160344   1.000000
    420          6.182730   1.000000
    421          6.208710   1.000000
    422          6.212504   1.000000
    423          6.227953   1.000000
    424          6.261300   1.000000
    425          6.286466   1.000000
    426          6.310982   1.000000
    427          6.312686   1.000000
    428          6.324366   1.000000
    429          6.335254   1.000000
    430          6.361700   1.000000
    431          6.396189   1.000000
    432          6.407699   1.000000
    433          6.440766   1.000000
    434          6.453247   1.000000
    435          6.472723   1.000000
    436          6.500979   1.000000
    437          6.516480   1.000000
    438          6.518329   1.000000
    439          6.527793   1.000000
    440          6.533724   1.000000
    441          6.541264   1.000000
    442          6.548711   1.000000
    443          6.560360   1.000000
    444          6.583968   1.000000
    445          6.592719   1.000000
    446          6.619567   1.000000
    447          6.644050   1.000000
    448          6.668078   1.000000
    449          6.677363   1.000000
    450          6.686745   1.000000
    451          6.695532   1.000000
    452          6.701737   1.000000
    453          6.747329   1.000000
    454          6.784438   1.000000
    455          6.810727   1.000000
    456          6.818087   1.000000
    457          6.848544   1.000000
    458          6.903158   1.000000
    459          6.906123   1.000000
    460          6.910856   1.000000
    461          6.922699   1.000000
    462          6.956094   1.000000
    463          7.002281   1.000000
    464          7.005141   1.000000
    465          7.017056   1.000000
    466          7.043853   1.000000
    467          7.058875   1.000000
    468          7.121843   1.000000
    469          7.134087   1.000000
    470          7.198144   1.000000
    471          7.201759   1.000000
    472          7.204781   1.000000
    473          7.208361   1.000000
    474          7.219961   1.000000
    475          7.226298   1.000000
    476          7.240096   1.000000
    477          7.254098   1.000000
    478          7.260288   1.000000
    479          7.270007   1.000000
    480          7.280378   1.000000
    481          7.292136   1.000000
    482          7.304592   1.000000
    483          7.307959   1.000000
    484          7.326705   1.000000
    485          7.340076   1.000000
    486          7.353998   1.000000
    487          7.365936   1.000000
    488          7.389791   1.000000
    489          7.404676   1.000000
    490          7.417782   1.000000
    491          7.428469   1.000000
    492          7.442789   1.000000
    493          7.459467   1.000000
    494          7.482452   1.000000
    495          7.488746   1.000000
    496          7.548543   1.000000
    497          7.587952   1.000000
    498          7.591396   1.000000
    499          7.617183   1.000000
    500          7.638636   1.000000
    501          7.659601   1.000000
    502          7.693969   1.000000
    503          7.725052   1.000000
    504          7.755156   1.000000
    505          7.782235   1.000000
    506          7.788259   1.000000
    507          7.791452   1.000000
    508          7.796008   1.000000
    509          7.808716   1.000000
    510          7.822889   1.000000
    511          7.836523   1.000000
    512          7.854117   1.000000
    513          7.865312   1.000000
    514          7.866245   1.000000
    515          7.888145   1.000000
    516          7.919219   1.000000
    517          7.930758   1.000000
    518          7.933908   1.000000
    519          7.942671   1.000000
    520          7.952060   1.000000
    521          7.966014   1.000000
    522          7.980121   1.000000
    523          8.008817   1.000000
    524          8.029727   1.000000
    525          8.039934   1.000000
    526          8.057541   1.000000
    527          8.075073   1.000000
    528          8.101333   1.000000
    529          8.107242   1.000000
    530          8.126544   1.000000
    531          8.129122   1.000000
    532          8.133270   1.000000
    533          8.138263   1.000000
    534          8.142331   1.000000
    535          8.165149   1.000000
    536          8.187443   1.000000
    537          8.200174   1.000001
    538          8.208303   1.000001
    539          8.217331   1.000001
    540          8.234962   1.000002
    541          8.235440   1.000002
    542          8.243456   1.000003
    543          8.245707   1.000003
    544          8.251082   1.000004
    545          8.259862   1.000005
    546          8.270554   1.000007
    547          8.291200   1.000014
    548          8.298135   1.000017
    549          8.306740   1.000022
    550          8.311594   1.000025
    551          8.322009   1.000035
    552          8.330209   1.000044
    553          8.334588   1.000051
    554          8.343095   1.000065
    555          8.344731   1.000068
    556          8.348557   1.000075
    557          8.350661   1.000080
    558          8.353207   1.000086
    559          8.361200   1.000108
    560          8.365114   1.000120
    561          8.390189   1.000235
    562          8.394763   1.000264
    563          8.579500   1.011449
    564          8.619012   1.019183
    565          8.632472   1.022226
    566          8.694659   1.034522
    567          8.709539   1.035448
    568          8.788527   0.999125
    569          8.791570   0.995633
    570          8.814387   0.962850
    571          8.845208   0.898564
    572          8.852475   0.879924
    573          8.862496   0.852068
    574          8.869780   0.830293
    575          8.872613   0.821486
    576          8.881409   0.792980
    577          8.926083   0.625494
    578          8.938142   0.575704
    579          9.008854   0.285206
    580          9.022967   0.233877
    581          9.028419   0.215089
    582          9.036172   0.189460
    583          9.044412   0.163708
    584          9.081186   0.068928
    585          9.095395   0.041387
    586          9.115613   0.010595
    587          9.154413  -0.024222
    588          9.166733  -0.029796
    589          9.187496  -0.034682
    590          9.207248  -0.035317
    591          9.212313  -0.035007
    592          9.231894  -0.032515
    593          9.241391  -0.030768
    594          9.251563  -0.028653
    595          9.266777  -0.025226
    596          9.284158  -0.021217
    597          9.287685  -0.020418
    598          9.293090  -0.019211
    599          9.297693  -0.018204
    600          9.300543  -0.017593
    601          9.309030  -0.015829
    602          9.310666  -0.015500
    603          9.314751  -0.014695
    604          9.317297  -0.014205
    605          9.320789  -0.013549
    606          9.325817  -0.012637
    607          9.333031  -0.011398
    608          9.337801  -0.010625
    609          9.344593  -0.009587
    610          9.351335  -0.008630
    611          9.372627  -0.006067
    612          9.411954  -0.002932
    613          9.423330  -0.002334
    614          9.460368  -0.001052
    615          9.486096  -0.000578
    616          9.491376  -0.000508
    617          9.499760  -0.000414
    618          9.503421  -0.000377
    619          9.506701  -0.000348
    620          9.517174  -0.000266
    621          9.526938  -0.000206
    622          9.534977  -0.000167
    623          9.548811  -0.000114
    624          9.557256  -0.000090
    625          9.564767  -0.000073
    626          9.578532  -0.000049
    627          9.582054  -0.000044
    628          9.585512  -0.000040
    629          9.602185  -0.000024
    630          9.606670  -0.000021
    631          9.614257  -0.000017
    632          9.620363  -0.000014
    633          9.625542  -0.000012
    634          9.633892  -0.000009
    635          9.663036  -0.000003
    636          9.693977  -0.000001
    637          9.699257  -0.000001
    638          9.712453  -0.000001
    639          9.726199  -0.000000
    640          9.740797  -0.000000
    641          9.749197  -0.000000
    642          9.758888  -0.000000
    643          9.764791  -0.000000
    644          9.783745  -0.000000
    645          9.798392  -0.000000
    646          9.806968  -0.000000
    647          9.813203  -0.000000
    648          9.832903  -0.000000
    649          9.841392  -0.000000
    650          9.854168  -0.000000
    651          9.877158  -0.000000
    652          9.881270  -0.000000
    653          9.882618  -0.000000
    654          9.892328  -0.000000
    655          9.898967  -0.000000
    656          9.906230  -0.000000
    657          9.916596  -0.000000
    658          9.925115  -0.000000
    659          9.944488  -0.000000
    660          9.951064  -0.000000
    661          9.959898  -0.000000
    662          9.993200  -0.000000
    663         10.004878  -0.000000
    664         10.023021  -0.000000
    665         10.031119  -0.000000
    666         10.044413  -0.000000
    667         10.056964  -0.000000
    668         10.062901  -0.000000
    669         10.068233  -0.000000
    670         10.072486  -0.000000
    671         10.078358  -0.000000
    672         10.080812  -0.000000
    673         10.088239  -0.000000
    674         10.097834  -0.000000
    675         10.101501  -0.000000
    676         10.111678  -0.000000
    677         10.118091  -0.000000
    678         10.123861  -0.000000
    679         10.127772  -0.000000
    680         10.130357  -0.000000
    681         10.136025  -0.000000
    682         10.148081  -0.000000
    683         10.157159  -0.000000
    684         10.165116  -0.000000
    685         10.170435  -0.000000
    686         10.174857  -0.000000
    687         10.177933  -0.000000
    688         10.184798  -0.000000
    689         10.188521  -0.000000
    690         10.194331  -0.000000
    691         10.203227  -0.000000
    692         10.206218  -0.000000
 
  0.2500000E+00  0.5000000E+00  0.3333333E+00  0.4166667E-01
      1        -39.897163   1.000000
      2        -39.880659   1.000000
      3        -39.873990   1.000000
      4        -39.870883   1.000000
      5        -39.863081   1.000000
      6        -39.859768   1.000000
      7        -39.845144   1.000000
      8        -39.841795   1.000000
      9        -39.835165   1.000000
     10        -39.830356   1.000000
     11        -39.826389   1.000000
     12        -39.825616   1.000000
     13        -39.821777   1.000000
     14        -39.818163   1.000000
     15        -39.815405   1.000000
     16        -39.811678   1.000000
     17        -39.806501   1.000000
     18        -39.802864   1.000000
     19        -39.801099   1.000000
     20        -39.799943   1.000000
     21        -39.797559   1.000000
     22        -39.794437   1.000000
     23        -39.794048   1.000000
     24        -39.792437   1.000000
     25        -39.790108   1.000000
     26        -39.787051   1.000000
     27        -39.785217   1.000000
     28        -39.783077   1.000000
     29        -39.782682   1.000000
     30        -39.780333   1.000000
     31        -39.778729   1.000000
     32        -39.777914   1.000000
     33        -39.776087   1.000000
     34        -39.775099   1.000000
     35        -39.773571   1.000000
     36        -39.771713   1.000000
     37        -39.769864   1.000000
     38        -39.768390   1.000000
     39        -39.767243   1.000000
     40        -39.764680   1.000000
     41        -39.762760   1.000000
     42        -39.761398   1.000000
     43        -39.760400   1.000000
     44        -39.759313   1.000000
     45        -39.758319   1.000000
     46        -39.757753   1.000000
     47        -39.756799   1.000000
     48        -39.755538   1.000000
     49        -39.754863   1.000000
     50        -39.754751   1.000000
     51        -39.754234   1.000000
     52        -39.753015   1.000000
     53        -39.752527   1.000000
     54        -39.750857   1.000000
     55        -39.750292   1.000000
     56        -39.749099   1.000000
     57        -39.747754   1.000000
     58        -39.746262   1.000000
     59        -39.746101   1.000000
     60        -39.744824   1.000000
     61        -39.744092   1.000000
     62        -39.742763   1.000000
     63        -39.741415   1.000000
     64        -39.740730   1.000000
     65        -39.740170   1.000000
     66        -39.739584   1.000000
     67        -39.739098   1.000000
     68        -39.738129   1.000000
     69        -39.737026   1.000000
     70        -39.736390   1.000000
     71        -39.735476   1.000000
     72        -39.734201   1.000000
     73        -39.733380   1.000000
     74        -39.732584   1.000000
     75        -39.731962   1.000000
     76        -39.730847   1.000000
     77        -39.730332   1.000000
     78        -39.729197   1.000000
     79        -39.728487   1.000000
     80        -39.727171   1.000000
     81        -39.725934   1.000000
     82        -39.725404   1.000000
     83        -39.724851   1.000000
     84        -39.723953   1.000000
     85        -39.723801   1.000000
     86        -39.723111   1.000000
     87        -39.722904   1.000000
     88        -39.722348   1.000000
     89        -39.720515   1.000000
     90        -39.719518   1.000000
     91        -39.716193   1.000000
     92        -39.715821   1.000000
     93        -39.715343   1.000000
     94        -39.714534   1.000000
     95        -39.714264   1.000000
     96        -39.713274   1.000000
     97        -18.359598   1.000000
     98        -18.326453   1.000000
     99        -18.314730   1.000000
    100        -18.310132   1.000000
    101        -18.292585   1.000000
    102        -18.283618   1.000000
    103        -18.278138   1.000000
    104        -18.276372   1.000000
    105        -18.271052   1.000000
    106        -18.265541   1.000000
    107        -18.263374   1.000000
    108        -18.259704   1.000000
    109        -18.257164   1.000000
    110        -18.256562   1.000000
    111        -18.253222   1.000000
    112        -18.249243   1.000000
    113        -18.243011   1.000000
    114        -18.239779   1.000000
    115        -18.235547   1.000000
    116        -18.235347   1.000000
    117        -18.233300   1.000000
    118        -18.232182   1.000000
    119        -18.230559   1.000000
    120        -18.228455   1.000000
    121        -18.222768   1.000000
    122        -18.219644   1.000000
    123        -18.218265   1.000000
    124        -18.217663   1.000000
    125        -18.216412   1.000000
    126        -18.215530   1.000000
    127        -18.214091   1.000000
    128        -18.213386   1.000000
    129        -18.211462   1.000000
    130        -18.209743   1.000000
    131        -18.203584   1.000000
    132        -18.199577   1.000000
    133        -18.197449   1.000000
    134        -18.196898   1.000000
    135        -18.195205   1.000000
    136        -18.193557   1.000000
    137        -18.191031   1.000000
    138        -18.187502   1.000000
    139        -18.180802   1.000000
    140        -18.176075   1.000000
    141        -18.173064   1.000000
    142        -18.172452   1.000000
    143        -18.169490   1.000000
    144        -18.168461   1.000000
    145        -18.166397   1.000000
    146        -18.161742   1.000000
    147        -18.156607   1.000000
    148        -18.144048   1.000000
    149        -18.125745   1.000000
    150        -18.119938   1.000000
    151        -18.117216   1.000000
    152        -18.115381   1.000000
    153        -18.114283   1.000000
    154        -18.112890   1.000000
    155        -18.112523   1.000000
    156        -18.111349   1.000000
    157        -18.110373   1.000000
    158        -18.109822   1.000000
    159        -18.091879   1.000000
    160        -18.086882   1.000000
    161        -18.079310   1.000000
    162        -18.064058   1.000000
    163        -18.060611   1.000000
    164        -18.054895   1.000000
    165        -18.051990   1.000000
    166        -18.051835   1.000000
    167        -18.049394   1.000000
    168        -18.047052   1.000000
    169        -18.046100   1.000000
    170        -18.045120   1.000000
    171        -18.043642   1.000000
    172        -18.041991   1.000000
    173        -18.040290   1.000000
    174        -18.036473   1.000000
    175        -18.035269   1.000000
    176        -18.032262   1.000000
    177        -18.029211   1.000000
    178        -18.028140   1.000000
    179        -18.006609   1.000000
    180        -17.988195   1.000000
    181        -17.984820   1.000000
    182        -17.981475   1.000000
    183        -17.978301   1.000000
    184        -17.973913   1.000000
    185        -17.968897   1.000000
    186        -17.965152   1.000000
    187        -17.958446   1.000000
    188        -17.953120   1.000000
    189        -17.943937   1.000000
    190        -17.941636   1.000000
    191        -17.940909   1.000000
    192        -17.934605   1.000000
    193        -17.932427   1.000000
    194        -17.928122   1.000000
    195        -17.924593   1.000000
    196        -17.918377   1.000000
    197        -17.914063   1.000000
    198        -17.912592   1.000000
    199        -17.910697   1.000000
    200        -17.901038   1.000000
    201        -17.898114   1.000000
    202        -17.896221   1.000000
    203        -17.893196   1.000000
    204        -17.891983   1.000000
    205        -17.890609   1.000000
    206        -17.889839   1.000000
    207        -17.888333   1.000000
    208        -17.885975   1.000000
    209        -17.877100   1.000000
    210        -17.867707   1.000000
    211        -17.862796   1.000000
    212        -17.857400   1.000000
    213        -17.855667   1.000000
    214        -17.852464   1.000000
    215        -17.836715   1.000000
    216        -17.835716   1.000000
    217        -17.832776   1.000000
    218        -17.826166   1.000000
    219        -17.824566   1.000000
    220        -17.821339   1.000000
    221        -17.817037   1.000000
    222        -17.815358   1.000000
    223        -17.805879   1.000000
    224        -17.796012   1.000000
    225        -17.786232   1.000000
    226        -17.776105   1.000000
    227        -17.771621   1.000000
    228        -17.770734   1.000000
    229        -17.766737   1.000000
    230        -17.765409   1.000000
    231        -17.762803   1.000000
    232        -17.761787   1.000000
    233        -17.758632   1.000000
    234        -17.757406   1.000000
    235        -17.753371   1.000000
    236        -17.752260   1.000000
    237        -17.747938   1.000000
    238        -17.743535   1.000000
    239        -17.741588   1.000000
    240        -17.737390   1.000000
    241        -17.736532   1.000000
    242        -17.733635   1.000000
    243        -17.731390   1.000000
    244        -17.729900   1.000000
    245        -17.727963   1.000000
    246        -17.727299   1.000000
    247        -17.725490   1.000000
    248        -17.724392   1.000000
    249        -17.723524   1.000000
    250        -17.722854   1.000000
    251        -17.721397   1.000000
    252        -17.720517   1.000000
    253        -17.720000   1.000000
    254        -17.717563   1.000000
    255        -17.715393   1.000000
    256        -17.714699   1.000000
    257        -17.712220   1.000000
    258        -17.711303   1.000000
    259        -17.710469   1.000000
    260        -17.709015   1.000000
    261        -17.706060   1.000000
    262        -17.705144   1.000000
    263        -17.702270   1.000000
    264        -17.699122   1.000000
    265        -17.697321   1.000000
    266        -17.688675   1.000000
    267        -17.684896   1.000000
    268        -17.683141   1.000000
    269        -17.682360   1.000000
    270        -17.681467   1.000000
    271        -17.679260   1.000000
    272        -17.678352   1.000000
    273        -17.676598   1.000000
    274        -17.672366   1.000000
    275        -17.670468   1.000000
    276        -17.668825   1.000000
    277        -17.668103   1.000000
    278        -17.667498   1.000000
    279        -17.665249   1.000000
    280        -17.664816   1.000000
    281        -17.653661   1.000000
    282        -17.652017   1.000000
    283        -17.650266   1.000000
    284        -17.647145   1.000000
    285        -17.641947   1.000000
    286        -17.640103   1.000000
    287        -17.635995   1.000000
    288        -17.633451   1.000000
    289        -17.630677   1.000000
    290        -17.628760   1.000000
    291        -17.627207   1.000000
    292        -17.625520   1.000000
    293        -17.624415   1.000000
    294        -17.623969   1.000000
    295        -17.623334   1.000000
    296        -17.622784   1.000000
    297        -17.621252   1.000000
    298        -17.620715   1.000000
    299        -17.619336   1.000000
    300        -17.617393   1.000000
    301        -17.616322   1.000000
    302        -17.615463   1.000000
    303        -17.614291   1.000000
    304        -17.612875   1.000000
    305        -17.611695   1.000000
    306        -17.610964   1.000000
    307        -17.610549   1.000000
    308        -17.608417   1.000000
    309        -17.607485   1.000000
    310        -17.602286   1.000000
    311        -17.601613   1.000000
    312        -17.599357   1.000000
    313        -17.596072   1.000000
    314        -17.595608   1.000000
    315        -17.594091   1.000000
    316        -17.593234   1.000000
    317        -17.591686   1.000000
    318        -17.590916   1.000000
    319        -17.590446   1.000000
    320        -17.589419   1.000000
    321        -17.587406   1.000000
    322        -17.586954   1.000000
    323        -17.586285   1.000000
    324        -17.585347   1.000000
    325        -17.584697   1.000000
    326        -17.584256   1.000000
    327        -17.583148   1.000000
    328        -17.582374   1.000000
    329        -17.581637   1.000000
    330        -17.581140   1.000000
    331        -17.580754   1.000000
    332        -17.580024   1.000000
    333        -17.579270   1.000000
    334        -17.578135   1.000000
    335        -17.577490   1.000000
    336        -17.575838   1.000000
    337        -17.574669   1.000000
    338        -17.573481   1.000000
    339        -17.570966   1.000000
    340        -17.570068   1.000000
    341        -17.568031   1.000000
    342        -17.567163   1.000000
    343        -17.563899   1.000000
    344        -17.562870   1.000000
    345        -17.562264   1.000000
    346        -17.555973   1.000000
    347        -17.555155   1.000000
    348        -17.553901   1.000000
    349        -17.552873   1.000000
    350        -17.544514   1.000000
    351        -17.543491   1.000000
    352        -17.542535   1.000000
    353        -17.540709   1.000000
    354        -17.539081   1.000000
    355        -17.537496   1.000000
    356        -17.536026   1.000000
    357        -17.535077   1.000000
    358        -17.534209   1.000000
    359        -17.531119   1.000000
    360        -17.528193   1.000000
    361        -17.526742   1.000000
    362        -17.522694   1.000000
    363        -17.521815   1.000000
    364        -17.520538   1.000000
    365        -17.519801   1.000000
    366        -17.517629   1.000000
    367        -17.516868   1.000000
    368        -17.516458   1.000000
    369        -17.515034   1.000000
    370        -17.512623   1.000000
    371        -17.511558   1.000000
    372        -17.494475   1.000000
    373        -17.489753   1.000000
    374        -17.487484   1.000000
    375        -17.473420   1.000000
    376        -17.470635   1.000000
    377        -17.469031   1.000000
    378        -17.467526   1.000000
    379        -17.464085   1.000000
    380        -17.455505   1.000000
    381        -17.454062   1.000000
    382        -17.449418   1.000000
    383        -17.449168   1.000000
    384        -17.436300   1.000000
    385          2.455509   1.000000
    386          3.757514   1.000000
    387          4.025439   1.000000
    388          4.115431   1.000000
    389          4.196869   1.000000
    390          4.379649   1.000000
    391          4.478700   1.000000
    392          5.004583   1.000000
    393          5.150509   1.000000
    394          5.182024   1.000000
    395          5.312223   1.000000
    396          5.319324   1.000000
    397          5.332391   1.000000
    398          5.398135   1.000000
    399          5.556816   1.000000
    400          5.742347   1.000000
    401          5.789370   1.000000
    402          5.796381   1.000000
    403          5.817626   1.000000
    404          5.829952   1.000000
    405          5.857625   1.000000
    406          5.862114   1.000000
    407          5.904767   1.000000
    408          6.002380   1.000000
    409          6.005368   1.000000
    410          6.007732   1.000000
    411          6.035329   1.000000
    412          6.106055   1.000000
    413          6.107830   1.000000
    414          6.114486   1.000000
    415          6.116879   1.000000
    416          6.126065   1.000000
    417          6.137218   1.000000
    418          6.155181   1.000000
    419          6.160342   1.000000
    420          6.182858   1.000000
    421          6.208641   1.000000
    422          6.212363   1.000000
    423          6.227859   1.000000
    424          6.261503   1.000000
    425          6.286226   1.000000
    426          6.310935   1.000000
    427          6.312929   1.000000
    428          6.324164   1.000000
    429          6.335124   1.000000
    430          6.361742   1.000000
    431          6.396131   1.000000
    432          6.407776   1.000000
    433          6.440516   1.000000
    434          6.453261   1.000000
    435          6.472540   1.000000
    436          6.501227   1.000000
    437          6.516492   1.000000
    438          6.518441   1.000000
    439          6.527879   1.000000
    440          6.533719   1.000000
    441          6.541390   1.000000
    442          6.548602   1.000000
    443          6.560516   1.000000
    444          6.583922   1.000000
    445          6.592631   1.000000
    446          6.619815   1.000000
    447          6.644050   1.000000
    448          6.668164   1.000000
    449          6.677274   1.000000
    450          6.686727   1.000000
    451          6.695572   1.000000
    452          6.701703   1.000000
    453          6.747447   1.000000
    454          6.784327   1.000000
    455          6.810653   1.000000
    456          6.818269   1.000000
    457          6.848239   1.000000
    458          6.903250   1.000000
    459          6.906154   1.000000
    460          6.910981   1.000000
    461          6.922817   1.000000
    462          6.956324   1.000000
    463          7.002126   1.000000
    464          7.005112   1.000000
    465          7.017060   1.000000
    466          7.043683   1.000000
    467          7.058995   1.000000
    468          7.121908   1.000000
    469          7.133953   1.000000
    470          7.198158   1.000000
    471          7.201855   1.000000
    472          7.205087   1.000000
    473          7.208297   1.000000
    474          7.219568   1.000000
    475          7.226032   1.000000
    476          7.240191   1.000000
    477          7.253573   1.000000
    478          7.260110   1.000000
    479          7.269783   1.000000
    480          7.280117   1.000000
    481          7.292299   1.000000
    482          7.304721   1.000000
    483          7.307994   1.000000
    484          7.326697   1.000000
    485          7.340142   1.000000
    486          7.354198   1.000000
    487          7.365869   1.000000
    488          7.389592   1.000000
    489          7.404788   1.000000
    490          7.418081   1.000000
    491          7.428658   1.000000
    492          7.442641   1.000000
    493          7.459422   1.000000
    494          7.482544   1.000000
    495          7.488911   1.000000
    496          7.548637   1.000000
    497          7.587827   1.000000
    498          7.591497   1.000000
    499          7.617570   1.000000
    500          7.638891   1.000000
    501          7.659713   1.000000
    502          7.693916   1.000000
    503          7.725230   1.000000
    504          7.754918   1.000000
    505          7.782270   1.000000
    506          7.788097   1.000000
    507          7.791358   1.000000
    508          7.795956   1.000000
    509          7.808717   1.000000
    510          7.822567   1.000000
    511          7.836618   1.000000
    512          7.853986   1.000000
    513          7.865511   1.000000
    514          7.866423   1.000000
    515          7.887918   1.000000
    516          7.919421   1.000000
    517          7.930640   1.000000
    518          7.934001   1.000000
    519          7.942387   1.000000
    520          7.951935   1.000000
    521          7.965632   1.000000
    522          7.980074   1.000000
    523          8.009046   1.000000
    524          8.029941   1.000000
    525          8.039855   1.000000
    526          8.057389   1.000000
    527          8.074916   1.000000
    528          8.101131   1.000000
    529          8.107149   1.000000
    530          8.126759   1.000000
    531          8.129202   1.000000
    532          8.133285   1.000000
    533          8.138498   1.000000
    534          8.142523   1.000000
    535          8.164952   1.000000
    536          8.187392   1.000000
    537          8.200340   1.000001
    538          8.207984   1.000001
    539          8.217432   1.000001
    540          8.235125   1.000002
    541          8.235339   1.000002
    542          8.243327   1.000003
    543          8.245502   1.000003
    544          8.251225   1.000004
    545          8.259873   1.000005
    546          8.270510   1.000007
    547          8.290886   1.000013
    548          8.298282   1.000017
    549          8.306500   1.000022
    550          8.311798   1.000026
    551          8.322049   1.000035
    552          8.329947   1.000044
    553          8.334621   1.000051
    554          8.343028   1.000064
    555          8.344844   1.000068
    556          8.348549   1.000075
    557          8.350877   1.000081
    558          8.353245   1.000086
    559          8.361255   1.000108
    560          8.364734   1.000119
    561          8.390337   1.000235
    562          8.395009   1.000266
    563          8.579320   1.011419
    564          8.618991   1.019179
    565          8.632761   1.022293
    566          8.694324   1.034486
    567          8.709508   1.035447
    568          8.788612   0.999030
    569          8.791606   0.995591
    570          8.814380   0.962863
    571          8.845237   0.898491
    572          8.852561   0.879696
    573          8.862482   0.852111
    574          8.869420   0.831398
    575          8.873209   0.819610
    576          8.881032   0.794238
    577          8.926421   0.624114
    578          8.938071   0.576002
    579          9.008782   0.285477
    580          9.023244   0.232909
    581          9.028811   0.213761
    582          9.036504   0.188394
    583          9.044041   0.164831
    584          9.081523   0.068217
    585          9.095083   0.041938
    586          9.115872   0.010261
    587          9.154518  -0.024280
    588          9.166833  -0.029832
    589          9.187714  -0.034707
    590          9.206925  -0.035331
    591          9.212339  -0.035005
    592          9.231628  -0.032560
    593          9.241074  -0.030831
    594          9.251769  -0.028608
    595          9.266467  -0.025297
    596          9.284761  -0.021080
    597          9.287939  -0.020360
    598          9.293703  -0.019076
    599          9.297440  -0.018259
    600          9.299778  -0.017756
    601          9.309095  -0.015816
    602          9.310733  -0.015487
    603          9.314948  -0.014657
    604          9.316991  -0.014263
    605          9.321002  -0.013510
    606          9.325930  -0.012617
    607          9.333040  -0.011397
    608          9.338323  -0.010543
    609          9.344767  -0.009561
    610          9.351199  -0.008648
    611          9.372347  -0.006097
    612          9.412002  -0.002929
    613          9.423034  -0.002348
    614          9.460414  -0.001051
    615          9.485904  -0.000580
    616          9.491305  -0.000509
    617          9.499965  -0.000411
    618          9.503552  -0.000376
    619          9.506566  -0.000349
    620          9.517577  -0.000263
    621          9.526975  -0.000206
    622          9.534791  -0.000167
    623          9.548515  -0.000115
    624          9.557403  -0.000090
    625          9.564581  -0.000074
    626          9.577938  -0.000050
    627          9.581677  -0.000045
    628          9.585696  -0.000040
    629          9.602338  -0.000024
    630          9.606530  -0.000021
    631          9.614228  -0.000017
    632          9.620021  -0.000014
    633          9.625700  -0.000012
    634          9.633874  -0.000009
    635          9.662903  -0.000003
    636          9.694253  -0.000001
    637          9.699086  -0.000001
    638          9.712500  -0.000001
    639          9.726317  -0.000000
    640          9.740633  -0.000000
    641          9.749171  -0.000000
    642          9.758987  -0.000000
    643          9.765746  -0.000000
    644          9.784103  -0.000000
    645          9.798925  -0.000000
    646          9.807016  -0.000000
    647          9.813035  -0.000000
    648          9.832882  -0.000000
    649          9.841542  -0.000000
    650          9.854135  -0.000000
    651          9.877330  -0.000000
    652          9.881354  -0.000000
    653          9.882947  -0.000000
    654          9.892436  -0.000000
    655          9.899154  -0.000000
    656          9.906178  -0.000000
    657          9.916494  -0.000000
    658          9.924538  -0.000000
    659          9.944515  -0.000000
    660          9.950693  -0.000000
    661          9.959872  -0.000000
    662          9.993403  -0.000000
    663         10.004829  -0.000000
    664         10.022924  -0.000000
    665         10.031053  -0.000000
    666         10.044047  -0.000000
    667         10.057266  -0.000000
    668         10.062988  -0.000000
    669         10.068234  -0.000000
    670         10.072355  -0.000000
    671         10.078340  -0.000000
    672         10.080737  -0.000000
    673         10.088180  -0.000000
    674         10.097707  -0.000000
    675         10.101082  -0.000000
    676         10.111880  -0.000000
    677         10.117851  -0.000000
    678         10.123870  -0.000000
    679         10.127755  -0.000000
    680         10.130602  -0.000000
    681         10.136058  -0.000000
    682         10.148325  -0.000000
    683         10.156647  -0.000000
    684         10.165075  -0.000000
    685         10.170070  -0.000000
    686         10.175270  -0.000000
    687         10.177744  -0.000000
    688         10.184924  -0.000000
    689         10.187905  -0.000000
    690         10.194130  -0.000000
    691         10.203345  -0.000000
    692         10.206389  -0.000000
 
  0.5000000E+00 -0.2500000E+00  0.3333333E+00  0.4166667E-01
      1        -39.897150   1.000000
      2        -39.880712   1.000000
      3        -39.874051   1.000000
      4        -39.870752   1.000000
      5        -39.863236   1.000000
      6        -39.859619   1.000000
      7        -39.845175   1.000000
      8        -39.841663   1.000000
      9        -39.835248   1.000000
     10        -39.830427   1.000000
     11        -39.826415   1.000000
     12        -39.825580   1.000000
     13        -39.821762   1.000000
     14        -39.818159   1.000000
     15        -39.815344   1.000000
     16        -39.811763   1.000000
     17        -39.806517   1.000000
     18        -39.802928   1.000000
     19        -39.801187   1.000000
     20        -39.799962   1.000000
     21        -39.797594   1.000000
     22        -39.794320   1.000000
     23        -39.793966   1.000000
     24        -39.792387   1.000000
     25        -39.790059   1.000000
     26        -39.787041   1.000000
     27        -39.785121   1.000000
     28        -39.783093   1.000000
     29        -39.782692   1.000000
     30        -39.780390   1.000000
     31        -39.778754   1.000000
     32        -39.777836   1.000000
     33        -39.776151   1.000000
     34        -39.775128   1.000000
     35        -39.773574   1.000000
     36        -39.771758   1.000000
     37        -39.769866   1.000000
     38        -39.768358   1.000000
     39        -39.767225   1.000000
     40        -39.764707   1.000000
     41        -39.762692   1.000000
     42        -39.761476   1.000000
     43        -39.760398   1.000000
     44        -39.759507   1.000000
     45        -39.758266   1.000000
     46        -39.757608   1.000000
     47        -39.756765   1.000000
     48        -39.755385   1.000000
     49        -39.755037   1.000000
     50        -39.754755   1.000000
     51        -39.754194   1.000000
     52        -39.753087   1.000000
     53        -39.752614   1.000000
     54        -39.750815   1.000000
     55        -39.750251   1.000000
     56        -39.749093   1.000000
     57        -39.747747   1.000000
     58        -39.746293   1.000000
     59        -39.746106   1.000000
     60        -39.744815   1.000000
     61        -39.744085   1.000000
     62        -39.742710   1.000000
     63        -39.741434   1.000000
     64        -39.740742   1.000000
     65        -39.740121   1.000000
     66        -39.739589   1.000000
     67        -39.739171   1.000000
     68        -39.738160   1.000000
     69        -39.737019   1.000000
     70        -39.736401   1.000000
     71        -39.735460   1.000000
     72        -39.734150   1.000000
     73        -39.733281   1.000000
     74        -39.732625   1.000000
     75        -39.731870   1.000000
     76        -39.731121   1.000000
     77        -39.730374   1.000000
     78        -39.729096   1.000000
     79        -39.728295   1.000000
     80        -39.727257   1.000000
     81        -39.725992   1.000000
     82        -39.725451   1.000000
     83        -39.724545   1.000000
     84        -39.724142   1.000000
     85        -39.723852   1.000000
     86        -39.723173   1.000000
     87        -39.722895   1.000000
     88        -39.722326   1.000000
     89        -39.720484   1.000000
     90        -39.719512   1.000000
     91        -39.716152   1.000000
     92        -39.715917   1.000000
     93        -39.715282   1.000000
     94        -39.714564   1.000000
     95        -39.714208   1.000000
     96        -39.713312   1.000000
     97        -18.359601   1.000000
     98        -18.326502   1.000000
     99        -18.314679   1.000000
    100        -18.310172   1.000000
    101        -18.292588   1.000000
    102        -18.283653   1.000000
    103        -18.278077   1.000000
    104        -18.276373   1.000000
    105        -18.271097   1.000000
    106        -18.265568   1.000000
    107        -18.263330   1.000000
    108        -18.259703   1.000000
    109        -18.257223   1.000000
    110        -18.256619   1.000000
    111        -18.253180   1.000000
    112        -18.249202   1.000000
    113        -18.242869   1.000000
    114        -18.239762   1.000000
    115        -18.235494   1.000000
    116        -18.235381   1.000000
    117        -18.233406   1.000000
    118        -18.232267   1.000000
    119        -18.230510   1.000000
    120        -18.228485   1.000000
    121        -18.222792   1.000000
    122        -18.219640   1.000000
    123        -18.218310   1.000000
    124        -18.217652   1.000000
    125        -18.216502   1.000000
    126        -18.215430   1.000000
    127        -18.214035   1.000000
    128        -18.213366   1.000000
    129        -18.211406   1.000000
    130        -18.209640   1.000000
    131        -18.203688   1.000000
    132        -18.199603   1.000000
    133        -18.197454   1.000000
    134        -18.196923   1.000000
    135        -18.195260   1.000000
    136        -18.193594   1.000000
    137        -18.191036   1.000000
    138        -18.187374   1.000000
    139        -18.180783   1.000000
    140        -18.176147   1.000000
    141        -18.173125   1.000000
    142        -18.172405   1.000000
    143        -18.169471   1.000000
    144        -18.168391   1.000000
    145        -18.166297   1.000000
    146        -18.161782   1.000000
    147        -18.156517   1.000000
    148        -18.144137   1.000000
    149        -18.125795   1.000000
    150        -18.119870   1.000000
    151        -18.117014   1.000000
    152        -18.115394   1.000000
    153        -18.114350   1.000000
    154        -18.112858   1.000000
    155        -18.112540   1.000000
    156        -18.111328   1.000000
    157        -18.110392   1.000000
    158        -18.109834   1.000000
    159        -18.091945   1.000000
    160        -18.086913   1.000000
    161        -18.079391   1.000000
    162        -18.064096   1.000000
    163        -18.060516   1.000000
    164        -18.054815   1.000000
    165        -18.052160   1.000000
    166        -18.051825   1.000000
    167        -18.049360   1.000000
    168        -18.047112   1.000000
    169        -18.046234   1.000000
    170        -18.045028   1.000000
    171        -18.043683   1.000000
    172        -18.041899   1.000000
    173        -18.040223   1.000000
    174        -18.036562   1.000000
    175        -18.035297   1.000000
    176        -18.032242   1.000000
    177        -18.029244   1.000000
    178        -18.028125   1.000000
    179        -18.006575   1.000000
    180        -17.988137   1.000000
    181        -17.985010   1.000000
    182        -17.981499   1.000000
    183        -17.978265   1.000000
    184        -17.973864   1.000000
    185        -17.968841   1.000000
    186        -17.965087   1.000000
    187        -17.958499   1.000000
    188        -17.953111   1.000000
    189        -17.943924   1.000000
    190        -17.941699   1.000000
    191        -17.940758   1.000000
    192        -17.934613   1.000000
    193        -17.932459   1.000000
    194        -17.928149   1.000000
    195        -17.924679   1.000000
    196        -17.918402   1.000000
    197        -17.914129   1.000000
    198        -17.912566   1.000000
    199        -17.910697   1.000000
    200        -17.901159   1.000000
    201        -17.897957   1.000000
    202        -17.896090   1.000000
    203        -17.893192   1.000000
    204        -17.891996   1.000000
    205        -17.890707   1.000000
    206        -17.889811   1.000000
    207        -17.888472   1.000000
    208        -17.885783   1.000000
    209        -17.877082   1.000000
    210        -17.867713   1.000000
    211        -17.862777   1.000000
    212        -17.857437   1.000000
    213        -17.855624   1.000000
    214        -17.852474   1.000000
    215        -17.836764   1.000000
    216        -17.835688   1.000000
    217        -17.832845   1.000000
    218        -17.826273   1.000000
    219        -17.824531   1.000000
    220        -17.821343   1.000000
    221        -17.817067   1.000000
    222        -17.815390   1.000000
    223        -17.805769   1.000000
    224        -17.795963   1.000000
    225        -17.786299   1.000000
    226        -17.776145   1.000000
    227        -17.771618   1.000000
    228        -17.770635   1.000000
    229        -17.766799   1.000000
    230        -17.765279   1.000000
    231        -17.762616   1.000000
    232        -17.761655   1.000000
    233        -17.758571   1.000000
    234        -17.757381   1.000000
    235        -17.753328   1.000000
    236        -17.752365   1.000000
    237        -17.747949   1.000000
    238        -17.743590   1.000000
    239        -17.741473   1.000000
    240        -17.737461   1.000000
    241        -17.736735   1.000000
    242        -17.733609   1.000000
    243        -17.731359   1.000000
    244        -17.729961   1.000000
    245        -17.728076   1.000000
    246        -17.727378   1.000000
    247        -17.725581   1.000000
    248        -17.724315   1.000000
    249        -17.723518   1.000000
    250        -17.722746   1.000000
    251        -17.721412   1.000000
    252        -17.720535   1.000000
    253        -17.720060   1.000000
    254        -17.717684   1.000000
    255        -17.715426   1.000000
    256        -17.714661   1.000000
    257        -17.712270   1.000000
    258        -17.711276   1.000000
    259        -17.710517   1.000000
    260        -17.709022   1.000000
    261        -17.705996   1.000000
    262        -17.705128   1.000000
    263        -17.702249   1.000000
    264        -17.699113   1.000000
    265        -17.697332   1.000000
    266        -17.688848   1.000000
    267        -17.684863   1.000000
    268        -17.683218   1.000000
    269        -17.682249   1.000000
    270        -17.681426   1.000000
    271        -17.679155   1.000000
    272        -17.678442   1.000000
    273        -17.676645   1.000000
    274        -17.672310   1.000000
    275        -17.670508   1.000000
    276        -17.668830   1.000000
    277        -17.668177   1.000000
    278        -17.667419   1.000000
    279        -17.665214   1.000000
    280        -17.664811   1.000000
    281        -17.653749   1.000000
    282        -17.651986   1.000000
    283        -17.650293   1.000000
    284        -17.647074   1.000000
    285        -17.642025   1.000000
    286        -17.640106   1.000000
    287        -17.635984   1.000000
    288        -17.633411   1.000000
    289        -17.630676   1.000000
    290        -17.628756   1.000000
    291        -17.627273   1.000000
    292        -17.625382   1.000000
    293        -17.624425   1.000000
    294        -17.624001   1.000000
    295        -17.623318   1.000000
    296        -17.622735   1.000000
    297        -17.621212   1.000000
    298        -17.620649   1.000000
    299        -17.619448   1.000000
    300        -17.617368   1.000000
    301        -17.616297   1.000000
    302        -17.615531   1.000000
    303        -17.614291   1.000000
    304        -17.612696   1.000000
    305        -17.611573   1.000000
    306        -17.611107   1.000000
    307        -17.610560   1.000000
    308        -17.608441   1.000000
    309        -17.607463   1.000000
    310        -17.602256   1.000000
    311        -17.601540   1.000000
    312        -17.599342   1.000000
    313        -17.596007   1.000000
    314        -17.595620   1.000000
    315        -17.594101   1.000000
    316        -17.593237   1.000000
    317        -17.591795   1.000000
    318        -17.590868   1.000000
    319        -17.590432   1.000000
    320        -17.589485   1.000000
    321        -17.587439   1.000000
    322        -17.587080   1.000000
    323        -17.586303   1.000000
    324        -17.585220   1.000000
    325        -17.584617   1.000000
    326        -17.584259   1.000000
    327        -17.583120   1.000000
    328        -17.582245   1.000000
    329        -17.581681   1.000000
    330        -17.581205   1.000000
    331        -17.580752   1.000000
    332        -17.580021   1.000000
    333        -17.579243   1.000000
    334        -17.578134   1.000000
    335        -17.577457   1.000000
    336        -17.575851   1.000000
    337        -17.574657   1.000000
    338        -17.573565   1.000000
    339        -17.570960   1.000000
    340        -17.570039   1.000000
    341        -17.568049   1.000000
    342        -17.567140   1.000000
    343        -17.563965   1.000000
    344        -17.562892   1.000000
    345        -17.562297   1.000000
    346        -17.555946   1.000000
    347        -17.555040   1.000000
    348        -17.553926   1.000000
    349        -17.552838   1.000000
    350        -17.544513   1.000000
    351        -17.543453   1.000000
    352        -17.542478   1.000000
    353        -17.540687   1.000000
    354        -17.539016   1.000000
    355        -17.537484   1.000000
    356        -17.536089   1.000000
    357        -17.535131   1.000000
    358        -17.534212   1.000000
    359        -17.531119   1.000000
    360        -17.528242   1.000000
    361        -17.526707   1.000000
    362        -17.522711   1.000000
    363        -17.521766   1.000000
    364        -17.520545   1.000000
    365        -17.519857   1.000000
    366        -17.517752   1.000000
    367        -17.516947   1.000000
    368        -17.516423   1.000000
    369        -17.514993   1.000000
    370        -17.512722   1.000000
    371        -17.511521   1.000000
    372        -17.494484   1.000000
    373        -17.489872   1.000000
    374        -17.487403   1.000000
    375        -17.473544   1.000000
    376        -17.470656   1.000000
    377        -17.468999   1.000000
    378        -17.467403   1.000000
    379        -17.464107   1.000000
    380        -17.455573   1.000000
    381        -17.453998   1.000000
    382        -17.449475   1.000000
    383        -17.449089   1.000000
    384        -17.436274   1.000000
    385          2.455508   1.000000
    386          3.757531   1.000000
    387          4.025451   1.000000
    388          4.115350   1.000000
    389          4.196935   1.000000
    390          4.379570   1.000000
    391          4.478759   1.000000
    392          5.004579   1.000000
    393          5.150522   1.000000
    394          5.182058   1.000000
    395          5.312159   1.000000
    396          5.319361   1.000000
    397          5.332380   1.000000
    398          5.398169   1.000000
    399          5.556797   1.000000
    400          5.742442   1.000000
    401          5.789266   1.000000
    402          5.796343   1.000000
    403          5.817606   1.000000
    404          5.830057   1.000000
    405          5.857579   1.000000
    406          5.862077   1.000000
    407          5.904676   1.000000
    408          6.002405   1.000000
    409          6.005220   1.000000
    410          6.007733   1.000000
    411          6.035370   1.000000
    412          6.106218   1.000000
    413          6.107993   1.000000
    414          6.114492   1.000000
    415          6.116855   1.000000
    416          6.125945   1.000000
    417          6.137142   1.000000
    418          6.155194   1.000000
    419          6.160370   1.000000
    420          6.182743   1.000000
    421          6.208772   1.000000
    422          6.212427   1.000000
    423          6.227940   1.000000
    424          6.261335   1.000000
    425          6.286368   1.000000
    426          6.310859   1.000000
    427          6.312717   1.000000
    428          6.324234   1.000000
    429          6.335286   1.000000
    430          6.361897   1.000000
    431          6.396166   1.000000
    432          6.407801   1.000000
    433          6.440672   1.000000
    434          6.453227   1.000000
    435          6.472585   1.000000
    436          6.500975   1.000000
    437          6.516565   1.000000
    438          6.518393   1.000000
    439          6.527778   1.000000
    440          6.533723   1.000000
    441          6.541213   1.000000
    442          6.548710   1.000000
    443          6.560372   1.000000
    444          6.583911   1.000000
    445          6.592738   1.000000
    446          6.619680   1.000000
    447          6.644117   1.000000
    448          6.668120   1.000000
    449          6.677264   1.000000
    450          6.686668   1.000000
    451          6.695612   1.000000
    452          6.701717   1.000000
    453          6.747335   1.000000
    454          6.784474   1.000000
    455          6.810721   1.000000
    456          6.817993   1.000000
    457          6.848566   1.000000
    458          6.903172   1.000000
    459          6.906161   1.000000
    460          6.910883   1.000000
    461          6.922770   1.000000
    462          6.955932   1.000000
    463          7.002372   1.000000
    464          7.005128   1.000000
    465          7.017081   1.000000
    466          7.043691   1.000000
    467          7.058928   1.000000
    468          7.121816   1.000000
    469          7.134004   1.000000
    470          7.198036   1.000000
    471          7.202030   1.000000
    472          7.204885   1.000000
    473          7.208288   1.000000
    474          7.220009   1.000000
    475          7.226310   1.000000
    476          7.240114   1.000000
    477          7.254084   1.000000
    478          7.260310   1.000000
    479          7.269928   1.000000
    480          7.280421   1.000000
    481          7.292209   1.000000
    482          7.304552   1.000000
    483          7.307944   1.000000
    484          7.326561   1.000000
    485          7.339667   1.000000
    486          7.354243   1.000000
    487          7.366069   1.000000
    488          7.389727   1.000000
    489          7.404664   1.000000
    490          7.417982   1.000000
    491          7.428459   1.000000
    492          7.442810   1.000000
    493          7.459560   1.000000
    494          7.482416   1.000000
    495          7.488597   1.000000
    496          7.548351   1.000000
    497          7.587935   1.000000
    498          7.591483   1.000000
    499          7.617384   1.000000
    500          7.638652   1.000000
    501          7.659566   1.000000
    502          7.693996   1.000000
    503          7.724974   1.000000
    504          7.755251   1.000000
    505          7.782424   1.000000
    506          7.788250   1.000000
    507          7.791462   1.000000
    508          7.796066   1.000000
    509          7.808868   1.000000
    510          7.822655   1.000000
    511          7.836578   1.000000
    512          7.854138   1.000000
    513          7.865330   1.000000
    514          7.866146   1.000000
    515          7.888007   1.000000
    516          7.919236   1.000000
    517          7.930638   1.000000
    518          7.933927   1.000000
    519          7.942514   1.000000
    520          7.952064   1.000000
    521          7.966071   1.000000
    522          7.980057   1.000000
    523          8.008716   1.000000
    524          8.029727   1.000000
    525          8.039952   1.000000
    526          8.057532   1.000000
    527          8.075183   1.000000
    528          8.101373   1.000000
    529          8.107368   1.000000
    530          8.126684   1.000000
    531          8.129170   1.000000
    532          8.132921   1.000000
    533          8.138383   1.000000
    534          8.142387   1.000000
    535          8.165005   1.000000
    536          8.187391   1.000000
    537          8.200313   1.000001
    538          8.208345   1.000001
    539          8.217480   1.000001
    540          8.234836   1.000002
    541          8.235417   1.000002
    542          8.243614   1.000003
    543          8.245713   1.000003
    544          8.251015   1.000004
    545          8.259642   1.000005
    546          8.270597   1.000007
    547          8.291152   1.000014
    548          8.298093   1.000017
    549          8.306653   1.000022
    550          8.311539   1.000025
    551          8.321910   1.000035
    552          8.330391   1.000045
    553          8.334943   1.000051
    554          8.343227   1.000065
    555          8.344469   1.000067
    556          8.348358   1.000075
    557          8.350926   1.000081
    558          8.353050   1.000086
    559          8.361422   1.000108
    560          8.364831   1.000119
    561          8.390250   1.000235
    562          8.394815   1.000264
    563          8.579386   1.011430
    564          8.619363   1.019261
    565          8.632477   1.022227
    566          8.694333   1.034487
    567          8.709545   1.035448
    568          8.788853   0.998761
    569          8.791308   0.995942
    570          8.814239   0.963102
    571          8.845221   0.898532
    572          8.852741   0.879219
    573          8.862518   0.852007
    574          8.869633   0.830746
    575          8.872652   0.821364
    576          8.881384   0.793063
    577          8.926227   0.624907
    578          8.938176   0.575563
    579          9.008701   0.285781
    580          9.022798   0.234470
    581          9.028550   0.214645
    582          9.036281   0.189110
    583          9.044541   0.163315
    584          9.081087   0.069138
    585          9.095210   0.041713
    586          9.115716   0.010462
    587          9.154567  -0.024306
    588          9.166578  -0.029740
    589          9.187701  -0.034706
    590          9.207113  -0.035323
    591          9.212475  -0.034994
    592          9.231391  -0.032600
    593          9.241389  -0.030769
    594          9.251688  -0.028626
    595          9.266831  -0.025213
    596          9.284371  -0.021169
    597          9.287991  -0.020349
    598          9.293063  -0.019217
    599          9.297663  -0.018211
    600          9.299869  -0.017737
    601          9.308906  -0.015854
    602          9.310998  -0.015434
    603          9.314699  -0.014705
    604          9.317306  -0.014203
    605          9.320922  -0.013524
    606          9.326130  -0.012582
    607          9.332880  -0.011424
    608          9.337806  -0.010624
    609          9.344571  -0.009590
    610          9.351218  -0.008646
    611          9.372477  -0.006083
    612          9.412620  -0.002894
    613          9.422923  -0.002353
    614          9.460126  -0.001058
    615          9.485672  -0.000583
    616          9.491430  -0.000508
    617          9.499712  -0.000414
    618          9.503370  -0.000378
    619          9.506339  -0.000351
    620          9.517387  -0.000265
    621          9.526850  -0.000207
    622          9.535345  -0.000165
    623          9.549094  -0.000113
    624          9.557216  -0.000091
    625          9.564894  -0.000073
    626          9.578314  -0.000050
    627          9.581536  -0.000045
    628          9.585712  -0.000040
    629          9.602295  -0.000024
    630          9.606637  -0.000021
    631          9.614667  -0.000017
    632          9.620218  -0.000014
    633          9.625480  -0.000012
    634          9.633958  -0.000009
    635          9.663024  -0.000003
    636          9.694195  -0.000001
    637          9.699449  -0.000001
    638          9.712282  -0.000001
    639          9.726185  -0.000000
    640          9.740519  -0.000000
    641          9.749153  -0.000000
    642          9.759181  -0.000000
    643          9.764577  -0.000000
    644          9.783719  -0.000000
    645          9.798775  -0.000000
    646          9.806846  -0.000000
    647          9.813036  -0.000000
    648          9.832741  -0.000000
    649          9.841444  -0.000000
    650          9.854531  -0.000000
    651          9.877284  -0.000000
    652          9.881374  -0.000000
    653          9.882592  -0.000000
    654          9.892333  -0.000000
    655          9.899132  -0.000000
    656          9.906212  -0.000000
    657          9.916994  -0.000000
    658          9.924554  -0.000000
    659          9.944729  -0.000000
    660          9.950553  -0.000000
    661          9.960060  -0.000000
    662          9.993202  -0.000000
    663         10.004912  -0.000000
    664         10.022999  -0.000000
    665         10.031180  -0.000000
    666         10.044130  -0.000000
    667         10.057355  -0.000000
    668         10.062880  -0.000000
    669         10.067950  -0.000000
    670         10.072097  -0.000000
    671         10.078392  -0.000000
    672         10.080820  -0.000000
    673         10.088384  -0.000000
    674         10.098071  -0.000000
    675         10.101058  -0.000000
    676         10.111744  -0.000000
    677         10.118126  -0.000000
    678         10.124234  -0.000000
    679         10.128057  -0.000000
    680         10.130543  -0.000000
    681         10.135634  -0.000000
    682         10.148118  -0.000000
    683         10.156890  -0.000000
    684         10.165128  -0.000000
    685         10.170560  -0.000000
    686         10.175105  -0.000000
    687         10.177730  -0.000000
    688         10.184901  -0.000000
    689         10.188547  -0.000000
    690         10.194095  -0.000000
    691         10.203672  -0.000000
    692         10.206108  -0.000000
