       N       E                     dE             d eps       ncg     rms          rms(c)
DAV:   1     0.127727357665E+05    0.12773E+05   -0.55774E+05 36000   0.151E+03
DAV:   2     0.508536893972E+03   -0.12264E+05   -0.11959E+05 37912   0.499E+02
DAV:   3    -0.666776154104E+03   -0.11753E+04   -0.11203E+04 56768   0.111E+02
DAV:   4    -0.840401470133E+03   -0.17363E+03   -0.17081E+03 55200   0.348E+01
DAV:   5    -0.856503916914E+03   -0.16102E+02   -0.16011E+02 50232   0.880E+00    0.992E+01
DAV:   6    -0.827063606496E+03    0.29440E+02   -0.52541E+01 41712   0.104E+01    0.384E+01
DAV:   7    -0.824109783215E+03    0.29538E+01   -0.30299E+01 44832   0.861E+00    0.967E+00
DAV:   8    -0.821748517554E+03    0.23613E+01   -0.93873E+00 48776   0.518E+00    0.800E+00
DAV:   9    -0.821953419813E+03   -0.20490E+00   -0.33185E+00 51888   0.270E+00    0.490E+00
DAV:  10    -0.821838733217E+03    0.11469E+00   -0.17118E+00 48144   0.238E+00    0.109E+00
DAV:  11    -0.821814464810E+03    0.24268E-01   -0.37635E-01 46600   0.120E+00    0.654E-01
DAV:  12    -0.821808329545E+03    0.61353E-02   -0.10256E-01 47688   0.734E-01    0.540E-01
DAV:  13    -0.821794222040E+03    0.14108E-01   -0.47683E-02 47336   0.444E-01    0.222E-01
DAV:  14    -0.821795018237E+03   -0.79620E-03   -0.15502E-02 49896   0.130E-01    0.154E-01
DAV:  15    -0.821794890932E+03    0.12730E-03   -0.19091E-03 50584   0.653E-02    0.916E-02
DAV:  16    -0.821794782835E+03    0.10810E-03   -0.32953E-04 49112   0.325E-02    0.432E-02
DAV:  17    -0.821794747299E+03    0.35537E-04   -0.17113E-04 48496   0.247E-02    0.178E-02
DAV:  18    -0.821794740568E+03    0.67311E-05   -0.49972E-05 48776   0.127E-02    0.114E-02
DAV:  19    -0.821794739755E+03    0.81256E-06   -0.79316E-06 39424   0.453E-03
   1 F= -.82179474E+03 E0= -.82185537E+03  d E =-.821795E+03
       N       E                     dE             d eps       ncg     rms          rms(c)
DAV:   1    -0.821828571583E+03   -0.33831E-01   -0.10274E+01 36496   0.482E+00    0.493E-01
DAV:   2    -0.821849139294E+03   -0.20568E-01   -0.21730E-01 41472   0.745E-01    0.349E-01
DAV:   3    -0.821851478466E+03   -0.23392E-02   -0.22028E-02 55968   0.274E-01    0.331E-01
DAV:   4    -0.821849345509E+03    0.21330E-02   -0.64723E-03 48912   0.192E-01    0.203E-01
DAV:   5    -0.821849243961E+03    0.10155E-03   -0.27141E-03 45064   0.109E-01    0.897E-02
DAV:   6    -0.821849088775E+03    0.15519E-03   -0.97304E-04 50960   0.701E-02    0.350E-02
DAV:   7    -0.821849099358E+03   -0.10583E-04   -0.29527E-04 54072   0.377E-02    0.307E-02
DAV:   8    -0.821849069358E+03    0.30000E-04   -0.12505E-04 47160   0.269E-02    0.178E-02
DAV:   9    -0.821849065878E+03    0.34795E-05   -0.40495E-05 48584   0.119E-02    0.963E-03
DAV:  10    -0.821849066305E+03   -0.42639E-06   -0.11217E-05 41048   0.575E-03    0.548E-03
DAV:  11    -0.821849066797E+03   -0.49242E-06   -0.32746E-06 32032   0.318E-03
   2 F= -.82184907E+03 E0= -.82190949E+03  d E =-.543270E-01
       N       E                     dE             d eps       ncg     rms          rms(c)
DAV:   1    -0.821776342254E+03    0.72724E-01   -0.46986E+01 36080   0.103E+01    0.952E-01
DAV:   2    -0.821879354906E+03   -0.10301E+00   -0.10864E+00 41768   0.165E+00    0.734E-01
DAV:   3    -0.821888296650E+03   -0.89417E-02   -0.10656E-01 55672   0.520E-01    0.667E-01
DAV:   4    -0.821881282146E+03    0.70145E-02   -0.22427E-02 48752   0.341E-01    0.448E-01
DAV:   5    -0.821880929264E+03    0.35288E-03   -0.93889E-03 45392   0.194E-01    0.231E-01
DAV:   6    -0.821880248795E+03    0.68047E-03   -0.42172E-03 45360   0.151E-01    0.810E-02
DAV:   7    -0.821880179067E+03    0.69728E-04   -0.14809E-03 54856   0.691E-02    0.505E-02
DAV:   8    -0.821880182899E+03   -0.38317E-05   -0.35126E-04 49072   0.313E-02    0.376E-02
DAV:   9    -0.821880194620E+03   -0.11721E-04   -0.94157E-05 48928   0.230E-02    0.318E-02
DAV:  10    -0.821880182868E+03    0.11752E-04   -0.63828E-05 48144   0.203E-02    0.173E-02
DAV:  11    -0.821880178833E+03    0.40354E-05   -0.29809E-05 46640   0.105E-02    0.555E-03
DAV:  12    -0.821880178671E+03    0.16126E-06   -0.79164E-06 38440   0.471E-03
   3 F= -.82188018E+03 E0= -.82193993E+03  d E =-.854389E-01
       N       E                     dE             d eps       ncg     rms          rms(c)
DAV:   1    -0.821878708494E+03    0.14703E-02   -0.19087E+00 36312   0.207E+00    0.191E-01
DAV:   2    -0.821882478654E+03   -0.37702E-02   -0.40047E-02 41008   0.301E-01    0.113E-01
DAV:   3    -0.821882898568E+03   -0.41991E-03   -0.29821E-03 55628   0.930E-02    0.110E-01
DAV:   4    -0.821882590378E+03    0.30819E-03   -0.88695E-04 47432   0.720E-02    0.662E-02
DAV:   5    -0.821882591085E+03   -0.70757E-06   -0.38667E-04 45928   0.398E-02    0.363E-02
DAV:   6    -0.821882559190E+03    0.31895E-04   -0.13992E-04 55904   0.256E-02    0.117E-02
DAV:   7    -0.821882559370E+03   -0.18007E-06   -0.32690E-05 47648   0.944E-03    0.739E-03
DAV:   8    -0.821882559522E+03   -0.15128E-06   -0.77985E-06 37368   0.564E-03
   4 F= -.82188256E+03 E0= -.82194247E+03  d E =-.878198E-01
       N       E                     dE             d eps       ncg     rms          rms(c)
DAV:   1    -0.821884611986E+03   -0.20526E-02   -0.11302E+00 36200   0.171E+00    0.147E-01
DAV:   2    -0.821887315037E+03   -0.27031E-02   -0.24825E-02 41000   0.278E-01    0.112E-01
DAV:   3    -0.821887250296E+03    0.64741E-04   -0.31723E-03 61200   0.126E-01    0.104E-01
DAV:   4    -0.821886990581E+03    0.25972E-03   -0.81017E-04 51552   0.635E-02    0.622E-02
DAV:   5    -0.821886969667E+03    0.20914E-04   -0.18160E-04 46552   0.274E-02    0.359E-02
DAV:   6    -0.821886971159E+03   -0.14922E-05   -0.78941E-05 46864   0.167E-02    0.133E-02
DAV:   7    -0.821886968061E+03    0.30977E-05   -0.38991E-05 52856   0.116E-02    0.776E-03
DAV:   8    -0.821886968835E+03   -0.77400E-06   -0.79080E-06 37488   0.672E-03
   5 F= -.82188697E+03 E0= -.82194696E+03  d E =-.440931E-02
       N       E                     dE             d eps       ncg     rms          rms(c)
DAV:   1    -0.821880670488E+03    0.62976E-02   -0.52015E+00 36000   0.366E+00    0.314E-01
DAV:   2    -0.821893584121E+03   -0.12914E-01   -0.11468E-01 41168   0.605E-01    0.256E-01
DAV:   3    -0.821892703039E+03    0.88108E-03   -0.15226E-02 60800   0.281E-01    0.221E-01
DAV:   4    -0.821891619572E+03    0.10835E-02   -0.38486E-03 52176   0.134E-01    0.135E-01
DAV:   5    -0.821891523887E+03    0.95685E-04   -0.86590E-04 46288   0.582E-02    0.785E-02
DAV:   6    -0.821891534619E+03   -0.10732E-04   -0.37859E-04 48216   0.353E-02    0.293E-02
DAV:   7    -0.821891517704E+03    0.16915E-04   -0.18753E-04 53192   0.244E-02    0.154E-02
DAV:   8    -0.821891519388E+03   -0.16838E-05   -0.27323E-05 48640   0.936E-03    0.106E-02
DAV:   9    -0.821891519912E+03   -0.52352E-06   -0.11673E-05 39232   0.883E-03    0.883E-03
DAV:  10    -0.821891518584E+03    0.13278E-05   -0.68542E-06 36008   0.649E-03    0.428E-03
DAV:  11    -0.821891518599E+03   -0.15440E-07   -0.18037E-06 27408   0.299E-03
   6 F= -.82189152E+03 E0= -.82195154E+03  d E =-.895908E-02
       N       E                     dE             d eps       ncg     rms          rms(c)
DAV:   1    -0.821891063686E+03    0.45490E-03   -0.29373E-01 36264   0.871E-01    0.744E-02
DAV:   2    -0.821891787087E+03   -0.72340E-03   -0.64636E-03 41192   0.143E-01    0.601E-02
DAV:   3    -0.821891742851E+03    0.44237E-04   -0.83718E-04 60880   0.661E-02    0.521E-02
DAV:   4    -0.821891681505E+03    0.61346E-04   -0.20883E-04 52008   0.317E-02    0.318E-02
DAV:   5    -0.821891676086E+03    0.54192E-05   -0.46334E-05 46272   0.139E-02    0.184E-02
DAV:   6    -0.821891676388E+03   -0.30237E-06   -0.19723E-05 46840   0.835E-03    0.671E-03
DAV:   7    -0.821891675520E+03    0.86750E-06   -0.95138E-06 46392   0.571E-03
   7 F= -.82189168E+03 E0= -.82195169E+03  d E =-.911600E-02
       N       E                     dE             d eps       ncg     rms          rms(c)
DAV:   1    -0.821891751476E+03   -0.75088E-04   -0.33209E-01 36248   0.938E-01    0.722E-02
DAV:   2    -0.821892663976E+03   -0.91250E-03   -0.75670E-03 42440   0.154E-01    0.687E-02
DAV:   3    -0.821892526792E+03    0.13718E-03   -0.99882E-04 62688   0.697E-02    0.495E-02
DAV:   4    -0.821892495843E+03    0.30949E-04   -0.17077E-04 50752   0.246E-02    0.315E-02
DAV:   5    -0.821892493770E+03    0.20731E-05   -0.42719E-05 46608   0.139E-02    0.194E-02
DAV:   6    -0.821892492476E+03    0.12936E-05   -0.23671E-05 45784   0.110E-02    0.833E-03
DAV:   7    -0.821892492061E+03    0.41530E-06   -0.12512E-05 47232   0.845E-03    0.702E-03
DAV:   8    -0.821892490699E+03    0.13618E-05   -0.40399E-06 32624   0.490E-03    0.406E-03
DAV:   9    -0.821892490763E+03   -0.64174E-07   -0.10840E-06 23080   0.207E-03
   8 F= -.82189249E+03 E0= -.82195253E+03  d E =-.815243E-03
       N       E                     dE             d eps       ncg     rms          rms(c)
DAV:   1    -0.821891405164E+03    0.10855E-02   -0.70726E-01 36096   0.137E+00    0.105E-01
DAV:   2    -0.821893346630E+03   -0.19415E-02   -0.16111E-02 42504   0.224E-01    0.100E-01
DAV:   3    -0.821893058363E+03    0.28827E-03   -0.21385E-03 62656   0.101E-01    0.723E-02
DAV:   4    -0.821892991902E+03    0.66461E-04   -0.36564E-04 50656   0.361E-02    0.461E-02
DAV:   5    -0.821892987107E+03    0.47945E-05   -0.91419E-05 46520   0.202E-02    0.284E-02
DAV:   6    -0.821892981174E+03    0.59334E-05   -0.48531E-05 53376   0.147E-02    0.939E-03
DAV:   7    -0.821892981298E+03   -0.12440E-06   -0.19069E-05 54616   0.739E-03    0.724E-03
DAV:   8    -0.821892981419E+03   -0.12084E-06   -0.34776E-06 32880   0.450E-03
   9 F= -.82189298E+03 E0= -.82195304E+03  d E =-.130590E-02
       N       E                     dE             d eps       ncg     rms          rms(c)
DAV:   1    -0.821892863577E+03    0.11772E-03   -0.17564E-01 36464   0.682E-01    0.481E-02
DAV:   2    -0.821893305606E+03   -0.44203E-03   -0.40615E-03 42368   0.108E-01    0.416E-02
DAV:   3    -0.821893286608E+03    0.18997E-04   -0.45430E-04 62240   0.428E-02    0.352E-02
DAV:   4    -0.821893268073E+03    0.18535E-04   -0.74070E-05 50104   0.169E-02    0.224E-02
DAV:   5    -0.821893267454E+03    0.61897E-06   -0.20242E-05 47096   0.914E-03    0.140E-02
DAV:   6    -0.821893265589E+03    0.18651E-05   -0.12243E-05 44984   0.729E-03    0.428E-03
DAV:   7    -0.821893265681E+03   -0.91692E-07   -0.33092E-06 29840   0.295E-03
  10 F= -.82189327E+03 E0= -.82195331E+03  d E =-.284262E-03
       N       E                     dE             d eps       ncg     rms          rms(c)
DAV:   1    -0.821892749314E+03    0.51628E-03   -0.28393E-01 36304   0.868E-01    0.608E-02
DAV:   2    -0.821893454513E+03   -0.70520E-03   -0.65540E-03 42360   0.137E-01    0.517E-02
DAV:   3    -0.821893433289E+03    0.21223E-04   -0.72245E-04 62100   0.536E-02    0.447E-02
DAV:   4    -0.821893401510E+03    0.31779E-04   -0.12030E-04 50856   0.219E-02    0.285E-02
DAV:   5    -0.821893400127E+03    0.13826E-05   -0.31808E-05 47112   0.114E-02    0.180E-02
DAV:   6    -0.821893397941E+03    0.21859E-05   -0.19387E-05 46056   0.933E-03    0.621E-03
DAV:   7    -0.821893398120E+03   -0.17846E-06   -0.80084E-06 43528   0.580E-03
  11 F= -.82189340E+03 E0= -.82195342E+03  d E =-.416701E-03
       N       E                     dE             d eps       ncg     rms          rms(c)
DAV:   1    -0.821893159543E+03    0.23840E-03   -0.17099E-01 36376   0.672E-01    0.446E-02
DAV:   2    -0.821893557324E+03   -0.39778E-03   -0.39884E-03 41656   0.102E-01    0.340E-02
DAV:   3    -0.821893577874E+03   -0.20549E-04   -0.36571E-04 55800   0.340E-02    0.336E-02
DAV:   4    -0.821893556381E+03    0.21493E-04   -0.60890E-05 47824   0.169E-02    0.212E-02
DAV:   5    -0.821893556316E+03    0.64640E-07   -0.19176E-05 47144   0.866E-03    0.124E-02
DAV:   6    -0.821893554351E+03    0.19656E-05   -0.12545E-05 43280   0.761E-03    0.416E-03
DAV:   7    -0.821893554400E+03   -0.49055E-07   -0.33783E-06 30672   0.343E-03
  12 F= -.82189355E+03 E0= -.82195357E+03  d E =-.156280E-03
       N       E                     dE             d eps       ncg     rms          rms(c)
DAV:   1    -0.821893516610E+03    0.37740E-04   -0.28322E-02 36608   0.274E-01    0.177E-02
DAV:   2    -0.821893584256E+03   -0.67645E-04   -0.66191E-04 41904   0.422E-02    0.152E-02
DAV:   3    -0.821893584702E+03   -0.44609E-06   -0.63951E-05 55632   0.147E-02    0.135E-02
DAV:   4    -0.821893581952E+03    0.27501E-05   -0.10170E-05 37032   0.648E-03    0.881E-03
DAV:   5    -0.821893581961E+03   -0.97643E-08   -0.28584E-06 30624   0.356E-03
  13 F= -.82189358E+03 E0= -.82195359E+03  d E =-.183842E-03
