TT_c image 03                           
   1.00000000000000     
     6.4683126953282200  -11.2034462275512592    0.0000000000000000
     6.4683126953282200   11.2034462275512592    0.0000000000000000
     0.0000000000000000    0.0000000000000000   15.4980644251775299
   Zr   H 
    96     1
Direct
  0.0832437237918426  0.1662732185688376  0.0833416535036223
  0.1668513311429917  0.0834418437347770  0.2499095502802828
  0.0826641969078568  0.1662171540636584  0.4161841171820300
  0.1667324866180097  0.0835814304400837  0.5832630842388664
  0.0826928443938759  0.1664427509309868  0.7504215267180206
  0.1669140001146939  0.0835290614508436  0.9166445934631392
  0.0832437257347506  0.4169705060751722  0.0833416534478175
  0.1667255428846993  0.3333627738695188  0.2497662997560397
  0.0826641962422903  0.4164470418526833  0.4161841159519593
  0.1577082915484036  0.3288541436350518  0.5827670382194895
  0.0826928467186652  0.4162500945506792  0.7504215284519681
  0.1667577631366026  0.3333788831416531  0.9168032482555420
  0.0833124683149404  0.6666610047989833  0.0832831602189504
  0.1668513343102925  0.5834094879433142  0.2499095509289296
  0.0833794970913701  0.6666513170937460  0.4166288803093812
  0.1667324848031768  0.5831510548039991  0.5832630839288094
  0.0833735756652011  0.6666402919750913  0.7499560040528810
  0.1669140048221898  0.5833849409879626  0.9166445932429949
  0.0833124661340566  0.9166514637861253  0.0832831593298954
  0.1666522040736146  0.8333261019109642  0.2499701402652482
  0.0833794948904050  0.9167281787062246  0.4166288807140555
  0.1666878991720604  0.8333439516021168  0.5833270039843117
  0.0833735741502632  0.9167332838327850  0.7499560043456290
  0.1666514833999109  0.8333257413882911  0.9166711824298183
  0.3331568423107764  0.1664087083401642  0.0833391967275036
  0.4168372539840824  0.0831852396179337  0.2498116140642372
  0.3335909655743001  0.1663738355863433  0.4163306075390127
  0.4165703967381418  0.0816197364545674  0.5833359344725847
  0.3338144087504449  0.1664952514565820  0.7503172692527871
  0.4168449599704019  0.0831745444174602  0.9169070795893156
  0.3332882303874652  0.4166441163151638  0.0833877926960216
  0.4165762509286622  0.3332809137968687  0.2496523926818959
  0.3334000206436247  0.4167000116623235  0.4134352363723516
  0.4210354532600256  0.3288035991312616  0.5827682685708497
  0.3333923392104712  0.4166961696050369  0.7522858028866221
  0.4165531607015452  0.3332994658533712  0.9168988835799884
  0.3331568468760402  0.6667481367022221  0.0833391971287815
  0.4165762532456790  0.5832953396754945  0.2496523906854562
  0.3335909660515388  0.6672171292892578  0.4163306050078055
  0.4210354544379356  0.5922318551200871  0.5827682684625358
  0.3338144090130674  0.6673191569365203  0.7503172737721986
  0.4165531616685693  0.5832536976175861  0.9168988846969645
  0.3330185611841697  0.9165092795071734  0.0833753538418748
  0.4168372569332640  0.8336520120080749  0.2498116133325267
  0.3334205489156870  0.9167102748455916  0.4162239557201928
  0.4165703965056572  0.8349506630344546  0.5833359344242162
  0.3334298599532152  0.9167149297600270  0.7504598522158011
  0.4168449637558940  0.8336704146928929  0.9169070815325594
  0.5833141469463304  0.1666825401088920  0.0833799579281283
  0.6667259438962507  0.0833629694826895  0.2501659019735957
  0.5834063788558042  0.1665916811395951  0.4170251421042160
  0.6667491119474843  0.0833745538370503  0.5833520060428476
  0.5834496672273375  0.1664675935194457  0.7497897437432528
  0.6667277910048717  0.0833638917764328  0.9166384213715445
  0.5836548459645323  0.4168907876918621  0.0833459781040429
  0.6667441375156757  0.3332380619356693  0.2498584432513022
  0.5837032203083792  0.4162839215370056  0.4162154592127758
  0.6683161052000693  0.3334935957339812  0.5833400320058290
  0.5835200869840553  0.4160731909121099  0.7504307449148835
  0.6667468808023458  0.3332361582976388  0.9168424660824789
  0.5836548465440049  0.6667640658273540  0.0833459794869561
  0.6663593142375196  0.5831796601218556  0.2499795904410037
  0.5837032203725090  0.6674193000489080  0.4162154575965116
  0.6662941292017767  0.5831470648193692  0.5832806688419369
  0.5835200903295744  0.6674468991123734  0.7504307468530615
  0.6663074448210372  0.5831537261023995  0.9166634782164403
  0.5833141496422914  0.9166316011283920  0.0833799583947746
  0.6667441387911154  0.8335060744900139  0.2498584429502437
  0.5834063796751530  0.9168146949166841  0.4170251401059537
  0.6683161042812971  0.8348225101355504  0.5833400322656332
  0.5834496677983281  0.9169820716842078  0.7497897457294297
  0.6667468776886485  0.8335107189642794  0.9168424667780340
  0.8334045515565068  0.1667022732110083  0.0833470334283276
  0.9165008830186150  0.0832181260897139  0.2497547364307224
  0.8333022051276584  0.1666511002776863  0.4168896620310563
  0.9151540931584912  0.0816573529663279  0.5833303129601287
  0.8331962386533336  0.1665981161950048  0.7498717076709159
  0.9165034447502287  0.0832099111253427  0.9169322676253445
  0.8333532808994375  0.4167769232869341  0.0833932338876477
  0.9165008852965071  0.3332827555791318  0.2497547361764627
  0.8332820628730803  0.4165855036455591  0.4162315431223839
  0.9151540904855263  0.3334967375736904  0.5833303128682882
  0.8332698206579765  0.4165617063863755  0.7504501457542051
  0.9165034472095570  0.3332935303811298  0.9169322677403150
  0.8332988281855038  0.6666494179931493  0.0833244528185790
  0.9166564258184517  0.5833337901580088  0.2499627868707857
  0.8332684353163494  0.6666342207883278  0.4166526994677177
  0.9166503355207687  0.5833437912503391  0.5833313001924525
  0.8332534004552901  0.6666267023259659  0.7499911176409926
  0.9166542679978416  0.5833327328403792  0.9166968284099566
  0.8333532791918682  0.9165763554662607  0.0833932326915695
  0.9166564240282230  0.8333226371925899  0.2499627855285116
  0.8332820617382426  0.9166965594025150  0.4162315449015854
  0.9166503350705324  0.8333065470132127  0.5833313000525371
  0.8332698206472487  0.9167081166991310  0.7504501448463642
  0.9166542654542321  0.8333215373352262  0.9166968282415097
  0.3332653731226889  0.4166326855899344  0.5914717458503108
 
  0.00000000E+00  0.00000000E+00  0.00000000E+00
  0.00000000E+00  0.00000000E+00  0.00000000E+00
  0.00000000E+00  0.00000000E+00  0.00000000E+00
  0.00000000E+00  0.00000000E+00  0.00000000E+00
  0.00000000E+00  0.00000000E+00  0.00000000E+00
  0.00000000E+00  0.00000000E+00  0.00000000E+00
  0.00000000E+00  0.00000000E+00  0.00000000E+00
  0.00000000E+00  0.00000000E+00  0.00000000E+00
  0.00000000E+00  0.00000000E+00  0.00000000E+00
  0.00000000E+00  0.00000000E+00  0.00000000E+00
  0.00000000E+00  0.00000000E+00  0.00000000E+00
  0.00000000E+00  0.00000000E+00  0.00000000E+00
  0.00000000E+00  0.00000000E+00  0.00000000E+00
  0.00000000E+00  0.00000000E+00  0.00000000E+00
  0.00000000E+00  0.00000000E+00  0.00000000E+00
  0.00000000E+00  0.00000000E+00  0.00000000E+00
  0.00000000E+00  0.00000000E+00  0.00000000E+00
  0.00000000E+00  0.00000000E+00  0.00000000E+00
  0.00000000E+00  0.00000000E+00  0.00000000E+00
  0.00000000E+00  0.00000000E+00  0.00000000E+00
  0.00000000E+00  0.00000000E+00  0.00000000E+00
  0.00000000E+00  0.00000000E+00  0.00000000E+00
  0.00000000E+00  0.00000000E+00  0.00000000E+00
  0.00000000E+00  0.00000000E+00  0.00000000E+00
  0.00000000E+00  0.00000000E+00  0.00000000E+00
  0.00000000E+00  0.00000000E+00  0.00000000E+00
  0.00000000E+00  0.00000000E+00  0.00000000E+00
  0.00000000E+00  0.00000000E+00  0.00000000E+00
  0.00000000E+00  0.00000000E+00  0.00000000E+00
  0.00000000E+00  0.00000000E+00  0.00000000E+00
  0.00000000E+00  0.00000000E+00  0.00000000E+00
  0.00000000E+00  0.00000000E+00  0.00000000E+00
  0.00000000E+00  0.00000000E+00  0.00000000E+00
  0.00000000E+00  0.00000000E+00  0.00000000E+00
  0.00000000E+00  0.00000000E+00  0.00000000E+00
  0.00000000E+00  0.00000000E+00  0.00000000E+00
  0.00000000E+00  0.00000000E+00  0.00000000E+00
  0.00000000E+00  0.00000000E+00  0.00000000E+00
  0.00000000E+00  0.00000000E+00  0.00000000E+00
  0.00000000E+00  0.00000000E+00  0.00000000E+00
  0.00000000E+00  0.00000000E+00  0.00000000E+00
  0.00000000E+00  0.00000000E+00  0.00000000E+00
  0.00000000E+00  0.00000000E+00  0.00000000E+00
  0.00000000E+00  0.00000000E+00  0.00000000E+00
  0.00000000E+00  0.00000000E+00  0.00000000E+00
  0.00000000E+00  0.00000000E+00  0.00000000E+00
  0.00000000E+00  0.00000000E+00  0.00000000E+00
  0.00000000E+00  0.00000000E+00  0.00000000E+00
  0.00000000E+00  0.00000000E+00  0.00000000E+00
  0.00000000E+00  0.00000000E+00  0.00000000E+00
  0.00000000E+00  0.00000000E+00  0.00000000E+00
  0.00000000E+00  0.00000000E+00  0.00000000E+00
  0.00000000E+00  0.00000000E+00  0.00000000E+00
  0.00000000E+00  0.00000000E+00  0.00000000E+00
  0.00000000E+00  0.00000000E+00  0.00000000E+00
  0.00000000E+00  0.00000000E+00  0.00000000E+00
  0.00000000E+00  0.00000000E+00  0.00000000E+00
  0.00000000E+00  0.00000000E+00  0.00000000E+00
  0.00000000E+00  0.00000000E+00  0.00000000E+00
  0.00000000E+00  0.00000000E+00  0.00000000E+00
  0.00000000E+00  0.00000000E+00  0.00000000E+00
  0.00000000E+00  0.00000000E+00  0.00000000E+00
  0.00000000E+00  0.00000000E+00  0.00000000E+00
  0.00000000E+00  0.00000000E+00  0.00000000E+00
  0.00000000E+00  0.00000000E+00  0.00000000E+00
  0.00000000E+00  0.00000000E+00  0.00000000E+00
  0.00000000E+00  0.00000000E+00  0.00000000E+00
  0.00000000E+00  0.00000000E+00  0.00000000E+00
  0.00000000E+00  0.00000000E+00  0.00000000E+00
  0.00000000E+00  0.00000000E+00  0.00000000E+00
  0.00000000E+00  0.00000000E+00  0.00000000E+00
  0.00000000E+00  0.00000000E+00  0.00000000E+00
  0.00000000E+00  0.00000000E+00  0.00000000E+00
  0.00000000E+00  0.00000000E+00  0.00000000E+00
  0.00000000E+00  0.00000000E+00  0.00000000E+00
  0.00000000E+00  0.00000000E+00  0.00000000E+00
  0.00000000E+00  0.00000000E+00  0.00000000E+00
  0.00000000E+00  0.00000000E+00  0.00000000E+00
  0.00000000E+00  0.00000000E+00  0.00000000E+00
  0.00000000E+00  0.00000000E+00  0.00000000E+00
  0.00000000E+00  0.00000000E+00  0.00000000E+00
  0.00000000E+00  0.00000000E+00  0.00000000E+00
  0.00000000E+00  0.00000000E+00  0.00000000E+00
  0.00000000E+00  0.00000000E+00  0.00000000E+00
  0.00000000E+00  0.00000000E+00  0.00000000E+00
  0.00000000E+00  0.00000000E+00  0.00000000E+00
  0.00000000E+00  0.00000000E+00  0.00000000E+00
  0.00000000E+00  0.00000000E+00  0.00000000E+00
  0.00000000E+00  0.00000000E+00  0.00000000E+00
  0.00000000E+00  0.00000000E+00  0.00000000E+00
  0.00000000E+00  0.00000000E+00  0.00000000E+00
  0.00000000E+00  0.00000000E+00  0.00000000E+00
  0.00000000E+00  0.00000000E+00  0.00000000E+00
  0.00000000E+00  0.00000000E+00  0.00000000E+00
  0.00000000E+00  0.00000000E+00  0.00000000E+00
  0.00000000E+00  0.00000000E+00  0.00000000E+00
  0.00000000E+00  0.00000000E+00  0.00000000E+00
