  97  97   0   0
  0.2315679E+02  0.1293663E-08  0.1293663E-08  0.1549806E-08  0.1000000E-15
  1.000000000000000E-004
  CAR 
 Zr96H TT_c pre-NEB, four intermediate im
     12.88805106    -42.43258371  301      8.95762167      1.00000000
    -42.433  0.0000E+00  0.0000E+00
    -42.248  0.0000E+00  0.0000E+00
    -42.064  0.0000E+00  0.0000E+00
    -41.879  0.0000E+00  0.0000E+00
    -41.695 -0.3416E-35 -0.6298E-36
    -41.511 -0.2347E-28 -0.4328E-29
    -41.326 -0.2376E-22 -0.4382E-23
    -41.142 -0.4455E-17 -0.8214E-18
    -40.957 -0.1506E-12 -0.2777E-13
    -40.773 -0.9851E-09 -0.1817E-09
    -40.589 -0.1239E-05 -0.2287E-06
    -40.404 -0.3068E-03 -0.5680E-04
    -40.220 -0.1456E-01 -0.2741E-02
    -40.035 -0.7620E-01 -0.1679E-01
    -39.851  0.7705E+00  0.1253E+00
    -39.667  0.2257E+01  0.5415E+00
    -39.482  0.6354E+00  0.6586E+00
    -39.298 -0.9079E-01  0.6419E+00
    -39.113 -0.1017E-01  0.6400E+00
    -38.929 -0.1214E-03  0.6400E+00
    -38.745 -0.2363E-06  0.6400E+00
    -38.560 -0.8076E-10  0.6400E+00
    -38.376 -0.4987E-14  0.6400E+00
    -38.191  0.0000E+00  0.6400E+00
    -38.007  0.0000E+00  0.6400E+00
    -37.823  0.0000E+00  0.6400E+00
    -37.638  0.0000E+00  0.6400E+00
    -37.454  0.0000E+00  0.6400E+00
    -37.269  0.0000E+00  0.6400E+00
    -37.085  0.0000E+00  0.6400E+00
    -36.901  0.0000E+00  0.6400E+00
    -36.716  0.0000E+00  0.6400E+00
    -36.532  0.0000E+00  0.6400E+00
    -36.347  0.0000E+00  0.6400E+00
    -36.163  0.0000E+00  0.6400E+00
    -35.979  0.0000E+00  0.6400E+00
    -35.794  0.0000E+00  0.6400E+00
    -35.610  0.0000E+00  0.6400E+00
    -35.425  0.0000E+00  0.6400E+00
    -35.241  0.0000E+00  0.6400E+00
    -35.056  0.0000E+00  0.6400E+00
    -34.872  0.0000E+00  0.6400E+00
    -34.688  0.0000E+00  0.6400E+00
    -34.503  0.0000E+00  0.6400E+00
    -34.319  0.0000E+00  0.6400E+00
    -34.134  0.0000E+00  0.6400E+00
    -33.950  0.0000E+00  0.6400E+00
    -33.766  0.0000E+00  0.6400E+00
    -33.581  0.0000E+00  0.6400E+00
    -33.397  0.0000E+00  0.6400E+00
    -33.212  0.0000E+00  0.6400E+00
    -33.028  0.0000E+00  0.6400E+00
    -32.844  0.0000E+00  0.6400E+00
    -32.659  0.0000E+00  0.6400E+00
    -32.475  0.0000E+00  0.6400E+00
    -32.290  0.0000E+00  0.6400E+00
    -32.106  0.0000E+00  0.6400E+00
    -31.922  0.0000E+00  0.6400E+00
    -31.737  0.0000E+00  0.6400E+00
    -31.553  0.0000E+00  0.6400E+00
    -31.368  0.0000E+00  0.6400E+00
    -31.184  0.0000E+00  0.6400E+00
    -31.000  0.0000E+00  0.6400E+00
    -30.815  0.0000E+00  0.6400E+00
    -30.631  0.0000E+00  0.6400E+00
    -30.446  0.0000E+00  0.6400E+00
    -30.262  0.0000E+00  0.6400E+00
    -30.078  0.0000E+00  0.6400E+00
    -29.893  0.0000E+00  0.6400E+00
    -29.709  0.0000E+00  0.6400E+00
    -29.524  0.0000E+00  0.6400E+00
    -29.340  0.0000E+00  0.6400E+00
    -29.156  0.0000E+00  0.6400E+00
    -28.971  0.0000E+00  0.6400E+00
    -28.787  0.0000E+00  0.6400E+00
    -28.602  0.0000E+00  0.6400E+00
    -28.418  0.0000E+00  0.6400E+00
    -28.234  0.0000E+00  0.6400E+00
    -28.049  0.0000E+00  0.6400E+00
    -27.865  0.0000E+00  0.6400E+00
    -27.680  0.0000E+00  0.6400E+00
    -27.496  0.0000E+00  0.6400E+00
    -27.312  0.0000E+00  0.6400E+00
    -27.127  0.0000E+00  0.6400E+00
    -26.943  0.0000E+00  0.6400E+00
    -26.758  0.0000E+00  0.6400E+00
    -26.574  0.0000E+00  0.6400E+00
    -26.390  0.0000E+00  0.6400E+00
    -26.205  0.0000E+00  0.6400E+00
    -26.021  0.0000E+00  0.6400E+00
    -25.836  0.0000E+00  0.6400E+00
    -25.652  0.0000E+00  0.6400E+00
    -25.468  0.0000E+00  0.6400E+00
    -25.283  0.0000E+00  0.6400E+00
    -25.099  0.0000E+00  0.6400E+00
    -24.914  0.0000E+00  0.6400E+00
    -24.730  0.0000E+00  0.6400E+00
    -24.546  0.0000E+00  0.6400E+00
    -24.361  0.0000E+00  0.6400E+00
    -24.177  0.0000E+00  0.6400E+00
    -23.992  0.0000E+00  0.6400E+00
    -23.808  0.0000E+00  0.6400E+00
    -23.624  0.0000E+00  0.6400E+00
    -23.439  0.0000E+00  0.6400E+00
    -23.255  0.0000E+00  0.6400E+00
    -23.070  0.0000E+00  0.6400E+00
    -22.886  0.0000E+00  0.6400E+00
    -22.702  0.0000E+00  0.6400E+00
    -22.517  0.0000E+00  0.6400E+00
    -22.333  0.0000E+00  0.6400E+00
    -22.148  0.0000E+00  0.6400E+00
    -21.964  0.0000E+00  0.6400E+00
    -21.780  0.0000E+00  0.6400E+00
    -21.595  0.0000E+00  0.6400E+00
    -21.411  0.0000E+00  0.6400E+00
    -21.226  0.0000E+00  0.6400E+00
    -21.042  0.0000E+00  0.6400E+00
    -20.858  0.0000E+00  0.6400E+00
    -20.673  0.0000E+00  0.6400E+00
    -20.489  0.0000E+00  0.6400E+00
    -20.304  0.0000E+00  0.6400E+00
    -20.120 -0.2724E-33  0.6400E+00
    -19.936 -0.8184E-27  0.6400E+00
    -19.751 -0.4551E-21  0.6400E+00
    -19.567 -0.4665E-16  0.6400E+00
    -19.382 -0.9176E-12  0.6400E+00
    -19.198 -0.3546E-08  0.6400E+00
    -19.014 -0.2757E-05  0.6400E+00
    -18.829 -0.4424E-03  0.6399E+00
    -18.645 -0.1393E-01  0.6373E+00
    -18.460 -0.3552E-01  0.6308E+00
    -18.276  0.5908E+00  0.7398E+00
    -18.092  0.1638E+01  0.1042E+01
    -17.907  0.1485E+01  0.1316E+01
    -17.723  0.2129E+01  0.1708E+01
    -17.538  0.3172E+01  0.2293E+01
    -17.354  0.1502E+01  0.2570E+01
    -17.169 -0.1490E-01  0.2567E+01
    -16.985 -0.3904E-01  0.2560E+01
    -16.801 -0.1555E-02  0.2560E+01
    -16.616 -0.1057E-04  0.2560E+01
    -16.432 -0.1338E-07  0.2560E+01
    -16.247 -0.3168E-11  0.2560E+01
    -16.063 -0.1293E-15  0.2560E+01
    -15.879  0.0000E+00  0.2560E+01
    -15.694  0.0000E+00  0.2560E+01
    -15.510  0.0000E+00  0.2560E+01
    -15.325  0.0000E+00  0.2560E+01
    -15.141  0.0000E+00  0.2560E+01
    -14.957  0.0000E+00  0.2560E+01
    -14.772  0.0000E+00  0.2560E+01
    -14.588  0.0000E+00  0.2560E+01
    -14.403  0.0000E+00  0.2560E+01
    -14.219  0.0000E+00  0.2560E+01
    -14.035  0.0000E+00  0.2560E+01
    -13.850  0.0000E+00  0.2560E+01
    -13.666  0.0000E+00  0.2560E+01
    -13.481  0.0000E+00  0.2560E+01
    -13.297  0.0000E+00  0.2560E+01
    -13.113  0.0000E+00  0.2560E+01
    -12.928  0.0000E+00  0.2560E+01
    -12.744  0.0000E+00  0.2560E+01
    -12.559  0.0000E+00  0.2560E+01
    -12.375  0.0000E+00  0.2560E+01
    -12.191  0.0000E+00  0.2560E+01
    -12.006  0.0000E+00  0.2560E+01
    -11.822  0.0000E+00  0.2560E+01
    -11.637  0.0000E+00  0.2560E+01
    -11.453  0.0000E+00  0.2560E+01
    -11.269  0.0000E+00  0.2560E+01
    -11.084  0.0000E+00  0.2560E+01
    -10.900  0.0000E+00  0.2560E+01
    -10.715  0.0000E+00  0.2560E+01
    -10.531  0.0000E+00  0.2560E+01
    -10.347  0.0000E+00  0.2560E+01
    -10.162  0.0000E+00  0.2560E+01
     -9.978  0.0000E+00  0.2560E+01
     -9.793  0.0000E+00  0.2560E+01
     -9.609  0.0000E+00  0.2560E+01
     -9.425  0.0000E+00  0.2560E+01
     -9.240  0.0000E+00  0.2560E+01
     -9.056  0.0000E+00  0.2560E+01
     -8.871  0.0000E+00  0.2560E+01
     -8.687  0.0000E+00  0.2560E+01
     -8.503  0.0000E+00  0.2560E+01
     -8.318  0.0000E+00  0.2560E+01
     -8.134  0.0000E+00  0.2560E+01
     -7.949  0.0000E+00  0.2560E+01
     -7.765  0.0000E+00  0.2560E+01
     -7.581  0.0000E+00  0.2560E+01
     -7.396  0.0000E+00  0.2560E+01
     -7.212  0.0000E+00  0.2560E+01
     -7.027  0.0000E+00  0.2560E+01
     -6.843  0.0000E+00  0.2560E+01
     -6.659  0.0000E+00  0.2560E+01
     -6.474  0.0000E+00  0.2560E+01
     -6.290  0.0000E+00  0.2560E+01
     -6.105  0.0000E+00  0.2560E+01
     -5.921  0.0000E+00  0.2560E+01
     -5.737  0.0000E+00  0.2560E+01
     -5.552  0.0000E+00  0.2560E+01
     -5.368  0.0000E+00  0.2560E+01
     -5.183  0.0000E+00  0.2560E+01
     -4.999  0.0000E+00  0.2560E+01
     -4.815  0.0000E+00  0.2560E+01
     -4.630  0.0000E+00  0.2560E+01
     -4.446  0.0000E+00  0.2560E+01
     -4.261  0.0000E+00  0.2560E+01
     -4.077  0.0000E+00  0.2560E+01
     -3.893  0.0000E+00  0.2560E+01
     -3.708  0.0000E+00  0.2560E+01
     -3.524  0.0000E+00  0.2560E+01
     -3.339  0.0000E+00  0.2560E+01
     -3.155  0.0000E+00  0.2560E+01
     -2.971  0.0000E+00  0.2560E+01
     -2.786  0.0000E+00  0.2560E+01
     -2.602  0.0000E+00  0.2560E+01
     -2.417  0.0000E+00  0.2560E+01
     -2.233  0.0000E+00  0.2560E+01
     -2.049  0.0000E+00  0.2560E+01
     -1.864  0.0000E+00  0.2560E+01
     -1.680  0.0000E+00  0.2560E+01
     -1.495  0.0000E+00  0.2560E+01
     -1.311  0.0000E+00  0.2560E+01
     -1.127  0.0000E+00  0.2560E+01
     -0.942  0.0000E+00  0.2560E+01
     -0.758  0.0000E+00  0.2560E+01
     -0.573  0.0000E+00  0.2560E+01
     -0.389  0.0000E+00  0.2560E+01
     -0.204  0.0000E+00  0.2560E+01
     -0.020  0.0000E+00  0.2560E+01
      0.164  0.0000E+00  0.2560E+01
      0.349  0.0000E+00  0.2560E+01
      0.533  0.0000E+00  0.2560E+01
      0.718 -0.2543E-34  0.2560E+01
      0.902 -0.1048E-27  0.2560E+01
      1.086 -0.7809E-22  0.2560E+01
      1.271 -0.1048E-16  0.2560E+01
      1.455 -0.2421E-12  0.2560E+01
      1.640 -0.1011E-08  0.2560E+01
      1.824 -0.7221E-06  0.2560E+01
      2.008 -0.8189E-04  0.2560E+01
      2.193 -0.1036E-02  0.2560E+01
      2.377  0.5857E-02  0.2561E+01
      2.562  0.2508E-01  0.2565E+01
      2.746  0.7545E-02  0.2567E+01
      2.930 -0.1104E-02  0.2567E+01
      3.115 -0.2421E-03  0.2567E+01
      3.299 -0.2243E-03  0.2567E+01
      3.484  0.4965E-02  0.2568E+01
      3.668  0.1406E-01  0.2570E+01
      3.852  0.2185E-01  0.2574E+01
      4.037  0.2410E-01  0.2579E+01
      4.221  0.3225E-01  0.2585E+01
      4.406  0.3325E-01  0.2591E+01
      4.590  0.4199E-01  0.2598E+01
      4.774  0.4794E-01  0.2607E+01
      4.959  0.5310E-01  0.2617E+01
      5.143  0.5441E-01  0.2627E+01
      5.328  0.8117E-01  0.2642E+01
      5.512  0.7450E-01  0.2656E+01
      5.696  0.8883E-01  0.2672E+01
      5.881  0.1688E+00  0.2703E+01
      6.065  0.2577E+00  0.2751E+01
      6.250  0.3138E+00  0.2809E+01
      6.434  0.3386E+00  0.2871E+01
      6.618  0.3654E+00  0.2938E+01
      6.803  0.3992E+00  0.3012E+01
      6.987  0.4692E+00  0.3099E+01
      7.172  0.3825E+00  0.3169E+01
      7.356  0.3421E+00  0.3232E+01
      7.540  0.3080E+00  0.3289E+01
      7.725  0.3885E+00  0.3361E+01
      7.909  0.4346E+00  0.3441E+01
      8.094  0.4730E+00  0.3528E+01
      8.278  0.5446E+00  0.3628E+01
      8.462  0.5291E+00  0.3726E+01
      8.647  0.2616E+00  0.3774E+01
      8.831  0.1901E+00  0.3809E+01
      9.016  0.2983E+00  0.3864E+01
      9.200  0.5412E+00  0.3964E+01
      9.384  0.5916E+00  0.4073E+01
      9.569  0.5196E+00  0.4169E+01
      9.753  0.5494E+00  0.4270E+01
      9.938  0.5835E+00  0.4378E+01
     10.122  0.6375E+00  0.4496E+01
     10.306  0.4960E+00  0.4587E+01
     10.491  0.1234E+00  0.4610E+01
     10.675 -0.1355E-01  0.4607E+01
     10.860 -0.2936E-02  0.4607E+01
     11.044 -0.6767E-04  0.4607E+01
     11.228 -0.2794E-06  0.4607E+01
     11.413 -0.2186E-09  0.4607E+01
     11.597 -0.3255E-13  0.4607E+01
     11.782  0.0000E+00  0.4607E+01
     11.966  0.0000E+00  0.4607E+01
     12.150  0.0000E+00  0.4607E+01
     12.335  0.0000E+00  0.4607E+01
     12.519  0.0000E+00  0.4607E+01
     12.704  0.0000E+00  0.4607E+01
     12.888  0.0000E+00  0.4607E+01
