   97   97  300    1
  0.2315679E+02  0.1293663E-08  0.1293663E-08  0.1549806E-08  0.1000000E-15
  1.000000000000000E-004
  CAR 
 Zr96H TT_c pre-NEB, four intermediate im
   1153     26    691
 
  0.0000000E+00  0.0000000E+00  0.0000000E+00  0.2083333E-01
      1        -39.918009   1.000000
      2        -39.894286   1.000000
      3        -39.880532   1.000000
      4        -39.863712   1.000000
      5        -39.853958   1.000000
      6        -39.853588   1.000000
      7        -39.853135   1.000000
      8        -39.840162   1.000000
      9        -39.839864   1.000000
     10        -39.839852   1.000000
     11        -39.830236   1.000000
     12        -39.827184   1.000000
     13        -39.826743   1.000000
     14        -39.820060   1.000000
     15        -39.815204   1.000000
     16        -39.814611   1.000000
     17        -39.814492   1.000000
     18        -39.813090   1.000000
     19        -39.812769   1.000000
     20        -39.812672   1.000000
     21        -39.812655   1.000000
     22        -39.809879   1.000000
     23        -39.793819   1.000000
     24        -39.791028   1.000000
     25        -39.790556   1.000000
     26        -39.785418   1.000000
     27        -39.783327   1.000000
     28        -39.777994   1.000000
     29        -39.771348   1.000000
     30        -39.771033   1.000000
     31        -39.767479   1.000000
     32        -39.767407   1.000000
     33        -39.767202   1.000000
     34        -39.764906   1.000000
     35        -39.764103   1.000000
     36        -39.763949   1.000000
     37        -39.762615   1.000000
     38        -39.762252   1.000000
     39        -39.760418   1.000000
     40        -39.759673   1.000000
     41        -39.758850   1.000000
     42        -39.758712   1.000000
     43        -39.758109   1.000000
     44        -39.758048   1.000000
     45        -39.757551   1.000000
     46        -39.757406   1.000000
     47        -39.756741   1.000000
     48        -39.756162   1.000000
     49        -39.755505   1.000000
     50        -39.755450   1.000000
     51        -39.755115   1.000000
     52        -39.755089   1.000000
     53        -39.754206   1.000000
     54        -39.753602   1.000000
     55        -39.753343   1.000000
     56        -39.753132   1.000000
     57        -39.750878   1.000000
     58        -39.750862   1.000000
     59        -39.749437   1.000000
     60        -39.749237   1.000000
     61        -39.749049   1.000000
     62        -39.748781   1.000000
     63        -39.745608   1.000000
     64        -39.743248   1.000000
     65        -39.738980   1.000000
     66        -39.737990   1.000000
     67        -39.737963   1.000000
     68        -39.733900   1.000000
     69        -39.733684   1.000000
     70        -39.732570   1.000000
     71        -39.732341   1.000000
     72        -39.730936   1.000000
     73        -39.730865   1.000000
     74        -39.730813   1.000000
     75        -39.729660   1.000000
     76        -39.729145   1.000000
     77        -39.729025   1.000000
     78        -39.728870   1.000000
     79        -39.728848   1.000000
     80        -39.728109   1.000000
     81        -39.724648   1.000000
     82        -39.724122   1.000000
     83        -39.723724   1.000000
     84        -39.723649   1.000000
     85        -39.721946   1.000000
     86        -39.721214   1.000000
     87        -39.721054   1.000000
     88        -39.720887   1.000000
     89        -39.718370   1.000000
     90        -39.718317   1.000000
     91        -39.713028   1.000000
     92        -39.712815   1.000000
     93        -39.705736   1.000000
     94        -39.705698   1.000000
     95        -39.702357   1.000000
     96        -39.700236   1.000000
     97        -18.417384   1.000000
     98        -18.357417   1.000000
     99        -18.334136   1.000000
    100        -18.334121   1.000000
    101        -18.333036   1.000000
    102        -18.332649   1.000000
    103        -18.332636   1.000000
    104        -18.271030   1.000000
    105        -18.258005   1.000000
    106        -18.248369   1.000000
    107        -18.248361   1.000000
    108        -18.247214   1.000000
    109        -18.247194   1.000000
    110        -18.244485   1.000000
    111        -18.242395   1.000000
    112        -18.242338   1.000000
    113        -18.241094   1.000000
    114        -18.238941   1.000000
    115        -18.238877   1.000000
    116        -18.238185   1.000000
    117        -18.236868   1.000000
    118        -18.236783   1.000000
    119        -18.216476   1.000000
    120        -18.211452   1.000000
    121        -18.208893   1.000000
    122        -18.208673   1.000000
    123        -18.205770   1.000000
    124        -18.205767   1.000000
    125        -18.201712   1.000000
    126        -18.201355   1.000000
    127        -18.201352   1.000000
    128        -18.200645   1.000000
    129        -18.200603   1.000000
    130        -18.198785   1.000000
    131        -18.189340   1.000000
    132        -18.181744   1.000000
    133        -18.173949   1.000000
    134        -18.172342   1.000000
    135        -18.172314   1.000000
    136        -18.168814   1.000000
    137        -18.168810   1.000000
    138        -18.164724   1.000000
    139        -18.164619   1.000000
    140        -18.164424   1.000000
    141        -18.164179   1.000000
    142        -18.163172   1.000000
    143        -18.162310   1.000000
    144        -18.162286   1.000000
    145        -18.162226   1.000000
    146        -18.161485   1.000000
    147        -18.161249   1.000000
    148        -18.161059   1.000000
    149        -18.159353   1.000000
    150        -18.159325   1.000000
    151        -18.157953   1.000000
    152        -18.157690   1.000000
    153        -18.157454   1.000000
    154        -18.157343   1.000000
    155        -18.156956   1.000000
    156        -18.156926   1.000000
    157        -18.106512   1.000000
    158        -18.106500   1.000000
    159        -18.106287   1.000000
    160        -18.101214   1.000000
    161        -18.101021   1.000000
    162        -18.098905   1.000000
    163        -18.081865   1.000000
    164        -18.078622   1.000000
    165        -18.078576   1.000000
    166        -18.031443   1.000000
    167        -18.030176   1.000000
    168        -18.029945   1.000000
    169        -18.029156   1.000000
    170        -18.023808   1.000000
    171        -18.023768   1.000000
    172        -18.019297   1.000000
    173        -18.002524   1.000000
    174        -18.002008   1.000000
    175        -17.992636   1.000000
    176        -17.992491   1.000000
    177        -17.989490   1.000000
    178        -17.987800   1.000000
    179        -17.987792   1.000000
    180        -17.987439   1.000000
    181        -17.959867   1.000000
    182        -17.959862   1.000000
    183        -17.944565   1.000000
    184        -17.944046   1.000000
    185        -17.942650   1.000000
    186        -17.942399   1.000000
    187        -17.936419   1.000000
    188        -17.936278   1.000000
    189        -17.935598   1.000000
    190        -17.935424   1.000000
    191        -17.933346   1.000000
    192        -17.933070   1.000000
    193        -17.919226   1.000000
    194        -17.919120   1.000000
    195        -17.907316   1.000000
    196        -17.903613   1.000000
    197        -17.903343   1.000000
    198        -17.897383   1.000000
    199        -17.890776   1.000000
    200        -17.890746   1.000000
    201        -17.888717   1.000000
    202        -17.888544   1.000000
    203        -17.886292   1.000000
    204        -17.881461   1.000000
    205        -17.880662   1.000000
    206        -17.879023   1.000000
    207        -17.879003   1.000000
    208        -17.878428   1.000000
    209        -17.873824   1.000000
    210        -17.873691   1.000000
    211        -17.839361   1.000000
    212        -17.831268   1.000000
    213        -17.831066   1.000000
    214        -17.830651   1.000000
    215        -17.830230   1.000000
    216        -17.829993   1.000000
    217        -17.815960   1.000000
    218        -17.812069   1.000000
    219        -17.811905   1.000000
    220        -17.808569   1.000000
    221        -17.808459   1.000000
    222        -17.798327   1.000000
    223        -17.798026   1.000000
    224        -17.797268   1.000000
    225        -17.795140   1.000000
    226        -17.793887   1.000000
    227        -17.791826   1.000000
    228        -17.791555   1.000000
    229        -17.784974   1.000000
    230        -17.778112   1.000000
    231        -17.777938   1.000000
    232        -17.775100   1.000000
    233        -17.774954   1.000000
    234        -17.774888   1.000000
    235        -17.771979   1.000000
    236        -17.771834   1.000000
    237        -17.769182   1.000000
    238        -17.769097   1.000000
    239        -17.763440   1.000000
    240        -17.763412   1.000000
    241        -17.762184   1.000000
    242        -17.761642   1.000000
    243        -17.761364   1.000000
    244        -17.761262   1.000000
    245        -17.759485   1.000000
    246        -17.759397   1.000000
    247        -17.758334   1.000000
    248        -17.758239   1.000000
    249        -17.757689   1.000000
    250        -17.757532   1.000000
    251        -17.756898   1.000000
    252        -17.755783   1.000000
    253        -17.755728   1.000000
    254        -17.755382   1.000000
    255        -17.751003   1.000000
    256        -17.718944   1.000000
    257        -17.709762   1.000000
    258        -17.709625   1.000000
    259        -17.707286   1.000000
    260        -17.707209   1.000000
    261        -17.703345   1.000000
    262        -17.703044   1.000000
    263        -17.692536   1.000000
    264        -17.692426   1.000000
    265        -17.691805   1.000000
    266        -17.684520   1.000000
    267        -17.681745   1.000000
    268        -17.680604   1.000000
    269        -17.680566   1.000000
    270        -17.680039   1.000000
    271        -17.676986   1.000000
    272        -17.675337   1.000000
    273        -17.675180   1.000000
    274        -17.671298   1.000000
    275        -17.669789   1.000000
    276        -17.669531   1.000000
    277        -17.667737   1.000000
    278        -17.667588   1.000000
    279        -17.667306   1.000000
    280        -17.667207   1.000000
    281        -17.667030   1.000000
    282        -17.666874   1.000000
    283        -17.666827   1.000000
    284        -17.666663   1.000000
    285        -17.666582   1.000000
    286        -17.666472   1.000000
    287        -17.666331   1.000000
    288        -17.663733   1.000000
    289        -17.663533   1.000000
    290        -17.661843   1.000000
    291        -17.661631   1.000000
    292        -17.660635   1.000000
    293        -17.659189   1.000000
    294        -17.659141   1.000000
    295        -17.657639   1.000000
    296        -17.656731   1.000000
    297        -17.634388   1.000000
    298        -17.628980   1.000000
    299        -17.628739   1.000000
    300        -17.628738   1.000000
    301        -17.627265   1.000000
    302        -17.627193   1.000000
    303        -17.621530   1.000000
    304        -17.620610   1.000000
    305        -17.620551   1.000000
    306        -17.618085   1.000000
    307        -17.617489   1.000000
    308        -17.617443   1.000000
    309        -17.615376   1.000000
    310        -17.615277   1.000000
    311        -17.612779   1.000000
    312        -17.612660   1.000000
    313        -17.612458   1.000000
    314        -17.602907   1.000000
    315        -17.589730   1.000000
    316        -17.589477   1.000000
    317        -17.588070   1.000000
    318        -17.587948   1.000000
    319        -17.585787   1.000000
    320        -17.585500   1.000000
    321        -17.582492   1.000000
    322        -17.577463   1.000000
    323        -17.577163   1.000000
    324        -17.576962   1.000000
    325        -17.573707   1.000000
    326        -17.573541   1.000000
    327        -17.573124   1.000000
    328        -17.573045   1.000000
    329        -17.572305   1.000000
    330        -17.571252   1.000000
    331        -17.570976   1.000000
    332        -17.567847   1.000000
    333        -17.566961   1.000000
    334        -17.566439   1.000000
    335        -17.566436   1.000000
    336        -17.564597   1.000000
    337        -17.563948   1.000000
    338        -17.563695   1.000000
    339        -17.561264   1.000000
    340        -17.559556   1.000000
    341        -17.559366   1.000000
    342        -17.558288   1.000000
    343        -17.558226   1.000000
    344        -17.558038   1.000000
    345        -17.555461   1.000000
    346        -17.555452   1.000000
    347        -17.529901   1.000000
    348        -17.529898   1.000000
    349        -17.526719   1.000000
    350        -17.526666   1.000000
    351        -17.526210   1.000000
    352        -17.524259   1.000000
    353        -17.524109   1.000000
    354        -17.520375   1.000000
    355        -17.520012   1.000000
    356        -17.519087   1.000000
    357        -17.518873   1.000000
    358        -17.518769   1.000000
    359        -17.518132   1.000000
    360        -17.518071   1.000000
    361        -17.516652   1.000000
    362        -17.516557   1.000000
    363        -17.515526   1.000000
    364        -17.511055   1.000000
    365        -17.510911   1.000000
    366        -17.510839   1.000000
    367        -17.510691   1.000000
    368        -17.507362   1.000000
    369        -17.504824   1.000000
    370        -17.503350   1.000000
    371        -17.503242   1.000000
    372        -17.472960   1.000000
    373        -17.472875   1.000000
    374        -17.471959   1.000000
    375        -17.468238   1.000000
    376        -17.467994   1.000000
    377        -17.459502   1.000000
    378        -17.454229   1.000000
    379        -17.454221   1.000000
    380        -17.448378   1.000000
    381        -17.448352   1.000000
    382        -17.428425   1.000000
    383        -17.417445   1.000000
    384        -17.417405   1.000000
    385          2.461264   1.000000
    386          3.389728   1.000000
    387          4.152892   1.000000
    388          4.237303   1.000000
    389          4.811648   1.000000
    390          4.811818   1.000000
    391          4.816286   1.000000
    392          4.816349   1.000000
    393          4.819505   1.000000
    394          4.950410   1.000000
    395          5.385649   1.000000
    396          5.385740   1.000000
    397          5.385899   1.000000
    398          5.393258   1.000000
    399          5.393321   1.000000
    400          5.394757   1.000000
    401          5.394783   1.000000
    402          5.395725   1.000000
    403          5.395870   1.000000
    404          5.397340   1.000000
    405          5.399324   1.000000
    406          5.555186   1.000000
    407          5.659774   1.000000
    408          5.753471   1.000000
    409          5.894857   1.000000
    410          5.906904   1.000000
    411          5.906922   1.000000
    412          5.911929   1.000000
    413          5.912025   1.000000
    414          5.917049   1.000000
    415          6.013779   1.000000
    416          6.395594   1.000000
    417          6.395601   1.000000
    418          6.404108   1.000000
    419          6.417649   1.000000
    420          6.422173   1.000000
    421          6.422221   1.000000
    422          6.425487   1.000000
    423          6.425499   1.000000
    424          6.430060   1.000000
    425          6.443841   1.000000
    426          6.443866   1.000000
    427          6.505092   1.000000
    428          6.691481   1.000000
    429          6.710757   1.000000
    430          6.711039   1.000000
    431          6.716971   1.000000
    432          6.717323   1.000000
    433          6.718531   1.000000
    434          6.718751   1.000000
    435          6.722713   1.000000
    436          6.726519   1.000000
    437          6.727020   1.000000
    438          6.732269   1.000000
    439          6.766707   1.000000
    440          6.780398   1.000000
    441          6.783901   1.000000
    442          6.783948   1.000000
    443          6.789572   1.000000
    444          6.790334   1.000000
    445          6.790759   1.000000
    446          6.791687   1.000000
    447          6.791911   1.000000
    448          6.791933   1.000000
    449          6.797833   1.000000
    450          6.798239   1.000000
    451          6.808617   1.000000
    452          6.815389   1.000000
    453          6.815567   1.000000
    454          6.824080   1.000000
    455          6.863602   1.000000
    456          6.863996   1.000000
    457          6.867935   1.000000
    458          6.868216   1.000000
    459          6.868261   1.000000
    460          6.890565   1.000000
    461          6.894476   1.000000
    462          6.894855   1.000000
    463          6.900700   1.000000
    464          6.900834   1.000000
    465          6.901072   1.000000
    466          6.902039   1.000000
    467          6.902107   1.000000
    468          6.905545   1.000000
    469          6.908732   1.000000
    470          6.911248   1.000000
    471          6.913705   1.000000
    472          6.914007   1.000000
    473          6.927810   1.000000
    474          6.928064   1.000000
    475          6.930601   1.000000
    476          6.931049   1.000000
    477          6.943413   1.000000
    478          7.033086   1.000000
    479          7.033790   1.000000
    480          7.033828   1.000000
    481          7.042466   1.000000
    482          7.044259   1.000000
    483          7.044331   1.000000
    484          7.285336   1.000000
    485          7.566589   1.000000
    486          7.566994   1.000000
    487          7.570104   1.000000
    488          7.570178   1.000000
    489          7.576156   1.000000
    490          7.582810   1.000000
    491          7.663297   1.000000
    492          7.671447   1.000000
    493          7.671487   1.000000
    494          7.681425   1.000000
    495          7.681657   1.000000
    496          7.684073   1.000000
    497          7.687676   1.000000
    498          7.688089   1.000000
    499          7.697713   1.000000
    500          7.698018   1.000000
    501          7.698216   1.000000
    502          7.726430   1.000000
    503          7.747328   1.000000
    504          7.759626   1.000000
    505          7.759937   1.000000
    506          7.760677   1.000000
    507          7.762291   1.000000
    508          7.766789   1.000000
    509          7.767764   1.000000
    510          7.771773   1.000000
    511          7.772075   1.000000
    512          7.772994   1.000000
    513          7.775853   1.000000
    514          7.824787   1.000000
    515          7.857161   1.000000
    516          7.857682   1.000000
    517          7.861706   1.000000
    518          7.865061   1.000000
    519          7.865467   1.000000
    520          7.868424   1.000000
    521          7.869118   1.000000
    522          7.869196   1.000000
    523          7.869241   1.000000
    524          7.869595   1.000000
    525          7.879447   1.000000
    526          7.974960   1.000000
    527          8.012063   1.000000
    528          8.014089   1.000000
    529          8.014150   1.000000
    530          8.018070   1.000000
    531          8.018083   1.000000
    532          8.031314   1.000000
    533          8.042167   1.000000
    534          8.042379   1.000000
    535          8.050010   1.000000
    536          8.050324   1.000000
    537          8.052260   1.000000
    538          8.187230   1.000000
    539          8.359277   1.000098
    540          8.359977   1.000100
    541          8.360161   1.000100
    542          8.360646   1.000102
    543          8.361041   1.000103
    544          8.361339   1.000104
    545          8.365537   1.000116
    546          8.365749   1.000117
    547          8.371754   1.000138
    548          8.372257   1.000140
    549          8.373996   1.000147
    550          8.402898   1.000313
    551          8.403255   1.000316
    552          8.414680   1.000421
    553          8.422784   1.000513
    554          8.423134   1.000518
    555          8.437069   1.000723
    556          8.529698   1.004963
    557          8.573161   1.010192
    558          8.573393   1.010228
    559          8.584290   1.012004
    560          8.584714   1.012077
    561          8.595689   1.014063
    562          8.596241   1.014167
    563          8.597128   1.014337
    564          8.597593   1.014426
    565          8.599777   1.014849
    566          8.603435   1.015573
    567          8.613834   1.017730
    568          8.722919   1.035025
    569          8.731276   1.033950
    570          8.731302   1.033945
    571          8.854641   0.878173
    572          8.862561   0.856234
    573          8.874132   0.821454
    574          8.874590   0.820013
    575          8.884153   0.788841
    576          8.885731   0.783505
    577          8.891416   0.763850
    578          8.893003   0.758244
    579          8.894168   0.754100
    580          8.894792   0.751869
    581          8.918453   0.662264
    582          8.918530   0.661960
    583          9.042405   0.174502
    584          9.058912   0.126378
    585          9.060833   0.121212
    586          9.061170   0.120313
    587          9.061723   0.118847
    588          9.066452   0.106622
    589          9.067880   0.103042
    590          9.084139   0.065900
    591          9.093516   0.047498
    592          9.094297   0.046064
    593          9.096104   0.042804
    594          9.109785   0.020667
    595          9.110883   0.019082
    596          9.111985   0.017518
    597          9.121379   0.005301
    598          9.121526   0.005125
    599          9.121679   0.004943
    600          9.123797   0.002470
    601          9.124067   0.002161
    602          9.136448  -0.010368
    603          9.146693  -0.018488
    604          9.163125  -0.027752
    605          9.163402  -0.027872
    606          9.167267  -0.029435
    607          9.169447  -0.030225
    608          9.170018  -0.030421
    609          9.174262  -0.031746
    610          9.177399  -0.032580
    611          9.177616  -0.032633
    612          9.179578  -0.033089
    613          9.180043  -0.033191
    614          9.212770  -0.035084
    615          9.328788  -0.012379
    616          9.341926  -0.010216
    617          9.496360  -0.000467
    618          9.496370  -0.000467
    619          9.502416  -0.000402
    620          9.582037  -0.000046
    621          9.582084  -0.000046
    622          9.622696  -0.000013
    623          9.622709  -0.000013
    624          9.625968  -0.000012
    625          9.626078  -0.000012
    626          9.628424  -0.000011
    627          9.634852  -0.000009
    628          9.635426  -0.000009
    629          9.649362  -0.000006
    630          9.694097  -0.000001
    631          9.699459  -0.000001
    632          9.699977  -0.000001
    633          9.746440  -0.000000
    634          9.763930  -0.000000
    635          9.765281  -0.000000
    636          9.768426  -0.000000
    637          9.793362  -0.000000
    638          9.793424  -0.000000
    639          9.800678  -0.000000
    640          9.800893  -0.000000
    641          9.822967  -0.000000
    642          9.824027  -0.000000
    643          9.831894  -0.000000
    644          9.847270  -0.000000
    645          9.847434  -0.000000
    646          9.850903  -0.000000
    647          9.857880  -0.000000
    648          9.858541  -0.000000
    649          9.863998  -0.000000
    650          9.867562  -0.000000
    651          9.867980  -0.000000
    652          9.885028  -0.000000
    653          9.930478  -0.000000
    654          9.992069  -0.000000
    655          9.992545  -0.000000
    656          9.996081  -0.000000
    657          9.996142  -0.000000
    658         10.043842  -0.000000
    659         10.049489  -0.000000
    660         10.056510  -0.000000
    661         10.056883  -0.000000
    662         10.057129  -0.000000
    663         10.057354  -0.000000
    664         10.080514  -0.000000
    665         10.123344  -0.000000
    666         10.131906  -0.000000
    667         10.132823  -0.000000
    668         10.141786  -0.000000
    669         10.142389  -0.000000
    670         10.142557  -0.000000
    671         10.157563  -0.000000
    672         10.158406  -0.000000
    673         10.199477  -0.000000
    674         10.204361  -0.000000
    675         10.204850  -0.000000
    676         10.208721  -0.000000
    677         10.209609  -0.000000
    678         10.214622  -0.000000
    679         10.218346  -0.000000
    680         10.219687  -0.000000
    681         10.224318  -0.000000
    682         10.239732  -0.000000
    683         10.240085  -0.000000
    684         10.241302  -0.000000
    685         10.255929  -0.000000
    686         10.261954  -0.000000
    687         10.262158  -0.000000
    688         10.262504  -0.000000
    689         10.263545  -0.000000
    690         10.266510  -0.000000
    691         10.268366  -0.000000
 
  0.2500000E+00 -0.8988716E-17  0.0000000E+00  0.4166667E-01
      1        -39.916125   1.000000
      2        -39.892997   1.000000
      3        -39.881368   1.000000
      4        -39.864717   1.000000
      5        -39.858816   1.000000
      6        -39.857023   1.000000
      7        -39.852994   1.000000
      8        -39.847171   1.000000
      9        -39.839045   1.000000
     10        -39.836429   1.000000
     11        -39.830788   1.000000
     12        -39.829426   1.000000
     13        -39.824005   1.000000
     14        -39.821644   1.000000
     15        -39.821271   1.000000
     16        -39.819450   1.000000
     17        -39.814440   1.000000
     18        -39.808791   1.000000
     19        -39.807089   1.000000
     20        -39.801699   1.000000
     21        -39.801258   1.000000
     22        -39.796758   1.000000
     23        -39.792279   1.000000
     24        -39.790655   1.000000
     25        -39.788895   1.000000
     26        -39.783849   1.000000
     27        -39.782551   1.000000
     28        -39.782271   1.000000
     29        -39.779485   1.000000
     30        -39.778941   1.000000
     31        -39.771648   1.000000
     32        -39.770721   1.000000
     33        -39.769963   1.000000
     34        -39.769511   1.000000
     35        -39.768835   1.000000
     36        -39.767690   1.000000
     37        -39.767631   1.000000
     38        -39.765199   1.000000
     39        -39.763961   1.000000
     40        -39.762571   1.000000
     41        -39.762035   1.000000
     42        -39.761317   1.000000
     43        -39.759815   1.000000
     44        -39.759299   1.000000
     45        -39.759024   1.000000
     46        -39.757531   1.000000
     47        -39.756578   1.000000
     48        -39.755604   1.000000
     49        -39.755142   1.000000
     50        -39.754433   1.000000
     51        -39.752870   1.000000
     52        -39.751182   1.000000
     53        -39.750970   1.000000
     54        -39.750680   1.000000
     55        -39.750333   1.000000
     56        -39.748646   1.000000
     57        -39.748561   1.000000
     58        -39.748321   1.000000
     59        -39.746704   1.000000
     60        -39.744967   1.000000
     61        -39.744649   1.000000
     62        -39.743413   1.000000
     63        -39.743215   1.000000
     64        -39.740081   1.000000
     65        -39.739451   1.000000
     66        -39.737840   1.000000
     67        -39.737824   1.000000
     68        -39.735261   1.000000
     69        -39.734763   1.000000
     70        -39.734105   1.000000
     71        -39.733200   1.000000
     72        -39.732268   1.000000
     73        -39.732227   1.000000
     74        -39.730533   1.000000
     75        -39.730114   1.000000
     76        -39.730114   1.000000
     77        -39.729104   1.000000
     78        -39.728412   1.000000
     79        -39.728381   1.000000
     80        -39.726576   1.000000
     81        -39.725690   1.000000
     82        -39.725475   1.000000
     83        -39.723981   1.000000
     84        -39.723944   1.000000
     85        -39.722618   1.000000
     86        -39.722031   1.000000
     87        -39.720923   1.000000
     88        -39.720221   1.000000
     89        -39.718855   1.000000
     90        -39.718035   1.000000
     91        -39.712725   1.000000
     92        -39.712473   1.000000
     93        -39.705762   1.000000
     94        -39.705697   1.000000
     95        -39.702666   1.000000
     96        -39.700408   1.000000
     97        -18.405714   1.000000
     98        -18.343779   1.000000
     99        -18.321186   1.000000
    100        -18.320815   1.000000
    101        -18.319311   1.000000
    102        -18.317846   1.000000
    103        -18.315376   1.000000
    104        -18.312477   1.000000
    105        -18.276651   1.000000
    106        -18.274335   1.000000
    107        -18.263294   1.000000
    108        -18.237652   1.000000
    109        -18.235972   1.000000
    110        -18.235435   1.000000
    111        -18.234169   1.000000
    112        -18.231860   1.000000
    113        -18.230775   1.000000
    114        -18.226808   1.000000
    115        -18.226651   1.000000
    116        -18.223400   1.000000
    117        -18.222377   1.000000
    118        -18.220469   1.000000
    119        -18.217397   1.000000
    120        -18.211021   1.000000
    121        -18.209493   1.000000
    122        -18.207840   1.000000
    123        -18.205424   1.000000
    124        -18.204407   1.000000
    125        -18.204085   1.000000
    126        -18.203271   1.000000
    127        -18.200963   1.000000
    128        -18.200429   1.000000
    129        -18.199714   1.000000
    130        -18.198773   1.000000
    131        -18.197623   1.000000
    132        -18.187465   1.000000
    133        -18.181878   1.000000
    134        -18.180186   1.000000
    135        -18.178562   1.000000
    136        -18.177157   1.000000
    137        -18.173843   1.000000
    138        -18.170148   1.000000
    139        -18.169423   1.000000
    140        -18.168784   1.000000
    141        -18.167036   1.000000
    142        -18.166397   1.000000
    143        -18.165453   1.000000
    144        -18.164873   1.000000
    145        -18.163114   1.000000
    146        -18.163039   1.000000
    147        -18.162797   1.000000
    148        -18.158005   1.000000
    149        -18.157433   1.000000
    150        -18.155443   1.000000
    151        -18.154458   1.000000
    152        -18.150901   1.000000
    153        -18.140476   1.000000
    154        -18.138053   1.000000
    155        -18.134816   1.000000
    156        -18.131800   1.000000
    157        -18.126091   1.000000
    158        -18.125914   1.000000
    159        -18.124774   1.000000
    160        -18.123419   1.000000
    161        -18.074306   1.000000
    162        -18.072404   1.000000
    163        -18.068966   1.000000
    164        -18.068287   1.000000
    165        -18.067175   1.000000
    166        -18.066056   1.000000
    167        -18.057627   1.000000
    168        -18.054708   1.000000
    169        -18.053927   1.000000
    170        -18.039068   1.000000
    171        -18.021336   1.000000
    172        -18.020457   1.000000
    173        -18.019448   1.000000
    174        -18.013885   1.000000
    175        -18.012765   1.000000
    176        -18.008840   1.000000
    177        -18.006966   1.000000
    178        -18.003558   1.000000
    179        -18.003491   1.000000
    180        -18.001874   1.000000
    181        -17.998730   1.000000
    182        -17.998599   1.000000
    183        -17.994494   1.000000
    184        -17.988879   1.000000
    185        -17.988849   1.000000
    186        -17.976175   1.000000
    187        -17.969437   1.000000
    188        -17.954645   1.000000
    189        -17.951750   1.000000
    190        -17.950023   1.000000
    191        -17.948595   1.000000
    192        -17.930669   1.000000
    193        -17.924021   1.000000
    194        -17.903656   1.000000
    195        -17.899285   1.000000
    196        -17.894647   1.000000
    197        -17.891600   1.000000
    198        -17.890858   1.000000
    199        -17.890148   1.000000
    200        -17.884057   1.000000
    201        -17.882523   1.000000
    202        -17.875149   1.000000
    203        -17.870212   1.000000
    204        -17.869696   1.000000
    205        -17.856049   1.000000
    206        -17.854089   1.000000
    207        -17.843379   1.000000
    208        -17.842001   1.000000
    209        -17.835566   1.000000
    210        -17.834120   1.000000
    211        -17.831699   1.000000
    212        -17.831465   1.000000
    213        -17.830723   1.000000
    214        -17.827305   1.000000
    215        -17.826750   1.000000
    216        -17.826467   1.000000
    217        -17.818631   1.000000
    218        -17.817307   1.000000
    219        -17.816294   1.000000
    220        -17.813469   1.000000
    221        -17.807499   1.000000
    222        -17.804453   1.000000
    223        -17.800442   1.000000
    224        -17.797527   1.000000
    225        -17.793131   1.000000
    226        -17.792109   1.000000
    227        -17.786830   1.000000
    228        -17.785355   1.000000
    229        -17.784846   1.000000
    230        -17.784611   1.000000
    231        -17.783657   1.000000
    232        -17.779008   1.000000
    233        -17.778430   1.000000
    234        -17.775771   1.000000
    235        -17.775535   1.000000
    236        -17.771609   1.000000
    237        -17.771233   1.000000
    238        -17.769594   1.000000
    239        -17.769214   1.000000
    240        -17.767385   1.000000
    241        -17.766683   1.000000
    242        -17.766357   1.000000
    243        -17.765443   1.000000
    244        -17.764180   1.000000
    245        -17.760338   1.000000
    246        -17.753301   1.000000
    247        -17.742420   1.000000
    248        -17.737308   1.000000
    249        -17.733832   1.000000
    250        -17.732770   1.000000
    251        -17.732713   1.000000
    252        -17.728446   1.000000
    253        -17.727549   1.000000
    254        -17.726389   1.000000
    255        -17.724748   1.000000
    256        -17.722387   1.000000
    257        -17.707794   1.000000
    258        -17.704556   1.000000
    259        -17.703435   1.000000
    260        -17.703041   1.000000
    261        -17.701645   1.000000
    262        -17.700909   1.000000
    263        -17.698918   1.000000
    264        -17.697471   1.000000
    265        -17.694936   1.000000
    266        -17.690773   1.000000
    267        -17.690228   1.000000
    268        -17.686387   1.000000
    269        -17.683753   1.000000
    270        -17.682630   1.000000
    271        -17.679055   1.000000
    272        -17.674295   1.000000
    273        -17.673120   1.000000
    274        -17.670276   1.000000
    275        -17.669138   1.000000
    276        -17.668415   1.000000
    277        -17.667642   1.000000
    278        -17.667036   1.000000
    279        -17.661384   1.000000
    280        -17.660754   1.000000
    281        -17.658045   1.000000
    282        -17.657682   1.000000
    283        -17.656339   1.000000
    284        -17.655445   1.000000
    285        -17.653862   1.000000
    286        -17.652809   1.000000
    287        -17.652671   1.000000
    288        -17.651586   1.000000
    289        -17.650026   1.000000
    290        -17.647712   1.000000
    291        -17.646085   1.000000
    292        -17.645728   1.000000
    293        -17.645468   1.000000
    294        -17.644829   1.000000
    295        -17.644329   1.000000
    296        -17.643533   1.000000
    297        -17.641387   1.000000
    298        -17.641113   1.000000
    299        -17.636426   1.000000
    300        -17.629953   1.000000
    301        -17.629111   1.000000
    302        -17.626349   1.000000
    303        -17.624243   1.000000
    304        -17.622390   1.000000
    305        -17.618305   1.000000
    306        -17.618093   1.000000
    307        -17.617437   1.000000
    308        -17.616511   1.000000
    309        -17.612848   1.000000
    310        -17.612839   1.000000
    311        -17.611732   1.000000
    312        -17.609406   1.000000
    313        -17.597284   1.000000
    314        -17.593856   1.000000
    315        -17.593221   1.000000
    316        -17.590907   1.000000
    317        -17.584650   1.000000
    318        -17.584467   1.000000
    319        -17.584456   1.000000
    320        -17.584107   1.000000
    321        -17.582555   1.000000
    322        -17.580376   1.000000
    323        -17.580126   1.000000
    324        -17.579930   1.000000
    325        -17.578940   1.000000
    326        -17.578899   1.000000
    327        -17.577099   1.000000
    328        -17.576692   1.000000
    329        -17.575299   1.000000
    330        -17.574122   1.000000
    331        -17.573794   1.000000
    332        -17.569917   1.000000
    333        -17.569904   1.000000
    334        -17.569646   1.000000
    335        -17.569438   1.000000
    336        -17.563893   1.000000
    337        -17.561991   1.000000
    338        -17.561068   1.000000
    339        -17.558171   1.000000
    340        -17.557982   1.000000
    341        -17.554890   1.000000
    342        -17.551311   1.000000
    343        -17.548916   1.000000
    344        -17.548310   1.000000
    345        -17.546234   1.000000
    346        -17.545890   1.000000
    347        -17.544347   1.000000
    348        -17.542924   1.000000
    349        -17.541550   1.000000
    350        -17.540800   1.000000
    351        -17.539290   1.000000
    352        -17.537887   1.000000
    353        -17.536049   1.000000
    354        -17.536023   1.000000
    355        -17.535238   1.000000
    356        -17.533550   1.000000
    357        -17.533257   1.000000
    358        -17.532760   1.000000
    359        -17.532408   1.000000
    360        -17.530334   1.000000
    361        -17.524924   1.000000
    362        -17.520830   1.000000
    363        -17.514723   1.000000
    364        -17.513503   1.000000
    365        -17.511723   1.000000
    366        -17.510049   1.000000
    367        -17.497308   1.000000
    368        -17.496697   1.000000
    369        -17.494105   1.000000
    370        -17.493733   1.000000
    371        -17.491294   1.000000
    372        -17.489418   1.000000
    373        -17.486516   1.000000
    374        -17.474227   1.000000
    375        -17.473213   1.000000
    376        -17.469004   1.000000
    377        -17.467173   1.000000
    378        -17.462409   1.000000
    379        -17.458989   1.000000
    380        -17.455060   1.000000
    381        -17.446145   1.000000
    382        -17.444138   1.000000
    383        -17.433251   1.000000
    384        -17.420818   1.000000
    385          2.470956   1.000000
    386          3.484259   1.000000
    387          4.223000   1.000000
    388          4.252015   1.000000
    389          4.343816   1.000000
    390          4.575924   1.000000
    391          4.645291   1.000000
    392          4.945178   1.000000
    393          4.985530   1.000000
    394          5.201204   1.000000
    395          5.214004   1.000000
    396          5.231868   1.000000
    397          5.233392   1.000000
    398          5.235239   1.000000
    399          5.333701   1.000000
    400          5.461923   1.000000
    401          5.652095   1.000000
    402          5.653414   1.000000
    403          5.654700   1.000000
    404          5.687542   1.000000
    405          5.743221   1.000000
    406          5.749622   1.000000
    407          5.764078   1.000000
    408          5.840832   1.000000
    409          5.914261   1.000000
    410          5.929304   1.000000
    411          5.974729   1.000000
    412          5.980293   1.000000
    413          5.985523   1.000000
    414          5.998582   1.000000
    415          6.069866   1.000000
    416          6.269317   1.000000
    417          6.307347   1.000000
    418          6.328652   1.000000
    419          6.392951   1.000000
    420          6.394596   1.000000
    421          6.395323   1.000000
    422          6.406576   1.000000
    423          6.435046   1.000000
    424          6.439019   1.000000
    425          6.441340   1.000000
    426          6.458301   1.000000
    427          6.462633   1.000000
    428          6.479019   1.000000
    429          6.495628   1.000000
    430          6.503454   1.000000
    431          6.507277   1.000000
    432          6.509610   1.000000
    433          6.516993   1.000000
    434          6.517204   1.000000
    435          6.520898   1.000000
    436          6.530421   1.000000
    437          6.548317   1.000000
    438          6.558421   1.000000
    439          6.600593   1.000000
    440          6.674053   1.000000
    441          6.675193   1.000000
    442          6.677160   1.000000
    443          6.680904   1.000000
    444          6.698484   1.000000
    445          6.702997   1.000000
    446          6.743856   1.000000
    447          6.774158   1.000000
    448          6.793114   1.000000
    449          6.797036   1.000000
    450          6.799629   1.000000
    451          6.805731   1.000000
    452          6.836321   1.000000
    453          6.843603   1.000000
    454          6.850310   1.000000
    455          6.862003   1.000000
    456          6.865595   1.000000
    457          6.866060   1.000000
    458          6.877253   1.000000
    459          6.890630   1.000000
    460          6.895853   1.000000
    461          6.902189   1.000000
    462          6.902678   1.000000
    463          6.904310   1.000000
    464          6.905542   1.000000
    465          6.908273   1.000000
    466          6.917498   1.000000
    467          6.920247   1.000000
    468          6.984126   1.000000
    469          6.989696   1.000000
    470          6.994891   1.000000
    471          6.995467   1.000000
    472          7.000136   1.000000
    473          7.004413   1.000000
    474          7.008055   1.000000
    475          7.026809   1.000000
    476          7.114787   1.000000
    477          7.195868   1.000000
    478          7.200957   1.000000
    479          7.204760   1.000000
    480          7.206315   1.000000
    481          7.207446   1.000000
    482          7.213694   1.000000
    483          7.222246   1.000000
    484          7.228780   1.000000
    485          7.231520   1.000000
    486          7.320504   1.000000
    487          7.405650   1.000000
    488          7.430164   1.000000
    489          7.484209   1.000000
    490          7.501890   1.000000
    491          7.524762   1.000000
    492          7.633890   1.000000
    493          7.646962   1.000000
    494          7.647730   1.000000
    495          7.660661   1.000000
    496          7.668438   1.000000
    497          7.671751   1.000000
    498          7.681450   1.000000
    499          7.688517   1.000000
    500          7.689678   1.000000
    501          7.689747   1.000000
    502          7.691611   1.000000
    503          7.699966   1.000000
    504          7.707845   1.000000
    505          7.710902   1.000000
    506          7.714711   1.000000
    507          7.748919   1.000000
    508          7.750873   1.000000
    509          7.760910   1.000000
    510          7.789738   1.000000
    511          7.794147   1.000000
    512          7.794756   1.000000
    513          7.799999   1.000000
    514          7.834211   1.000000
    515          7.835527   1.000000
    516          7.837367   1.000000
    517          7.844825   1.000000
    518          7.847642   1.000000
    519          7.852006   1.000000
    520          7.852439   1.000000
    521          7.853625   1.000000
    522          7.854828   1.000000
    523          7.879419   1.000000
    524          7.883065   1.000000
    525          7.993764   1.000000
    526          8.042709   1.000000
    527          8.051883   1.000000
    528          8.055287   1.000000
    529          8.071373   1.000000
    530          8.085616   1.000000
    531          8.089580   1.000000
    532          8.092464   1.000000
    533          8.093370   1.000000
    534          8.096156   1.000000
    535          8.184960   1.000000
    536          8.203820   1.000001
    537          8.213408   1.000001
    538          8.215521   1.000001
    539          8.249034   1.000003
    540          8.293845   1.000014
    541          8.294338   1.000014
    542          8.300913   1.000018
    543          8.302508   1.000018
    544          8.321300   1.000033
    545          8.322666   1.000034
    546          8.327973   1.000040
    547          8.376450   1.000157
    548          8.401759   1.000304
    549          8.414674   1.000421
    550          8.428701   1.000592
    551          8.440661   1.000786
    552          8.445276   1.000875
    553          8.446972   1.000910
    554          8.451374   1.001006
    555          8.455821   1.001112
    556          8.481787   1.001953
    557          8.493061   1.002463
    558          8.493462   1.002483
    559          8.502386   1.002967
    560          8.611539   1.017242
    561          8.618946   1.018837
    562          8.640263   1.023677
    563          8.644097   1.024564
    564          8.649369   1.025780
    565          8.650993   1.026152
    566          8.651482   1.026264
    567          8.655713   1.027224
    568          8.663258   1.028888
    569          8.779551   1.009691
    570          8.806459   0.977864
    571          8.820145   0.955393
    572          8.820922   0.953980
    573          8.822498   0.951072
    574          8.840627   0.913157
    575          8.856313   0.873671
    576          8.873458   0.823564
    577          8.902086   0.725248
    578          8.903337   0.720584
    579          8.904088   0.717774
    580          8.910281   0.694227
    581          9.064409   0.111836
    582          9.066647   0.106130
    583          9.076377   0.082798
    584          9.080196   0.074292
    585          9.082356   0.069646
    586          9.092443   0.049493
    587          9.094499   0.045696
    588          9.095100   0.044606
    589          9.096941   0.041320
    590          9.106936   0.024912
    591          9.119316   0.007816
    592          9.123412   0.002912
    593          9.125845   0.000168
    594          9.131692  -0.005922
    595          9.140600  -0.013892
    596          9.140875  -0.014114
    597          9.148944  -0.020019
    598          9.165013  -0.028549
    599          9.165866  -0.028893
    600          9.174074  -0.031692
    601          9.176530  -0.032361
    602          9.186383  -0.034333
    603          9.194800  -0.035213
    604          9.198892  -0.035404
    605          9.265445  -0.025879
    606          9.268024  -0.025286
    607          9.283255  -0.021769
    608          9.290413  -0.020143
    609          9.295606  -0.018989
    610          9.298740  -0.018304
    611          9.300450  -0.017935
    612          9.313151  -0.015305
    613          9.359793  -0.007718
    614          9.372666  -0.006223
    615          9.373096  -0.006177
    616          9.374753  -0.006003
    617          9.451220  -0.001334
    618          9.453598  -0.001266
    619          9.493959  -0.000495
    620          9.508485  -0.000345
    621          9.510114  -0.000331
    622          9.516302  -0.000283
    623          9.527443  -0.000212
    624          9.541799  -0.000144
    625          9.590499  -0.000036
    626          9.610782  -0.000020
    627          9.625327  -0.000012
    628          9.629417  -0.000011
    629          9.636285  -0.000009
    630          9.637075  -0.000009
    631          9.674327  -0.000002
    632          9.688035  -0.000002
    633          9.692392  -0.000001
    634          9.695681  -0.000001
    635          9.701248  -0.000001
    636          9.702453  -0.000001
    637          9.713909  -0.000001
    638          9.728851  -0.000000
    639          9.748131  -0.000000
    640          9.755242  -0.000000
    641          9.769700  -0.000000
    642          9.770287  -0.000000
    643          9.775294  -0.000000
    644          9.777171  -0.000000
    645          9.789405  -0.000000
    646          9.794530  -0.000000
    647          9.801476  -0.000000
    648          9.811819  -0.000000
    649          9.813352  -0.000000
    650          9.817198  -0.000000
    651          9.825557  -0.000000
    652          9.852640  -0.000000
    653          9.872571  -0.000000
    654          9.889660  -0.000000
    655          9.897740  -0.000000
    656          9.909815  -0.000000
    657          9.910698  -0.000000
    658          9.911052  -0.000000
    659          9.948852  -0.000000
    660          9.951920  -0.000000
    661          9.979247  -0.000000
    662          9.982813  -0.000000
    663         10.006232  -0.000000
    664         10.008846  -0.000000
    665         10.027172  -0.000000
    666         10.029522  -0.000000
    667         10.033530  -0.000000
    668         10.036457  -0.000000
    669         10.043023  -0.000000
    670         10.071090  -0.000000
    671         10.078518  -0.000000
    672         10.143809  -0.000000
    673         10.161280  -0.000000
    674         10.175125  -0.000000
    675         10.176186  -0.000000
    676         10.176773  -0.000000
    677         10.188395  -0.000000
    678         10.196954  -0.000000
    679         10.243866  -0.000000
    680         10.250083  -0.000000
    681         10.259806  -0.000000
    682         10.272366  -0.000000
    683         10.278032  -0.000000
    684         10.283743  -0.000000
    685         10.291854  -0.000000
    686         10.323960  -0.000000
    687         10.326868  -0.000000
    688         10.337848  -0.000000
    689         10.338934  -0.000000
    690         10.363850  -0.000000
    691         10.369854  -0.000000
 
  0.1345275E-16  0.2500000E+00  0.0000000E+00  0.4166667E-01
      1        -39.916129   1.000000
      2        -39.892995   1.000000
      3        -39.881322   1.000000
      4        -39.864668   1.000000
      5        -39.858936   1.000000
      6        -39.857278   1.000000
      7        -39.852941   1.000000
      8        -39.846855   1.000000
      9        -39.838915   1.000000
     10        -39.836614   1.000000
     11        -39.830854   1.000000
     12        -39.829257   1.000000
     13        -39.824260   1.000000
     14        -39.821714   1.000000
     15        -39.821251   1.000000
     16        -39.819437   1.000000
     17        -39.814160   1.000000
     18        -39.809087   1.000000
     19        -39.806973   1.000000
     20        -39.801330   1.000000
     21        -39.801321   1.000000
     22        -39.796839   1.000000
     23        -39.792501   1.000000
     24        -39.790628   1.000000
     25        -39.788870   1.000000
     26        -39.783814   1.000000
     27        -39.782768   1.000000
     28        -39.782140   1.000000
     29        -39.779452   1.000000
     30        -39.778974   1.000000
     31        -39.771432   1.000000
     32        -39.770790   1.000000
     33        -39.770327   1.000000
     34        -39.769448   1.000000
     35        -39.768840   1.000000
     36        -39.767782   1.000000
     37        -39.767404   1.000000
     38        -39.765086   1.000000
     39        -39.764113   1.000000
     40        -39.762565   1.000000
     41        -39.762073   1.000000
     42        -39.761307   1.000000
     43        -39.759830   1.000000
     44        -39.759339   1.000000
     45        -39.758967   1.000000
     46        -39.757411   1.000000
     47        -39.756550   1.000000
     48        -39.755381   1.000000
     49        -39.755333   1.000000
     50        -39.754453   1.000000
     51        -39.752799   1.000000
     52        -39.751149   1.000000
     53        -39.751068   1.000000
     54        -39.750705   1.000000
     55        -39.750110   1.000000
     56        -39.748759   1.000000
     57        -39.748660   1.000000
     58        -39.748323   1.000000
     59        -39.746630   1.000000
     60        -39.744880   1.000000
     61        -39.744729   1.000000
     62        -39.743563   1.000000
     63        -39.743095   1.000000
     64        -39.740061   1.000000
     65        -39.739379   1.000000
     66        -39.737950   1.000000
     67        -39.737762   1.000000
     68        -39.735267   1.000000
     69        -39.734808   1.000000
     70        -39.734352   1.000000
     71        -39.733255   1.000000
     72        -39.732267   1.000000
     73        -39.732078   1.000000
     74        -39.730515   1.000000
     75        -39.730221   1.000000
     76        -39.729984   1.000000
     77        -39.729069   1.000000
     78        -39.728572   1.000000
     79        -39.728228   1.000000
     80        -39.726589   1.000000
     81        -39.725739   1.000000
     82        -39.725411   1.000000
     83        -39.724063   1.000000
     84        -39.723809   1.000000
     85        -39.722682   1.000000
     86        -39.721945   1.000000
     87        -39.721043   1.000000
     88        -39.720116   1.000000
     89        -39.718842   1.000000
     90        -39.718047   1.000000
     91        -39.712897   1.000000
     92        -39.712346   1.000000
     93        -39.705781   1.000000
     94        -39.705678   1.000000
     95        -39.702665   1.000000
     96        -39.700403   1.000000
     97        -18.405715   1.000000
     98        -18.343773   1.000000
     99        -18.321177   1.000000
    100        -18.320798   1.000000
    101        -18.319301   1.000000
    102        -18.317823   1.000000
    103        -18.315382   1.000000
    104        -18.312532   1.000000
    105        -18.276684   1.000000
    106        -18.274308   1.000000
    107        -18.263334   1.000000
    108        -18.237751   1.000000
    109        -18.235940   1.000000
    110        -18.235437   1.000000
    111        -18.234207   1.000000
    112        -18.231824   1.000000
    113        -18.230784   1.000000
    114        -18.226791   1.000000
    115        -18.226413   1.000000
    116        -18.223350   1.000000
    117        -18.222329   1.000000
    118        -18.220480   1.000000
    119        -18.217518   1.000000
    120        -18.211128   1.000000
    121        -18.209409   1.000000
    122        -18.207986   1.000000
    123        -18.205398   1.000000
    124        -18.204451   1.000000
    125        -18.204112   1.000000
    126        -18.203248   1.000000
    127        -18.200975   1.000000
    128        -18.200435   1.000000
    129        -18.199684   1.000000
    130        -18.198772   1.000000
    131        -18.197564   1.000000
    132        -18.187329   1.000000
    133        -18.181902   1.000000
    134        -18.180237   1.000000
    135        -18.178543   1.000000
    136        -18.177251   1.000000
    137        -18.173838   1.000000
    138        -18.170219   1.000000
    139        -18.169542   1.000000
    140        -18.168742   1.000000
    141        -18.166959   1.000000
    142        -18.166443   1.000000
    143        -18.165508   1.000000
    144        -18.164737   1.000000
    145        -18.163084   1.000000
    146        -18.162955   1.000000
    147        -18.162780   1.000000
    148        -18.158002   1.000000
    149        -18.157447   1.000000
    150        -18.155519   1.000000
    151        -18.154449   1.000000
    152        -18.150911   1.000000
    153        -18.140504   1.000000
    154        -18.138005   1.000000
    155        -18.134739   1.000000
    156        -18.131886   1.000000
    157        -18.126058   1.000000
    158        -18.125898   1.000000
    159        -18.124774   1.000000
    160        -18.123432   1.000000
    161        -18.074276   1.000000
    162        -18.072379   1.000000
    163        -18.068926   1.000000
    164        -18.068338   1.000000
    165        -18.067205   1.000000
    166        -18.066070   1.000000
    167        -18.057678   1.000000
    168        -18.054692   1.000000
    169        -18.053932   1.000000
    170        -18.039073   1.000000
    171        -18.021316   1.000000
    172        -18.020285   1.000000
    173        -18.019538   1.000000
    174        -18.013880   1.000000
    175        -18.012791   1.000000
    176        -18.008717   1.000000
    177        -18.007034   1.000000
    178        -18.003550   1.000000
    179        -18.003532   1.000000
    180        -18.001900   1.000000
    181        -17.998803   1.000000
    182        -17.998608   1.000000
    183        -17.994737   1.000000
    184        -17.988840   1.000000
    185        -17.988653   1.000000
    186        -17.976031   1.000000
    187        -17.969492   1.000000
    188        -17.954603   1.000000
    189        -17.951744   1.000000
    190        -17.950016   1.000000
    191        -17.948704   1.000000
    192        -17.930649   1.000000
    193        -17.924106   1.000000
    194        -17.903682   1.000000
    195        -17.899265   1.000000
    196        -17.894498   1.000000
    197        -17.891487   1.000000
    198        -17.890860   1.000000
    199        -17.890357   1.000000
    200        -17.884137   1.000000
    201        -17.882395   1.000000
    202        -17.875128   1.000000
    203        -17.870218   1.000000
    204        -17.869705   1.000000
    205        -17.855969   1.000000
    206        -17.854093   1.000000
    207        -17.843487   1.000000
    208        -17.841926   1.000000
    209        -17.835472   1.000000
    210        -17.834241   1.000000
    211        -17.831751   1.000000
    212        -17.831579   1.000000
    213        -17.830738   1.000000
    214        -17.827232   1.000000
    215        -17.826722   1.000000
    216        -17.826557   1.000000
    217        -17.818826   1.000000
    218        -17.817287   1.000000
    219        -17.816083   1.000000
    220        -17.813524   1.000000
    221        -17.807438   1.000000
    222        -17.804445   1.000000
    223        -17.800316   1.000000
    224        -17.797585   1.000000
    225        -17.793251   1.000000
    226        -17.792140   1.000000
    227        -17.786782   1.000000
    228        -17.785305   1.000000
    229        -17.784726   1.000000
    230        -17.784613   1.000000
    231        -17.783638   1.000000
    232        -17.778839   1.000000
    233        -17.778422   1.000000
    234        -17.775708   1.000000
    235        -17.775464   1.000000
    236        -17.771721   1.000000
    237        -17.771272   1.000000
    238        -17.769538   1.000000
    239        -17.769431   1.000000
    240        -17.767285   1.000000
    241        -17.766762   1.000000
    242        -17.766342   1.000000
    243        -17.765448   1.000000
    244        -17.764496   1.000000
    245        -17.760396   1.000000
    246        -17.753349   1.000000
    247        -17.742330   1.000000
    248        -17.737396   1.000000
    249        -17.733752   1.000000
    250        -17.732877   1.000000
    251        -17.732623   1.000000
    252        -17.728518   1.000000
    253        -17.727192   1.000000
    254        -17.726420   1.000000
    255        -17.724801   1.000000
    256        -17.722419   1.000000
    257        -17.707721   1.000000
    258        -17.704583   1.000000
    259        -17.703384   1.000000
    260        -17.702945   1.000000
    261        -17.701608   1.000000
    262        -17.700894   1.000000
    263        -17.698919   1.000000
    264        -17.697464   1.000000
    265        -17.694871   1.000000
    266        -17.690780   1.000000
    267        -17.690292   1.000000
    268        -17.686733   1.000000
    269        -17.683721   1.000000
    270        -17.682511   1.000000
    271        -17.679094   1.000000
    272        -17.674214   1.000000
    273        -17.673105   1.000000
    274        -17.670395   1.000000
    275        -17.669255   1.000000
    276        -17.668343   1.000000
    277        -17.667602   1.000000
    278        -17.666761   1.000000
    279        -17.661271   1.000000
    280        -17.660863   1.000000
    281        -17.658053   1.000000
    282        -17.657697   1.000000
    283        -17.656291   1.000000
    284        -17.655436   1.000000
    285        -17.653883   1.000000
    286        -17.652739   1.000000
    287        -17.652650   1.000000
    288        -17.651464   1.000000
    289        -17.650083   1.000000
    290        -17.647656   1.000000
    291        -17.646031   1.000000
    292        -17.645781   1.000000
    293        -17.645413   1.000000
    294        -17.644899   1.000000
    295        -17.644347   1.000000
    296        -17.643556   1.000000
    297        -17.641503   1.000000
    298        -17.641222   1.000000
    299        -17.636463   1.000000
    300        -17.629983   1.000000
    301        -17.629107   1.000000
    302        -17.626475   1.000000
    303        -17.624257   1.000000
    304        -17.622480   1.000000
    305        -17.618407   1.000000
    306        -17.618137   1.000000
    307        -17.617179   1.000000
    308        -17.616377   1.000000
    309        -17.613040   1.000000
    310        -17.612755   1.000000
    311        -17.611804   1.000000
    312        -17.609410   1.000000
    313        -17.597244   1.000000
    314        -17.593613   1.000000
    315        -17.593298   1.000000
    316        -17.590838   1.000000
    317        -17.584851   1.000000
    318        -17.584579   1.000000
    319        -17.584484   1.000000
    320        -17.584258   1.000000
    321        -17.582565   1.000000
    322        -17.580470   1.000000
    323        -17.580084   1.000000
    324        -17.579900   1.000000
    325        -17.578982   1.000000
    326        -17.578836   1.000000
    327        -17.577035   1.000000
    328        -17.576790   1.000000
    329        -17.575149   1.000000
    330        -17.573917   1.000000
    331        -17.573563   1.000000
    332        -17.570037   1.000000
    333        -17.570006   1.000000
    334        -17.569597   1.000000
    335        -17.569355   1.000000
    336        -17.563888   1.000000
    337        -17.562081   1.000000
    338        -17.560904   1.000000
    339        -17.558313   1.000000
    340        -17.558044   1.000000
    341        -17.554917   1.000000
    342        -17.551282   1.000000
    343        -17.548847   1.000000
    344        -17.548297   1.000000
    345        -17.546333   1.000000
    346        -17.545931   1.000000
    347        -17.544247   1.000000
    348        -17.542904   1.000000
    349        -17.541593   1.000000
    350        -17.540776   1.000000
    351        -17.539227   1.000000
    352        -17.537734   1.000000
    353        -17.536219   1.000000
    354        -17.536028   1.000000
    355        -17.535199   1.000000
    356        -17.533514   1.000000
    357        -17.533338   1.000000
    358        -17.532740   1.000000
    359        -17.532517   1.000000
    360        -17.530380   1.000000
    361        -17.524902   1.000000
    362        -17.520915   1.000000
    363        -17.514643   1.000000
    364        -17.513560   1.000000
    365        -17.511676   1.000000
    366        -17.510053   1.000000
    367        -17.497067   1.000000
    368        -17.496609   1.000000
    369        -17.494128   1.000000
    370        -17.493735   1.000000
    371        -17.491433   1.000000
    372        -17.489459   1.000000
    373        -17.486617   1.000000
    374        -17.474108   1.000000
    375        -17.473255   1.000000
    376        -17.469015   1.000000
    377        -17.467242   1.000000
    378        -17.462402   1.000000
    379        -17.458981   1.000000
    380        -17.455055   1.000000
    381        -17.446150   1.000000
    382        -17.444169   1.000000
    383        -17.433245   1.000000
    384        -17.420780   1.000000
    385          2.470960   1.000000
    386          3.484250   1.000000
    387          4.222992   1.000000
    388          4.252016   1.000000
    389          4.343829   1.000000
    390          4.576026   1.000000
    391          4.645174   1.000000
    392          4.945179   1.000000
    393          4.985528   1.000000
    394          5.201268   1.000000
    395          5.213893   1.000000
    396          5.232038   1.000000
    397          5.233420   1.000000
    398          5.235208   1.000000
    399          5.333632   1.000000
    400          5.461823   1.000000
    401          5.652224   1.000000
    402          5.653385   1.000000
    403          5.654720   1.000000
    404          5.687506   1.000000
    405          5.743230   1.000000
    406          5.749559   1.000000
    407          5.764083   1.000000
    408          5.840798   1.000000
    409          5.914239   1.000000
    410          5.929342   1.000000
    411          5.974824   1.000000
    412          5.980313   1.000000
    413          5.985445   1.000000
    414          5.998570   1.000000
    415          6.069839   1.000000
    416          6.269241   1.000000
    417          6.307362   1.000000
    418          6.328753   1.000000
    419          6.393077   1.000000
    420          6.394796   1.000000
    421          6.395205   1.000000
    422          6.406376   1.000000
    423          6.435048   1.000000
    424          6.439166   1.000000
    425          6.441306   1.000000
    426          6.458107   1.000000
    427          6.462615   1.000000
    428          6.479148   1.000000
    429          6.495798   1.000000
    430          6.503463   1.000000
    431          6.507173   1.000000
    432          6.509551   1.000000
    433          6.516956   1.000000
    434          6.517138   1.000000
    435          6.520947   1.000000
    436          6.530626   1.000000
    437          6.548244   1.000000
    438          6.558426   1.000000
    439          6.600445   1.000000
    440          6.673820   1.000000
    441          6.675002   1.000000
    442          6.677187   1.000000
    443          6.681244   1.000000
    444          6.698613   1.000000
    445          6.702893   1.000000
    446          6.743877   1.000000
    447          6.774164   1.000000
    448          6.792978   1.000000
    449          6.796791   1.000000
    450          6.799490   1.000000
    451          6.805999   1.000000
    452          6.836450   1.000000
    453          6.843439   1.000000
    454          6.850261   1.000000
    455          6.862315   1.000000
    456          6.865303   1.000000
    457          6.866211   1.000000
    458          6.877414   1.000000
    459          6.890611   1.000000
    460          6.895600   1.000000
    461          6.902398   1.000000
    462          6.902984   1.000000
    463          6.904006   1.000000
    464          6.905512   1.000000
    465          6.908167   1.000000
    466          6.917517   1.000000
    467          6.920545   1.000000
    468          6.984119   1.000000
    469          6.989682   1.000000
    470          6.994983   1.000000
    471          6.995574   1.000000
    472          7.000021   1.000000
    473          7.004267   1.000000
    474          7.007913   1.000000
    475          7.026987   1.000000
    476          7.114903   1.000000
    477          7.196118   1.000000
    478          7.201072   1.000000
    479          7.204387   1.000000
    480          7.206427   1.000000
    481          7.207294   1.000000
    482          7.213732   1.000000
    483          7.222194   1.000000
    484          7.228722   1.000000
    485          7.231681   1.000000
    486          7.320529   1.000000
    487          7.405761   1.000000
    488          7.429758   1.000000
    489          7.484225   1.000000
    490          7.501917   1.000000
    491          7.524783   1.000000
    492          7.633776   1.000000
    493          7.646647   1.000000
    494          7.647805   1.000000
    495          7.660447   1.000000
    496          7.668356   1.000000
    497          7.671816   1.000000
    498          7.681816   1.000000
    499          7.688324   1.000000
    500          7.689370   1.000000
    501          7.689937   1.000000
    502          7.691838   1.000000
    503          7.700169   1.000000
    504          7.707941   1.000000
    505          7.710935   1.000000
    506          7.714839   1.000000
    507          7.748870   1.000000
    508          7.750863   1.000000
    509          7.760643   1.000000
    510          7.789309   1.000000
    511          7.794441   1.000000
    512          7.795188   1.000000
    513          7.799638   1.000000
    514          7.834772   1.000000
    515          7.835768   1.000000
    516          7.837526   1.000000
    517          7.844860   1.000000
    518          7.847839   1.000000
    519          7.851921   1.000000
    520          7.852299   1.000000
    521          7.852810   1.000000
    522          7.855046   1.000000
    523          7.879460   1.000000
    524          7.882968   1.000000
    525          7.993625   1.000000
    526          8.042723   1.000000
    527          8.052109   1.000000
    528          8.055357   1.000000
    529          8.070976   1.000000
    530          8.085622   1.000000
    531          8.089679   1.000000
    532          8.092528   1.000000
    533          8.093304   1.000000
    534          8.096069   1.000000
    535          8.184605   1.000000
    536          8.203548   1.000001
    537          8.213563   1.000001
    538          8.215998   1.000001
    539          8.248554   1.000003
    540          8.294102   1.000014
    541          8.294517   1.000014
    542          8.301101   1.000018
    543          8.302232   1.000018
    544          8.320705   1.000032
    545          8.323066   1.000034
    546          8.328239   1.000040
    547          8.376409   1.000156
    548          8.402099   1.000307
    549          8.414295   1.000417
    550          8.428368   1.000588
    551          8.440672   1.000786
    552          8.445625   1.000882
    553          8.447179   1.000914
    554          8.451281   1.001004
    555          8.455807   1.001112
    556          8.481916   1.001958
    557          8.493187   1.002469
    558          8.493807   1.002501
    559          8.502271   1.002960
    560          8.611191   1.017169
    561          8.618991   1.018847
    562          8.640833   1.023809
    563          8.644042   1.024552
    564          8.648656   1.025617
    565          8.650844   1.026118
    566          8.651719   1.026318
    567          8.655659   1.027212
    568          8.663398   1.028918
    569          8.779012   1.010174
    570          8.806515   0.977781
    571          8.820097   0.955478
    572          8.821144   0.953574
    573          8.822746   0.950608
    574          8.840714   0.912955
    575          8.856366   0.873527
    576          8.873481   0.823492
    577          8.901999   0.725570
    578          8.903408   0.720318
    579          8.904105   0.717710
    580          8.910202   0.694533
    581          9.064439   0.111757
    582          9.067299   0.104492
    583          9.076332   0.082899
    584          9.080472   0.073693
    585          9.082906   0.068482
    586          9.091995   0.050335
    587          9.095043   0.044709
    588          9.095440   0.043992
    589          9.096729   0.041694
    590          9.106403   0.025726
    591          9.119494   0.007596
    592          9.123181   0.003179
    593          9.125458   0.000597
    594          9.130809  -0.005046
    595          9.140629  -0.013915
    596          9.140971  -0.014191
    597          9.148624  -0.019806
    598          9.165099  -0.028585
    599          9.165585  -0.028781
    600          9.174369  -0.031777
    601          9.176945  -0.032467
    602          9.186278  -0.034318
    603          9.194415  -0.035187
    604          9.199150  -0.035412
    605          9.265939  -0.025765
    606          9.267419  -0.025425
    607          9.283814  -0.021640
    608          9.290398  -0.020147
    609          9.295578  -0.018995
    610          9.298614  -0.018332
    611          9.300348  -0.017957
    612          9.313258  -0.015284
    613          9.359846  -0.007711
    614          9.372542  -0.006236
    615          9.372998  -0.006187
    616          9.374669  -0.006012
    617          9.451249  -0.001334
    618          9.453557  -0.001267
    619          9.493906  -0.000496
    620          9.509494  -0.000336
    621          9.510225  -0.000330
    622          9.516302  -0.000283
    623          9.526696  -0.000216
    624          9.541680  -0.000145
    625          9.590574  -0.000036
    626          9.610976  -0.000019
    627          9.625205  -0.000012
    628          9.629628  -0.000011
    629          9.635814  -0.000009
    630          9.637151  -0.000009
    631          9.674168  -0.000002
    632          9.688204  -0.000002
    633          9.692642  -0.000001
    634          9.695627  -0.000001
    635          9.701689  -0.000001
    636          9.702501  -0.000001
    637          9.713555  -0.000001
    638          9.728335  -0.000000
    639          9.748603  -0.000000
    640          9.755239  -0.000000
    641          9.769468  -0.000000
    642          9.769810  -0.000000
    643          9.774868  -0.000000
    644          9.777799  -0.000000
    645          9.789769  -0.000000
    646          9.794580  -0.000000
    647          9.801776  -0.000000
    648          9.811553  -0.000000
    649          9.813157  -0.000000
    650          9.817442  -0.000000
    651          9.825201  -0.000000
    652          9.852260  -0.000000
    653          9.872463  -0.000000
    654          9.889468  -0.000000
    655          9.897990  -0.000000
    656          9.909497  -0.000000
    657          9.910615  -0.000000
    658          9.911062  -0.000000
    659          9.948797  -0.000000
    660          9.952177  -0.000000
    661          9.979252  -0.000000
    662          9.983120  -0.000000
    663         10.006360  -0.000000
    664         10.009109  -0.000000
    665         10.028190  -0.000000
    666         10.029131  -0.000000
    667         10.033744  -0.000000
    668         10.036114  -0.000000
    669         10.042652  -0.000000
    670         10.070891  -0.000000
    671         10.078457  -0.000000
    672         10.144141  -0.000000
    673         10.161382  -0.000000
    674         10.175523  -0.000000
    675         10.176004  -0.000000
    676         10.176439  -0.000000
    677         10.188011  -0.000000
    678         10.196950  -0.000000
    679         10.243840  -0.000000
    680         10.250114  -0.000000
    681         10.260154  -0.000000
    682         10.272416  -0.000000
    683         10.277407  -0.000000
    684         10.283692  -0.000000
    685         10.291942  -0.000000
    686         10.323832  -0.000000
    687         10.326799  -0.000000
    688         10.337813  -0.000000
    689         10.338953  -0.000000
    690         10.365211  -0.000000
    691         10.373477  -0.000000
 
 -0.2500000E+00  0.2500000E+00  0.0000000E+00  0.4166667E-01
      1        -39.916129   1.000000
      2        -39.892995   1.000000
      3        -39.881322   1.000000
      4        -39.864668   1.000000
      5        -39.858936   1.000000
      6        -39.857278   1.000000
      7        -39.852941   1.000000
      8        -39.846855   1.000000
      9        -39.838915   1.000000
     10        -39.836614   1.000000
     11        -39.830854   1.000000
     12        -39.829257   1.000000
     13        -39.824260   1.000000
     14        -39.821714   1.000000
     15        -39.821251   1.000000
     16        -39.819438   1.000000
     17        -39.814160   1.000000
     18        -39.809087   1.000000
     19        -39.806973   1.000000
     20        -39.801330   1.000000
     21        -39.801321   1.000000
     22        -39.796839   1.000000
     23        -39.792501   1.000000
     24        -39.790628   1.000000
     25        -39.788870   1.000000
     26        -39.783814   1.000000
     27        -39.782768   1.000000
     28        -39.782140   1.000000
     29        -39.779452   1.000000
     30        -39.778974   1.000000
     31        -39.771432   1.000000
     32        -39.770790   1.000000
     33        -39.770327   1.000000
     34        -39.769448   1.000000
     35        -39.768840   1.000000
     36        -39.767782   1.000000
     37        -39.767404   1.000000
     38        -39.765086   1.000000
     39        -39.764113   1.000000
     40        -39.762565   1.000000
     41        -39.762073   1.000000
     42        -39.761307   1.000000
     43        -39.759830   1.000000
     44        -39.759339   1.000000
     45        -39.758967   1.000000
     46        -39.757411   1.000000
     47        -39.756550   1.000000
     48        -39.755381   1.000000
     49        -39.755334   1.000000
     50        -39.754453   1.000000
     51        -39.752799   1.000000
     52        -39.751149   1.000000
     53        -39.751068   1.000000
     54        -39.750705   1.000000
     55        -39.750109   1.000000
     56        -39.748759   1.000000
     57        -39.748660   1.000000
     58        -39.748323   1.000000
     59        -39.746630   1.000000
     60        -39.744880   1.000000
     61        -39.744729   1.000000
     62        -39.743563   1.000000
     63        -39.743095   1.000000
     64        -39.740061   1.000000
     65        -39.739379   1.000000
     66        -39.737950   1.000000
     67        -39.737762   1.000000
     68        -39.735267   1.000000
     69        -39.734808   1.000000
     70        -39.734352   1.000000
     71        -39.733255   1.000000
     72        -39.732267   1.000000
     73        -39.732078   1.000000
     74        -39.730515   1.000000
     75        -39.730221   1.000000
     76        -39.729984   1.000000
     77        -39.729069   1.000000
     78        -39.728572   1.000000
     79        -39.728228   1.000000
     80        -39.726589   1.000000
     81        -39.725739   1.000000
     82        -39.725411   1.000000
     83        -39.724063   1.000000
     84        -39.723809   1.000000
     85        -39.722682   1.000000
     86        -39.721945   1.000000
     87        -39.721043   1.000000
     88        -39.720116   1.000000
     89        -39.718842   1.000000
     90        -39.718047   1.000000
     91        -39.712897   1.000000
     92        -39.712346   1.000000
     93        -39.705781   1.000000
     94        -39.705678   1.000000
     95        -39.702665   1.000000
     96        -39.700403   1.000000
     97        -18.405715   1.000000
     98        -18.343773   1.000000
     99        -18.321177   1.000000
    100        -18.320798   1.000000
    101        -18.319301   1.000000
    102        -18.317823   1.000000
    103        -18.315382   1.000000
    104        -18.312532   1.000000
    105        -18.276684   1.000000
    106        -18.274308   1.000000
    107        -18.263334   1.000000
    108        -18.237751   1.000000
    109        -18.235940   1.000000
    110        -18.235437   1.000000
    111        -18.234207   1.000000
    112        -18.231824   1.000000
    113        -18.230784   1.000000
    114        -18.226791   1.000000
    115        -18.226413   1.000000
    116        -18.223350   1.000000
    117        -18.222329   1.000000
    118        -18.220480   1.000000
    119        -18.217518   1.000000
    120        -18.211128   1.000000
    121        -18.209408   1.000000
    122        -18.207986   1.000000
    123        -18.205398   1.000000
    124        -18.204451   1.000000
    125        -18.204112   1.000000
    126        -18.203248   1.000000
    127        -18.200975   1.000000
    128        -18.200435   1.000000
    129        -18.199684   1.000000
    130        -18.198772   1.000000
    131        -18.197564   1.000000
    132        -18.187329   1.000000
    133        -18.181902   1.000000
    134        -18.180237   1.000000
    135        -18.178543   1.000000
    136        -18.177251   1.000000
    137        -18.173838   1.000000
    138        -18.170219   1.000000
    139        -18.169542   1.000000
    140        -18.168742   1.000000
    141        -18.166959   1.000000
    142        -18.166443   1.000000
    143        -18.165508   1.000000
    144        -18.164737   1.000000
    145        -18.163084   1.000000
    146        -18.162955   1.000000
    147        -18.162780   1.000000
    148        -18.158002   1.000000
    149        -18.157446   1.000000
    150        -18.155519   1.000000
    151        -18.154449   1.000000
    152        -18.150911   1.000000
    153        -18.140504   1.000000
    154        -18.138005   1.000000
    155        -18.134739   1.000000
    156        -18.131886   1.000000
    157        -18.126058   1.000000
    158        -18.125898   1.000000
    159        -18.124774   1.000000
    160        -18.123432   1.000000
    161        -18.074276   1.000000
    162        -18.072379   1.000000
    163        -18.068926   1.000000
    164        -18.068338   1.000000
    165        -18.067205   1.000000
    166        -18.066070   1.000000
    167        -18.057678   1.000000
    168        -18.054692   1.000000
    169        -18.053932   1.000000
    170        -18.039073   1.000000
    171        -18.021316   1.000000
    172        -18.020285   1.000000
    173        -18.019538   1.000000
    174        -18.013880   1.000000
    175        -18.012791   1.000000
    176        -18.008717   1.000000
    177        -18.007034   1.000000
    178        -18.003550   1.000000
    179        -18.003532   1.000000
    180        -18.001900   1.000000
    181        -17.998803   1.000000
    182        -17.998608   1.000000
    183        -17.994737   1.000000
    184        -17.988840   1.000000
    185        -17.988653   1.000000
    186        -17.976031   1.000000
    187        -17.969492   1.000000
    188        -17.954603   1.000000
    189        -17.951744   1.000000
    190        -17.950016   1.000000
    191        -17.948704   1.000000
    192        -17.930649   1.000000
    193        -17.924106   1.000000
    194        -17.903682   1.000000
    195        -17.899265   1.000000
    196        -17.894498   1.000000
    197        -17.891487   1.000000
    198        -17.890860   1.000000
    199        -17.890357   1.000000
    200        -17.884137   1.000000
    201        -17.882395   1.000000
    202        -17.875128   1.000000
    203        -17.870218   1.000000
    204        -17.869705   1.000000
    205        -17.855969   1.000000
    206        -17.854093   1.000000
    207        -17.843487   1.000000
    208        -17.841926   1.000000
    209        -17.835472   1.000000
    210        -17.834241   1.000000
    211        -17.831751   1.000000
    212        -17.831579   1.000000
    213        -17.830738   1.000000
    214        -17.827232   1.000000
    215        -17.826722   1.000000
    216        -17.826557   1.000000
    217        -17.818826   1.000000
    218        -17.817287   1.000000
    219        -17.816084   1.000000
    220        -17.813524   1.000000
    221        -17.807438   1.000000
    222        -17.804445   1.000000
    223        -17.800316   1.000000
    224        -17.797585   1.000000
    225        -17.793251   1.000000
    226        -17.792140   1.000000
    227        -17.786782   1.000000
    228        -17.785305   1.000000
    229        -17.784726   1.000000
    230        -17.784613   1.000000
    231        -17.783638   1.000000
    232        -17.778839   1.000000
    233        -17.778422   1.000000
    234        -17.775708   1.000000
    235        -17.775464   1.000000
    236        -17.771721   1.000000
    237        -17.771272   1.000000
    238        -17.769538   1.000000
    239        -17.769431   1.000000
    240        -17.767285   1.000000
    241        -17.766762   1.000000
    242        -17.766342   1.000000
    243        -17.765448   1.000000
    244        -17.764496   1.000000
    245        -17.760396   1.000000
    246        -17.753349   1.000000
    247        -17.742330   1.000000
    248        -17.737396   1.000000
    249        -17.733752   1.000000
    250        -17.732877   1.000000
    251        -17.732623   1.000000
    252        -17.728518   1.000000
    253        -17.727192   1.000000
    254        -17.726420   1.000000
    255        -17.724801   1.000000
    256        -17.722419   1.000000
    257        -17.707722   1.000000
    258        -17.704583   1.000000
    259        -17.703384   1.000000
    260        -17.702945   1.000000
    261        -17.701608   1.000000
    262        -17.700894   1.000000
    263        -17.698919   1.000000
    264        -17.697464   1.000000
    265        -17.694871   1.000000
    266        -17.690780   1.000000
    267        -17.690292   1.000000
    268        -17.686733   1.000000
    269        -17.683721   1.000000
    270        -17.682511   1.000000
    271        -17.679094   1.000000
    272        -17.674214   1.000000
    273        -17.673105   1.000000
    274        -17.670395   1.000000
    275        -17.669255   1.000000
    276        -17.668343   1.000000
    277        -17.667602   1.000000
    278        -17.666761   1.000000
    279        -17.661271   1.000000
    280        -17.660863   1.000000
    281        -17.658053   1.000000
    282        -17.657697   1.000000
    283        -17.656291   1.000000
    284        -17.655436   1.000000
    285        -17.653883   1.000000
    286        -17.652739   1.000000
    287        -17.652650   1.000000
    288        -17.651464   1.000000
    289        -17.650083   1.000000
    290        -17.647656   1.000000
    291        -17.646031   1.000000
    292        -17.645781   1.000000
    293        -17.645413   1.000000
    294        -17.644899   1.000000
    295        -17.644347   1.000000
    296        -17.643556   1.000000
    297        -17.641503   1.000000
    298        -17.641222   1.000000
    299        -17.636463   1.000000
    300        -17.629983   1.000000
    301        -17.629107   1.000000
    302        -17.626475   1.000000
    303        -17.624257   1.000000
    304        -17.622480   1.000000
    305        -17.618407   1.000000
    306        -17.618137   1.000000
    307        -17.617179   1.000000
    308        -17.616377   1.000000
    309        -17.613040   1.000000
    310        -17.612755   1.000000
    311        -17.611804   1.000000
    312        -17.609410   1.000000
    313        -17.597244   1.000000
    314        -17.593613   1.000000
    315        -17.593298   1.000000
    316        -17.590838   1.000000
    317        -17.584851   1.000000
    318        -17.584579   1.000000
    319        -17.584484   1.000000
    320        -17.584258   1.000000
    321        -17.582565   1.000000
    322        -17.580470   1.000000
    323        -17.580084   1.000000
    324        -17.579900   1.000000
    325        -17.578982   1.000000
    326        -17.578836   1.000000
    327        -17.577035   1.000000
    328        -17.576790   1.000000
    329        -17.575149   1.000000
    330        -17.573917   1.000000
    331        -17.573563   1.000000
    332        -17.570037   1.000000
    333        -17.570006   1.000000
    334        -17.569597   1.000000
    335        -17.569355   1.000000
    336        -17.563888   1.000000
    337        -17.562081   1.000000
    338        -17.560904   1.000000
    339        -17.558313   1.000000
    340        -17.558044   1.000000
    341        -17.554917   1.000000
    342        -17.551282   1.000000
    343        -17.548847   1.000000
    344        -17.548297   1.000000
    345        -17.546333   1.000000
    346        -17.545931   1.000000
    347        -17.544247   1.000000
    348        -17.542904   1.000000
    349        -17.541593   1.000000
    350        -17.540776   1.000000
    351        -17.539227   1.000000
    352        -17.537734   1.000000
    353        -17.536219   1.000000
    354        -17.536027   1.000000
    355        -17.535199   1.000000
    356        -17.533514   1.000000
    357        -17.533338   1.000000
    358        -17.532740   1.000000
    359        -17.532517   1.000000
    360        -17.530380   1.000000
    361        -17.524902   1.000000
    362        -17.520915   1.000000
    363        -17.514643   1.000000
    364        -17.513560   1.000000
    365        -17.511676   1.000000
    366        -17.510053   1.000000
    367        -17.497067   1.000000
    368        -17.496609   1.000000
    369        -17.494128   1.000000
    370        -17.493735   1.000000
    371        -17.491433   1.000000
    372        -17.489459   1.000000
    373        -17.486617   1.000000
    374        -17.474108   1.000000
    375        -17.473255   1.000000
    376        -17.469015   1.000000
    377        -17.467242   1.000000
    378        -17.462402   1.000000
    379        -17.458981   1.000000
    380        -17.455055   1.000000
    381        -17.446150   1.000000
    382        -17.444169   1.000000
    383        -17.433245   1.000000
    384        -17.420780   1.000000
    385          2.470960   1.000000
    386          3.484250   1.000000
    387          4.222992   1.000000
    388          4.252016   1.000000
    389          4.343829   1.000000
    390          4.576026   1.000000
    391          4.645174   1.000000
    392          4.945179   1.000000
    393          4.985528   1.000000
    394          5.201268   1.000000
    395          5.213893   1.000000
    396          5.232038   1.000000
    397          5.233420   1.000000
    398          5.235208   1.000000
    399          5.333632   1.000000
    400          5.461823   1.000000
    401          5.652224   1.000000
    402          5.653385   1.000000
    403          5.654720   1.000000
    404          5.687506   1.000000
    405          5.743230   1.000000
    406          5.749559   1.000000
    407          5.764083   1.000000
    408          5.840798   1.000000
    409          5.914239   1.000000
    410          5.929342   1.000000
    411          5.974824   1.000000
    412          5.980313   1.000000
    413          5.985445   1.000000
    414          5.998570   1.000000
    415          6.069839   1.000000
    416          6.269241   1.000000
    417          6.307362   1.000000
    418          6.328753   1.000000
    419          6.393077   1.000000
    420          6.394796   1.000000
    421          6.395205   1.000000
    422          6.406376   1.000000
    423          6.435048   1.000000
    424          6.439166   1.000000
    425          6.441306   1.000000
    426          6.458107   1.000000
    427          6.462614   1.000000
    428          6.479148   1.000000
    429          6.495798   1.000000
    430          6.503463   1.000000
    431          6.507173   1.000000
    432          6.509551   1.000000
    433          6.516956   1.000000
    434          6.517138   1.000000
    435          6.520947   1.000000
    436          6.530626   1.000000
    437          6.548244   1.000000
    438          6.558426   1.000000
    439          6.600445   1.000000
    440          6.673820   1.000000
    441          6.675002   1.000000
    442          6.677187   1.000000
    443          6.681244   1.000000
    444          6.698613   1.000000
    445          6.702893   1.000000
    446          6.743877   1.000000
    447          6.774164   1.000000
    448          6.792978   1.000000
    449          6.796791   1.000000
    450          6.799490   1.000000
    451          6.805999   1.000000
    452          6.836450   1.000000
    453          6.843439   1.000000
    454          6.850261   1.000000
    455          6.862315   1.000000
    456          6.865303   1.000000
    457          6.866211   1.000000
    458          6.877414   1.000000
    459          6.890611   1.000000
    460          6.895600   1.000000
    461          6.902398   1.000000
    462          6.902984   1.000000
    463          6.904006   1.000000
    464          6.905512   1.000000
    465          6.908167   1.000000
    466          6.917517   1.000000
    467          6.920545   1.000000
    468          6.984119   1.000000
    469          6.989682   1.000000
    470          6.994983   1.000000
    471          6.995574   1.000000
    472          7.000021   1.000000
    473          7.004267   1.000000
    474          7.007913   1.000000
    475          7.026987   1.000000
    476          7.114903   1.000000
    477          7.196118   1.000000
    478          7.201072   1.000000
    479          7.204387   1.000000
    480          7.206427   1.000000
    481          7.207294   1.000000
    482          7.213732   1.000000
    483          7.222194   1.000000
    484          7.228722   1.000000
    485          7.231681   1.000000
    486          7.320530   1.000000
    487          7.405761   1.000000
    488          7.429757   1.000000
    489          7.484225   1.000000
    490          7.501917   1.000000
    491          7.524783   1.000000
    492          7.633776   1.000000
    493          7.646647   1.000000
    494          7.647805   1.000000
    495          7.660447   1.000000
    496          7.668356   1.000000
    497          7.671816   1.000000
    498          7.681816   1.000000
    499          7.688324   1.000000
    500          7.689370   1.000000
    501          7.689937   1.000000
    502          7.691838   1.000000
    503          7.700169   1.000000
    504          7.707941   1.000000
    505          7.710935   1.000000
    506          7.714839   1.000000
    507          7.748870   1.000000
    508          7.750863   1.000000
    509          7.760643   1.000000
    510          7.789309   1.000000
    511          7.794441   1.000000
    512          7.795188   1.000000
    513          7.799638   1.000000
    514          7.834772   1.000000
    515          7.835768   1.000000
    516          7.837526   1.000000
    517          7.844860   1.000000
    518          7.847839   1.000000
    519          7.851921   1.000000
    520          7.852299   1.000000
    521          7.852810   1.000000
    522          7.855046   1.000000
    523          7.879460   1.000000
    524          7.882968   1.000000
    525          7.993625   1.000000
    526          8.042723   1.000000
    527          8.052109   1.000000
    528          8.055357   1.000000
    529          8.070976   1.000000
    530          8.085622   1.000000
    531          8.089679   1.000000
    532          8.092528   1.000000
    533          8.093304   1.000000
    534          8.096069   1.000000
    535          8.184605   1.000000
    536          8.203548   1.000001
    537          8.213563   1.000001
    538          8.215998   1.000001
    539          8.248554   1.000003
    540          8.294102   1.000014
    541          8.294517   1.000014
    542          8.301101   1.000018
    543          8.302232   1.000018
    544          8.320705   1.000032
    545          8.323066   1.000034
    546          8.328239   1.000040
    547          8.376409   1.000156
    548          8.402099   1.000307
    549          8.414295   1.000417
    550          8.428368   1.000588
    551          8.440672   1.000786
    552          8.445625   1.000882
    553          8.447179   1.000914
    554          8.451281   1.001004
    555          8.455807   1.001112
    556          8.481916   1.001958
    557          8.493187   1.002469
    558          8.493807   1.002501
    559          8.502271   1.002960
    560          8.611192   1.017169
    561          8.618991   1.018847
    562          8.640833   1.023809
    563          8.644042   1.024552
    564          8.648656   1.025617
    565          8.650844   1.026118
    566          8.651719   1.026318
    567          8.655659   1.027212
    568          8.663398   1.028918
    569          8.779012   1.010174
    570          8.806515   0.977781
    571          8.820097   0.955478
    572          8.821144   0.953574
    573          8.822746   0.950609
    574          8.840714   0.912955
    575          8.856366   0.873527
    576          8.873481   0.823492
    577          8.901999   0.725570
    578          8.903408   0.720318
    579          8.904105   0.717710
    580          8.910202   0.694533
    581          9.064439   0.111757
    582          9.067299   0.104492
    583          9.076332   0.082899
    584          9.080472   0.073693
    585          9.082906   0.068482
    586          9.091995   0.050335
    587          9.095043   0.044709
    588          9.095440   0.043992
    589          9.096729   0.041694
    590          9.106403   0.025726
    591          9.119494   0.007596
    592          9.123181   0.003179
    593          9.125458   0.000597
    594          9.130809  -0.005046
    595          9.140629  -0.013915
    596          9.140971  -0.014191
    597          9.148624  -0.019806
    598          9.165099  -0.028585
    599          9.165585  -0.028781
    600          9.174369  -0.031777
    601          9.176945  -0.032467
    602          9.186278  -0.034318
    603          9.194415  -0.035187
    604          9.199150  -0.035412
    605          9.265939  -0.025765
    606          9.267419  -0.025425
    607          9.283814  -0.021640
    608          9.290398  -0.020147
    609          9.295578  -0.018995
    610          9.298614  -0.018332
    611          9.300348  -0.017957
    612          9.313258  -0.015284
    613          9.359846  -0.007711
    614          9.372542  -0.006236
    615          9.372998  -0.006187
    616          9.374669  -0.006012
    617          9.451249  -0.001334
    618          9.453557  -0.001267
    619          9.493906  -0.000496
    620          9.509494  -0.000336
    621          9.510225  -0.000330
    622          9.516302  -0.000283
    623          9.526696  -0.000216
    624          9.541680  -0.000145
    625          9.590574  -0.000036
    626          9.610976  -0.000019
    627          9.625205  -0.000012
    628          9.629628  -0.000011
    629          9.635814  -0.000009
    630          9.637151  -0.000009
    631          9.674168  -0.000002
    632          9.688204  -0.000002
    633          9.692642  -0.000001
    634          9.695627  -0.000001
    635          9.701689  -0.000001
    636          9.702502  -0.000001
    637          9.713555  -0.000001
    638          9.728335  -0.000000
    639          9.748603  -0.000000
    640          9.755239  -0.000000
    641          9.769468  -0.000000
    642          9.769810  -0.000000
    643          9.774868  -0.000000
    644          9.777799  -0.000000
    645          9.789769  -0.000000
    646          9.794580  -0.000000
    647          9.801776  -0.000000
    648          9.811553  -0.000000
    649          9.813157  -0.000000
    650          9.817442  -0.000000
    651          9.825201  -0.000000
    652          9.852260  -0.000000
    653          9.872463  -0.000000
    654          9.889468  -0.000000
    655          9.897990  -0.000000
    656          9.909497  -0.000000
    657          9.910615  -0.000000
    658          9.911062  -0.000000
    659          9.948797  -0.000000
    660          9.952177  -0.000000
    661          9.979252  -0.000000
    662          9.983120  -0.000000
    663         10.006360  -0.000000
    664         10.009109  -0.000000
    665         10.028190  -0.000000
    666         10.029131  -0.000000
    667         10.033744  -0.000000
    668         10.036114  -0.000000
    669         10.042652  -0.000000
    670         10.070891  -0.000000
    671         10.078457  -0.000000
    672         10.144141  -0.000000
    673         10.161382  -0.000000
    674         10.175523  -0.000000
    675         10.176004  -0.000000
    676         10.176439  -0.000000
    677         10.188011  -0.000000
    678         10.196950  -0.000000
    679         10.243840  -0.000000
    680         10.250114  -0.000000
    681         10.260154  -0.000000
    682         10.272416  -0.000000
    683         10.277407  -0.000000
    684         10.283692  -0.000000
    685         10.291942  -0.000000
    686         10.323832  -0.000000
    687         10.326797  -0.000000
    688         10.337813  -0.000000
    689         10.338953  -0.000000
    690         10.364282  -0.000000
    691         10.369941  -0.000000
 
  0.5000000E+00 -0.1797743E-16  0.0000000E+00  0.2083333E-01
      1        -39.913950   1.000000
      2        -39.890272   1.000000
      3        -39.884842   1.000000
      4        -39.868407   1.000000
      5        -39.859551   1.000000
      6        -39.855331   1.000000
      7        -39.852715   1.000000
      8        -39.850493   1.000000
      9        -39.843943   1.000000
     10        -39.838754   1.000000
     11        -39.836180   1.000000
     12        -39.829907   1.000000
     13        -39.824473   1.000000
     14        -39.820966   1.000000
     15        -39.815235   1.000000
     16        -39.814145   1.000000
     17        -39.807752   1.000000
     18        -39.806703   1.000000
     19        -39.802206   1.000000
     20        -39.798067   1.000000
     21        -39.795382   1.000000
     22        -39.791695   1.000000
     23        -39.787493   1.000000
     24        -39.787188   1.000000
     25        -39.787075   1.000000
     26        -39.785168   1.000000
     27        -39.785157   1.000000
     28        -39.781181   1.000000
     29        -39.780872   1.000000
     30        -39.780521   1.000000
     31        -39.780231   1.000000
     32        -39.777720   1.000000
     33        -39.774294   1.000000
     34        -39.774159   1.000000
     35        -39.773347   1.000000
     36        -39.772318   1.000000
     37        -39.768502   1.000000
     38        -39.767739   1.000000
     39        -39.767457   1.000000
     40        -39.765659   1.000000
     41        -39.764418   1.000000
     42        -39.763473   1.000000
     43        -39.761363   1.000000
     44        -39.760516   1.000000
     45        -39.760500   1.000000
     46        -39.759263   1.000000
     47        -39.757534   1.000000
     48        -39.755603   1.000000
     49        -39.755134   1.000000
     50        -39.752898   1.000000
     51        -39.752682   1.000000
     52        -39.750380   1.000000
     53        -39.748182   1.000000
     54        -39.747731   1.000000
     55        -39.745671   1.000000
     56        -39.744569   1.000000
     57        -39.744192   1.000000
     58        -39.743725   1.000000
     59        -39.743585   1.000000
     60        -39.742909   1.000000
     61        -39.742373   1.000000
     62        -39.742039   1.000000
     63        -39.741564   1.000000
     64        -39.739198   1.000000
     65        -39.738169   1.000000
     66        -39.738049   1.000000
     67        -39.736683   1.000000
     68        -39.736641   1.000000
     69        -39.736329   1.000000
     70        -39.734127   1.000000
     71        -39.734071   1.000000
     72        -39.732748   1.000000
     73        -39.732265   1.000000
     74        -39.730670   1.000000
     75        -39.730256   1.000000
     76        -39.730152   1.000000
     77        -39.729299   1.000000
     78        -39.729139   1.000000
     79        -39.728786   1.000000
     80        -39.728110   1.000000
     81        -39.727033   1.000000
     82        -39.725974   1.000000
     83        -39.724918   1.000000
     84        -39.724137   1.000000
     85        -39.723354   1.000000
     86        -39.721226   1.000000
     87        -39.721203   1.000000
     88        -39.720783   1.000000
     89        -39.718966   1.000000
     90        -39.717873   1.000000
     91        -39.712633   1.000000
     92        -39.711772   1.000000
     93        -39.705822   1.000000
     94        -39.705669   1.000000
     95        -39.702990   1.000000
     96        -39.700587   1.000000
     97        -18.375085   1.000000
     98        -18.367602   1.000000
     99        -18.320871   1.000000
    100        -18.290300   1.000000
    101        -18.289990   1.000000
    102        -18.284118   1.000000
    103        -18.282096   1.000000
    104        -18.282071   1.000000
    105        -18.281510   1.000000
    106        -18.281215   1.000000
    107        -18.280079   1.000000
    108        -18.278648   1.000000
    109        -18.271644   1.000000
    110        -18.267465   1.000000
    111        -18.263512   1.000000
    112        -18.259914   1.000000
    113        -18.228333   1.000000
    114        -18.211495   1.000000
    115        -18.211130   1.000000
    116        -18.209239   1.000000
    117        -18.208235   1.000000
    118        -18.203886   1.000000
    119        -18.201451   1.000000
    120        -18.199995   1.000000
    121        -18.199856   1.000000
    122        -18.198245   1.000000
    123        -18.196945   1.000000
    124        -18.196072   1.000000
    125        -18.195778   1.000000
    126        -18.194137   1.000000
    127        -18.194104   1.000000
    128        -18.192926   1.000000
    129        -18.191956   1.000000
    130        -18.191859   1.000000
    131        -18.191261   1.000000
    132        -18.191184   1.000000
    133        -18.190342   1.000000
    134        -18.189768   1.000000
    135        -18.188496   1.000000
    136        -18.185929   1.000000
    137        -18.175961   1.000000
    138        -18.168311   1.000000
    139        -18.166352   1.000000
    140        -18.164385   1.000000
    141        -18.164235   1.000000
    142        -18.161194   1.000000
    143        -18.158326   1.000000
    144        -18.157138   1.000000
    145        -18.156109   1.000000
    146        -18.155602   1.000000
    147        -18.153369   1.000000
    148        -18.153304   1.000000
    149        -18.151995   1.000000
    150        -18.150903   1.000000
    151        -18.150615   1.000000
    152        -18.148565   1.000000
    153        -18.147812   1.000000
    154        -18.144367   1.000000
    155        -18.142150   1.000000
    156        -18.141801   1.000000
    157        -18.140083   1.000000
    158        -18.139847   1.000000
    159        -18.138051   1.000000
    160        -18.137023   1.000000
    161        -18.089169   1.000000
    162        -18.083197   1.000000
    163        -18.079252   1.000000
    164        -18.073119   1.000000
    165        -18.072592   1.000000
    166        -18.069459   1.000000
    167        -18.069215   1.000000
    168        -18.068272   1.000000
    169        -18.067492   1.000000
    170        -18.066954   1.000000
    171        -18.046123   1.000000
    172        -18.041650   1.000000
    173        -18.033098   1.000000
    174        -18.033061   1.000000
    175        -18.031936   1.000000
    176        -18.028027   1.000000
    177        -18.024330   1.000000
    178        -18.021357   1.000000
    179        -18.004307   1.000000
    180        -17.996171   1.000000
    181        -17.994603   1.000000
    182        -17.989284   1.000000
    183        -17.989156   1.000000
    184        -17.988383   1.000000
    185        -17.986843   1.000000
    186        -17.982842   1.000000
    187        -17.982055   1.000000
    188        -17.981126   1.000000
    189        -17.979788   1.000000
    190        -17.977380   1.000000
    191        -17.941035   1.000000
    192        -17.940018   1.000000
    193        -17.934048   1.000000
    194        -17.933206   1.000000
    195        -17.929152   1.000000
    196        -17.928749   1.000000
    197        -17.897715   1.000000
    198        -17.887440   1.000000
    199        -17.882399   1.000000
    200        -17.873927   1.000000
    201        -17.873283   1.000000
    202        -17.871863   1.000000
    203        -17.862250   1.000000
    204        -17.853408   1.000000
    205        -17.851798   1.000000
    206        -17.848371   1.000000
    207        -17.845770   1.000000
    208        -17.837127   1.000000
    209        -17.836634   1.000000
    210        -17.834963   1.000000
    211        -17.834786   1.000000
    212        -17.834573   1.000000
    213        -17.830154   1.000000
    214        -17.829508   1.000000
    215        -17.818924   1.000000
    216        -17.814775   1.000000
    217        -17.811469   1.000000
    218        -17.806574   1.000000
    219        -17.803184   1.000000
    220        -17.802069   1.000000
    221        -17.801399   1.000000
    222        -17.798822   1.000000
    223        -17.797322   1.000000
    224        -17.795966   1.000000
    225        -17.793998   1.000000
    226        -17.792931   1.000000
    227        -17.792241   1.000000
    228        -17.792129   1.000000
    229        -17.790995   1.000000
    230        -17.790275   1.000000
    231        -17.788710   1.000000
    232        -17.788222   1.000000
    233        -17.769489   1.000000
    234        -17.760907   1.000000
    235        -17.758769   1.000000
    236        -17.754805   1.000000
    237        -17.746556   1.000000
    238        -17.745352   1.000000
    239        -17.745296   1.000000
    240        -17.744683   1.000000
    241        -17.741660   1.000000
    242        -17.741525   1.000000
    243        -17.740851   1.000000
    244        -17.733696   1.000000
    245        -17.731562   1.000000
    246        -17.731381   1.000000
    247        -17.727707   1.000000
    248        -17.723692   1.000000
    249        -17.721328   1.000000
    250        -17.720087   1.000000
    251        -17.719911   1.000000
    252        -17.717141   1.000000
    253        -17.716220   1.000000
    254        -17.713987   1.000000
    255        -17.713798   1.000000
    256        -17.713172   1.000000
    257        -17.712855   1.000000
    258        -17.712399   1.000000
    259        -17.712292   1.000000
    260        -17.711873   1.000000
    261        -17.709325   1.000000
    262        -17.709254   1.000000
    263        -17.708455   1.000000
    264        -17.707302   1.000000
    265        -17.706817   1.000000
    266        -17.705287   1.000000
    267        -17.705281   1.000000
    268        -17.698881   1.000000
    269        -17.688066   1.000000
    270        -17.685960   1.000000
    271        -17.683047   1.000000
    272        -17.679878   1.000000
    273        -17.678624   1.000000
    274        -17.677832   1.000000
    275        -17.673543   1.000000
    276        -17.671029   1.000000
    277        -17.669650   1.000000
    278        -17.669428   1.000000
    279        -17.669084   1.000000
    280        -17.667960   1.000000
    281        -17.667295   1.000000
    282        -17.666238   1.000000
    283        -17.665581   1.000000
    284        -17.665008   1.000000
    285        -17.664230   1.000000
    286        -17.655568   1.000000
    287        -17.652609   1.000000
    288        -17.650284   1.000000
    289        -17.650242   1.000000
    290        -17.649850   1.000000
    291        -17.635023   1.000000
    292        -17.634027   1.000000
    293        -17.628489   1.000000
    294        -17.627424   1.000000
    295        -17.619305   1.000000
    296        -17.618691   1.000000
    297        -17.617985   1.000000
    298        -17.615692   1.000000
    299        -17.612169   1.000000
    300        -17.611682   1.000000
    301        -17.609539   1.000000
    302        -17.606557   1.000000
    303        -17.605929   1.000000
    304        -17.604937   1.000000
    305        -17.604712   1.000000
    306        -17.603811   1.000000
    307        -17.603584   1.000000
    308        -17.602998   1.000000
    309        -17.602408   1.000000
    310        -17.600850   1.000000
    311        -17.600568   1.000000
    312        -17.600053   1.000000
    313        -17.599380   1.000000
    314        -17.598646   1.000000
    315        -17.598210   1.000000
    316        -17.597140   1.000000
    317        -17.595328   1.000000
    318        -17.593521   1.000000
    319        -17.593377   1.000000
    320        -17.592191   1.000000
    321        -17.586967   1.000000
    322        -17.586558   1.000000
    323        -17.583420   1.000000
    324        -17.582806   1.000000
    325        -17.580988   1.000000
    326        -17.576608   1.000000
    327        -17.576449   1.000000
    328        -17.576166   1.000000
    329        -17.574401   1.000000
    330        -17.572768   1.000000
    331        -17.572262   1.000000
    332        -17.570732   1.000000
    333        -17.570066   1.000000
    334        -17.569571   1.000000
    335        -17.568352   1.000000
    336        -17.568088   1.000000
    337        -17.567534   1.000000
    338        -17.566269   1.000000
    339        -17.564469   1.000000
    340        -17.562160   1.000000
    341        -17.557733   1.000000
    342        -17.554052   1.000000
    343        -17.553608   1.000000
    344        -17.550581   1.000000
    345        -17.550043   1.000000
    346        -17.549786   1.000000
    347        -17.548740   1.000000
    348        -17.548559   1.000000
    349        -17.548281   1.000000
    350        -17.547140   1.000000
    351        -17.546733   1.000000
    352        -17.546516   1.000000
    353        -17.545814   1.000000
    354        -17.543202   1.000000
    355        -17.540971   1.000000
    356        -17.540634   1.000000
    357        -17.530315   1.000000
    358        -17.528751   1.000000
    359        -17.526400   1.000000
    360        -17.525085   1.000000
    361        -17.525072   1.000000
    362        -17.523309   1.000000
    363        -17.522493   1.000000
    364        -17.520876   1.000000
    365        -17.515311   1.000000
    366        -17.515032   1.000000
    367        -17.509342   1.000000
    368        -17.505877   1.000000
    369        -17.505004   1.000000
    370        -17.504803   1.000000
    371        -17.503003   1.000000
    372        -17.494064   1.000000
    373        -17.491352   1.000000
    374        -17.486878   1.000000
    375        -17.478859   1.000000
    376        -17.476887   1.000000
    377        -17.473826   1.000000
    378        -17.471724   1.000000
    379        -17.470900   1.000000
    380        -17.464261   1.000000
    381        -17.451313   1.000000
    382        -17.445253   1.000000
    383        -17.433713   1.000000
    384        -17.428602   1.000000
    385          2.480641   1.000000
    386          3.723148   1.000000
    387          3.827535   1.000000
    388          4.495890   1.000000
    389          4.509058   1.000000
    390          4.531601   1.000000
    391          4.533952   1.000000
    392          4.534913   1.000000
    393          4.720367   1.000000
    394          5.178735   1.000000
    395          5.180495   1.000000
    396          5.182376   1.000000
    397          5.271698   1.000000
    398          5.713771   1.000000
    399          5.715649   1.000000
    400          5.718363   1.000000
    401          5.760900   1.000000
    402          5.896232   1.000000
    403          5.900560   1.000000
    404          5.901619   1.000000
    405          5.908176   1.000000
    406          5.946972   1.000000
    407          5.957837   1.000000
    408          5.994711   1.000000
    409          5.995105   1.000000
    410          5.998348   1.000000
    411          5.999382   1.000000
    412          6.000399   1.000000
    413          6.001584   1.000000
    414          6.004536   1.000000
    415          6.028092   1.000000
    416          6.052239   1.000000
    417          6.053183   1.000000
    418          6.055820   1.000000
    419          6.147958   1.000000
    420          6.178063   1.000000
    421          6.188774   1.000000
    422          6.191213   1.000000
    423          6.191858   1.000000
    424          6.192373   1.000000
    425          6.193120   1.000000
    426          6.200400   1.000000
    427          6.247721   1.000000
    428          6.304537   1.000000
    429          6.387547   1.000000
    430          6.564160   1.000000
    431          6.565674   1.000000
    432          6.571517   1.000000
    433          6.574934   1.000000
    434          6.582383   1.000000
    435          6.584526   1.000000
    436          6.584980   1.000000
    437          6.622321   1.000000
    438          6.666692   1.000000
    439          6.666997   1.000000
    440          6.672702   1.000000
    441          6.699839   1.000000
    442          6.707020   1.000000
    443          6.738416   1.000000
    444          6.759535   1.000000
    445          6.762713   1.000000
    446          6.766884   1.000000
    447          6.766927   1.000000
    448          6.770601   1.000000
    449          6.772400   1.000000
    450          6.773471   1.000000
    451          6.793151   1.000000
    452          6.827581   1.000000
    453          6.831799   1.000000
    454          6.833214   1.000000
    455          6.852959   1.000000
    456          6.859041   1.000000
    457          6.860650   1.000000
    458          6.865214   1.000000
    459          6.869595   1.000000
    460          6.871576   1.000000
    461          6.873642   1.000000
    462          6.880192   1.000000
    463          6.881011   1.000000
    464          6.881927   1.000000
    465          6.883361   1.000000
    466          6.888923   1.000000
    467          6.891611   1.000000
    468          6.891902   1.000000
    469          6.901756   1.000000
    470          6.906989   1.000000
    471          6.907680   1.000000
    472          6.917315   1.000000
    473          6.920409   1.000000
    474          6.926003   1.000000
    475          7.075079   1.000000
    476          7.132104   1.000000
    477          7.140349   1.000000
    478          7.194749   1.000000
    479          7.203403   1.000000
    480          7.203835   1.000000
    481          7.266315   1.000000
    482          7.329578   1.000000
    483          7.374094   1.000000
    484          7.418743   1.000000
    485          7.424999   1.000000
    486          7.429847   1.000000
    487          7.430532   1.000000
    488          7.433470   1.000000
    489          7.456689   1.000000
    490          7.464236   1.000000
    491          7.466489   1.000000
    492          7.478287   1.000000
    493          7.478451   1.000000
    494          7.601557   1.000000
    495          7.614169   1.000000
    496          7.616113   1.000000
    497          7.631650   1.000000
    498          7.664443   1.000000
    499          7.669098   1.000000
    500          7.675716   1.000000
    501          7.675742   1.000000
    502          7.680803   1.000000
    503          7.681632   1.000000
    504          7.686013   1.000000
    505          7.693321   1.000000
    506          7.704751   1.000000
    507          7.706878   1.000000
    508          7.707199   1.000000
    509          7.708313   1.000000
    510          7.711504   1.000000
    511          7.714891   1.000000
    512          7.718504   1.000000
    513          7.793681   1.000000
    514          7.798804   1.000000
    515          7.805937   1.000000
    516          7.811345   1.000000
    517          7.868574   1.000000
    518          7.881975   1.000000
    519          7.885255   1.000000
    520          7.886033   1.000000
    521          7.932018   1.000000
    522          7.940173   1.000000
    523          7.946234   1.000000
    524          7.948297   1.000000
    525          7.989788   1.000000
    526          8.008856   1.000000
    527          8.038679   1.000000
    528          8.075688   1.000000
    529          8.081824   1.000000
    530          8.086818   1.000000
    531          8.142696   1.000000
    532          8.246588   1.000003
    533          8.246907   1.000003
    534          8.252203   1.000004
    535          8.267491   1.000006
    536          8.286732   1.000011
    537          8.289758   1.000012
    538          8.290364   1.000013
    539          8.293752   1.000014
    540          8.297690   1.000016
    541          8.301708   1.000018
    542          8.303410   1.000019
    543          8.345445   1.000066
    544          8.360412   1.000101
    545          8.380209   1.000173
    546          8.393197   1.000244
    547          8.394100   1.000250
    548          8.396139   1.000263
    549          8.397905   1.000275
    550          8.398689   1.000281
    551          8.401747   1.000304
    552          8.405934   1.000338
    553          8.408902   1.000364
    554          8.410587   1.000380
    555          8.411964   1.000393
    556          8.413808   1.000412
    557          8.415172   1.000426
    558          8.417776   1.000454
    559          8.449869   1.000972
    560          8.459670   1.001212
    561          8.462769   1.001298
    562          8.471828   1.001581
    563          8.492147   1.002418
    564          8.512895   1.003636
    565          8.616279   1.018256
    566          8.634142   1.022263
    567          8.637391   1.023013
    568          8.646420   1.025101
    569          8.833204   0.929679
    570          8.871973   0.828182
    571          8.881082   0.799072
    572          8.884008   0.789329
    573          9.030923   0.211724
    574          9.052325   0.144792
    575          9.053410   0.141686
    576          9.055220   0.136568
    577          9.058569   0.127313
    578          9.059007   0.126122
    579          9.066079   0.107568
    580          9.069747   0.098438
    581          9.078507   0.078008
    582          9.084881   0.064362
    583          9.114038   0.014680
    584          9.115990   0.012070
    585          9.123025   0.003359
    586          9.129060  -0.003266
    587          9.131480  -0.005712
    588          9.135821  -0.009807
    589          9.137034  -0.010885
    590          9.140038  -0.013434
    591          9.140356  -0.013694
    592          9.148098  -0.019454
    593          9.149343  -0.020281
    594          9.149774  -0.020561
    595          9.153034  -0.022580
    596          9.153710  -0.022977
    597          9.156577  -0.024577
    598          9.158301  -0.025476
    599          9.159386  -0.026018
    600          9.161105  -0.026841
    601          9.165062  -0.028569
    602          9.165652  -0.028808
    603          9.165718  -0.028834
    604          9.174289  -0.031754
    605          9.288741  -0.020520
    606          9.291847  -0.019822
    607          9.296921  -0.018700
    608          9.303292  -0.017329
    609          9.305785  -0.016806
    610          9.313619  -0.015213
    611          9.315870  -0.014771
    612          9.319153  -0.014139
    613          9.320077  -0.013964
    614          9.325810  -0.012908
    615          9.372592  -0.006230
    616          9.385735  -0.004946
    617          9.411599  -0.003041
    618          9.412562  -0.002984
    619          9.422548  -0.002445
    620          9.439525  -0.001718
    621          9.553810  -0.000104
    622          9.567437  -0.000071
    623          9.569106  -0.000068
    624          9.589799  -0.000037
    625          9.590526  -0.000036
    626          9.594663  -0.000032
    627          9.598767  -0.000028
    628          9.613867  -0.000018
    629          9.664667  -0.000003
    630          9.667809  -0.000003
    631          9.669814  -0.000003
    632          9.687029  -0.000002
    633          9.696037  -0.000001
    634          9.705742  -0.000001
    635          9.709923  -0.000001
    636          9.713658  -0.000001
    637          9.713807  -0.000001
    638          9.717485  -0.000001
    639          9.719146  -0.000001
    640          9.720888  -0.000000
    641          9.723020  -0.000000
    642          9.726177  -0.000000
    643          9.727844  -0.000000
    644          9.750497  -0.000000
    645          9.762716  -0.000000
    646          9.769102  -0.000000
    647          9.777081  -0.000000
    648          9.784161  -0.000000
    649          9.828094  -0.000000
    650          9.850921  -0.000000
    651          9.901153  -0.000000
    652          9.903527  -0.000000
    653          9.909893  -0.000000
    654          9.911053  -0.000000
    655          9.919930  -0.000000
    656          9.923610  -0.000000
    657          9.951521  -0.000000
    658          9.956901  -0.000000
    659          9.961971  -0.000000
    660          9.965192  -0.000000
    661          9.968080  -0.000000
    662          9.969159  -0.000000
    663          9.973923  -0.000000
    664          9.977554  -0.000000
    665          9.981241  -0.000000
    666         10.013692  -0.000000
    667         10.015339  -0.000000
    668         10.020804  -0.000000
    669         10.033184  -0.000000
    670         10.039343  -0.000000
    671         10.107224  -0.000000
    672         10.129524  -0.000000
    673         10.200647  -0.000000
    674         10.202981  -0.000000
    675         10.204590  -0.000000
    676         10.209003  -0.000000
    677         10.210209  -0.000000
    678         10.211037  -0.000000
    679         10.225215  -0.000000
    680         10.228194  -0.000000
    681         10.240532  -0.000000
    682         10.251204  -0.000000
    683         10.252239  -0.000000
    684         10.268141  -0.000000
    685         10.268581  -0.000000
    686         10.281357  -0.000000
    687         10.283820  -0.000000
    688         10.284704  -0.000000
    689         10.285545  -0.000000
    690         10.298848  -0.000000
    691         10.300713  -0.000000
 
  0.2690550E-16  0.5000000E+00  0.0000000E+00  0.2083333E-01
      1        -39.913961   1.000000
      2        -39.890282   1.000000
      3        -39.884718   1.000000
      4        -39.868530   1.000000
      5        -39.859779   1.000000
      6        -39.855391   1.000000
      7        -39.852567   1.000000
      8        -39.850360   1.000000
      9        -39.843702   1.000000
     10        -39.838903   1.000000
     11        -39.836432   1.000000
     12        -39.829539   1.000000
     13        -39.824540   1.000000
     14        -39.821058   1.000000
     15        -39.815631   1.000000
     16        -39.813880   1.000000
     17        -39.807523   1.000000
     18        -39.806825   1.000000
     19        -39.802053   1.000000
     20        -39.798140   1.000000
     21        -39.795124   1.000000
     22        -39.791675   1.000000
     23        -39.787669   1.000000
     24        -39.787481   1.000000
     25        -39.787138   1.000000
     26        -39.785222   1.000000
     27        -39.785183   1.000000
     28        -39.780967   1.000000
     29        -39.780810   1.000000
     30        -39.780438   1.000000
     31        -39.780269   1.000000
     32        -39.777824   1.000000
     33        -39.774271   1.000000
     34        -39.774121   1.000000
     35        -39.773641   1.000000
     36        -39.772214   1.000000
     37        -39.768814   1.000000
     38        -39.767512   1.000000
     39        -39.767368   1.000000
     40        -39.765508   1.000000
     41        -39.764600   1.000000
     42        -39.763501   1.000000
     43        -39.761280   1.000000
     44        -39.760725   1.000000
     45        -39.760520   1.000000
     46        -39.759052   1.000000
     47        -39.757416   1.000000
     48        -39.755373   1.000000
     49        -39.755324   1.000000
     50        -39.752830   1.000000
     51        -39.752666   1.000000
     52        -39.750175   1.000000
     53        -39.748283   1.000000
     54        -39.747695   1.000000
     55        -39.745692   1.000000
     56        -39.744489   1.000000
     57        -39.744370   1.000000
     58        -39.743969   1.000000
     59        -39.743512   1.000000
     60        -39.742781   1.000000
     61        -39.742268   1.000000
     62        -39.742104   1.000000
     63        -39.741382   1.000000
     64        -39.739144   1.000000
     65        -39.738153   1.000000
     66        -39.738087   1.000000
     67        -39.736884   1.000000
     68        -39.736726   1.000000
     69        -39.736350   1.000000
     70        -39.734465   1.000000
     71        -39.734123   1.000000
     72        -39.732652   1.000000
     73        -39.732066   1.000000
     74        -39.730804   1.000000
     75        -39.730222   1.000000
     76        -39.730099   1.000000
     77        -39.729393   1.000000
     78        -39.729019   1.000000
     79        -39.728923   1.000000
     80        -39.727936   1.000000
     81        -39.727006   1.000000
     82        -39.725969   1.000000
     83        -39.724913   1.000000
     84        -39.724145   1.000000
     85        -39.723360   1.000000
     86        -39.721299   1.000000
     87        -39.721201   1.000000
     88        -39.720552   1.000000
     89        -39.719003   1.000000
     90        -39.717882   1.000000
     91        -39.712801   1.000000
     92        -39.711688   1.000000
     93        -39.705828   1.000000
     94        -39.705662   1.000000
     95        -39.702988   1.000000
     96        -39.700575   1.000000
     97        -18.375100   1.000000
     98        -18.367581   1.000000
     99        -18.320835   1.000000
    100        -18.290239   1.000000
    101        -18.290151   1.000000
    102        -18.284101   1.000000
    103        -18.282144   1.000000
    104        -18.281941   1.000000
    105        -18.281526   1.000000
    106        -18.281258   1.000000
    107        -18.280071   1.000000
    108        -18.278698   1.000000
    109        -18.271710   1.000000
    110        -18.267438   1.000000
    111        -18.263431   1.000000
    112        -18.259894   1.000000
    113        -18.228431   1.000000
    114        -18.211355   1.000000
    115        -18.211245   1.000000
    116        -18.209332   1.000000
    117        -18.207936   1.000000
    118        -18.203811   1.000000
    119        -18.201405   1.000000
    120        -18.200127   1.000000
    121        -18.199938   1.000000
    122        -18.198181   1.000000
    123        -18.196941   1.000000
    124        -18.196197   1.000000
    125        -18.195842   1.000000
    126        -18.194091   1.000000
    127        -18.194057   1.000000
    128        -18.192918   1.000000
    129        -18.191843   1.000000
    130        -18.191782   1.000000
    131        -18.191303   1.000000
    132        -18.191239   1.000000
    133        -18.190510   1.000000
    134        -18.189781   1.000000
    135        -18.188608   1.000000
    136        -18.185854   1.000000
    137        -18.175971   1.000000
    138        -18.168279   1.000000
    139        -18.166166   1.000000
    140        -18.164530   1.000000
    141        -18.164352   1.000000
    142        -18.161264   1.000000
    143        -18.158312   1.000000
    144        -18.157150   1.000000
    145        -18.156036   1.000000
    146        -18.155384   1.000000
    147        -18.153293   1.000000
    148        -18.153229   1.000000
    149        -18.152029   1.000000
    150        -18.150969   1.000000
    151        -18.150506   1.000000
    152        -18.148572   1.000000
    153        -18.147694   1.000000
    154        -18.144418   1.000000
    155        -18.142105   1.000000
    156        -18.141867   1.000000
    157        -18.140073   1.000000
    158        -18.139945   1.000000
    159        -18.138245   1.000000
    160        -18.136980   1.000000
    161        -18.089313   1.000000
    162        -18.083051   1.000000
    163        -18.079219   1.000000
    164        -18.072999   1.000000
    165        -18.072587   1.000000
    166        -18.069615   1.000000
    167        -18.069319   1.000000
    168        -18.068288   1.000000
    169        -18.067399   1.000000
    170        -18.066907   1.000000
    171        -18.046290   1.000000
    172        -18.041519   1.000000
    173        -18.033045   1.000000
    174        -18.032947   1.000000
    175        -18.032126   1.000000
    176        -18.028113   1.000000
    177        -18.024140   1.000000
    178        -18.021387   1.000000
    179        -18.004289   1.000000
    180        -17.996124   1.000000
    181        -17.994891   1.000000
    182        -17.989136   1.000000
    183        -17.989032   1.000000
    184        -17.988428   1.000000
    185        -17.986770   1.000000
    186        -17.982788   1.000000
    187        -17.982051   1.000000
    188        -17.981252   1.000000
    189        -17.979808   1.000000
    190        -17.977482   1.000000
    191        -17.940905   1.000000
    192        -17.939820   1.000000
    193        -17.934119   1.000000
    194        -17.933276   1.000000
    195        -17.929263   1.000000
    196        -17.928799   1.000000
    197        -17.897648   1.000000
    198        -17.887567   1.000000
    199        -17.882369   1.000000
    200        -17.874044   1.000000
    201        -17.873270   1.000000
    202        -17.871729   1.000000
    203        -17.862261   1.000000
    204        -17.853225   1.000000
    205        -17.851831   1.000000
    206        -17.848316   1.000000
    207        -17.845715   1.000000
    208        -17.837281   1.000000
    209        -17.836827   1.000000
    210        -17.834856   1.000000
    211        -17.834771   1.000000
    212        -17.834479   1.000000
    213        -17.830272   1.000000
    214        -17.829475   1.000000
    215        -17.818897   1.000000
    216        -17.814980   1.000000
    217        -17.811473   1.000000
    218        -17.807015   1.000000
    219        -17.803307   1.000000
    220        -17.801933   1.000000
    221        -17.801193   1.000000
    222        -17.798842   1.000000
    223        -17.797212   1.000000
    224        -17.796071   1.000000
    225        -17.793853   1.000000
    226        -17.792862   1.000000
    227        -17.792213   1.000000
    228        -17.791936   1.000000
    229        -17.790848   1.000000
    230        -17.790162   1.000000
    231        -17.788914   1.000000
    232        -17.788161   1.000000
    233        -17.769542   1.000000
    234        -17.761092   1.000000
    235        -17.758998   1.000000
    236        -17.754932   1.000000
    237        -17.746793   1.000000
    238        -17.745423   1.000000
    239        -17.745141   1.000000
    240        -17.744661   1.000000
    241        -17.741562   1.000000
    242        -17.741505   1.000000
    243        -17.740920   1.000000
    244        -17.733536   1.000000
    245        -17.731551   1.000000
    246        -17.731160   1.000000
    247        -17.727560   1.000000
    248        -17.723613   1.000000
    249        -17.721282   1.000000
    250        -17.720021   1.000000
    251        -17.719798   1.000000
    252        -17.717138   1.000000
    253        -17.716049   1.000000
    254        -17.714048   1.000000
    255        -17.713911   1.000000
    256        -17.713174   1.000000
    257        -17.712891   1.000000
    258        -17.712569   1.000000
    259        -17.712361   1.000000
    260        -17.711955   1.000000
    261        -17.709654   1.000000
    262        -17.709046   1.000000
    263        -17.708434   1.000000
    264        -17.707240   1.000000
    265        -17.706789   1.000000
    266        -17.705482   1.000000
    267        -17.705236   1.000000
    268        -17.698795   1.000000
    269        -17.688203   1.000000
    270        -17.685952   1.000000
    271        -17.682796   1.000000
    272        -17.679774   1.000000
    273        -17.678533   1.000000
    274        -17.677696   1.000000
    275        -17.673562   1.000000
    276        -17.671143   1.000000
    277        -17.669638   1.000000
    278        -17.669398   1.000000
    279        -17.669138   1.000000
    280        -17.668136   1.000000
    281        -17.667044   1.000000
    282        -17.666232   1.000000
    283        -17.665882   1.000000
    284        -17.664950   1.000000
    285        -17.663796   1.000000
    286        -17.655528   1.000000
    287        -17.652422   1.000000
    288        -17.650385   1.000000
    289        -17.650286   1.000000
    290        -17.649883   1.000000
    291        -17.635182   1.000000
    292        -17.634218   1.000000
    293        -17.628657   1.000000
    294        -17.627733   1.000000
    295        -17.619371   1.000000
    296        -17.618625   1.000000
    297        -17.617908   1.000000
    298        -17.615749   1.000000
    299        -17.612424   1.000000
    300        -17.611740   1.000000
    301        -17.609640   1.000000
    302        -17.606234   1.000000
    303        -17.605879   1.000000
    304        -17.605034   1.000000
    305        -17.604737   1.000000
    306        -17.603741   1.000000
    307        -17.603413   1.000000
    308        -17.603009   1.000000
    309        -17.602306   1.000000
    310        -17.600888   1.000000
    311        -17.600548   1.000000
    312        -17.600066   1.000000
    313        -17.599305   1.000000
    314        -17.598569   1.000000
    315        -17.598128   1.000000
    316        -17.597030   1.000000
    317        -17.595380   1.000000
    318        -17.593550   1.000000
    319        -17.593403   1.000000
    320        -17.592310   1.000000
    321        -17.587098   1.000000
    322        -17.586402   1.000000
    323        -17.583301   1.000000
    324        -17.582557   1.000000
    325        -17.581051   1.000000
    326        -17.576713   1.000000
    327        -17.576604   1.000000
    328        -17.576063   1.000000
    329        -17.574347   1.000000
    330        -17.572687   1.000000
    331        -17.572207   1.000000
    332        -17.570952   1.000000
    333        -17.570140   1.000000
    334        -17.569487   1.000000
    335        -17.568282   1.000000
    336        -17.568031   1.000000
    337        -17.567564   1.000000
    338        -17.566203   1.000000
    339        -17.564506   1.000000
    340        -17.562067   1.000000
    341        -17.557901   1.000000
    342        -17.554193   1.000000
    343        -17.553734   1.000000
    344        -17.550566   1.000000
    345        -17.549865   1.000000
    346        -17.549594   1.000000
    347        -17.548828   1.000000
    348        -17.548625   1.000000
    349        -17.548349   1.000000
    350        -17.547167   1.000000
    351        -17.546921   1.000000
    352        -17.546498   1.000000
    353        -17.545834   1.000000
    354        -17.543152   1.000000
    355        -17.541010   1.000000
    356        -17.540611   1.000000
    357        -17.530294   1.000000
    358        -17.528579   1.000000
    359        -17.526252   1.000000
    360        -17.525115   1.000000
    361        -17.525081   1.000000
    362        -17.523250   1.000000
    363        -17.522648   1.000000
    364        -17.520730   1.000000
    365        -17.515442   1.000000
    366        -17.515033   1.000000
    367        -17.509396   1.000000
    368        -17.505859   1.000000
    369        -17.505115   1.000000
    370        -17.504845   1.000000
    371        -17.503036   1.000000
    372        -17.493934   1.000000
    373        -17.491158   1.000000
    374        -17.487030   1.000000
    375        -17.478746   1.000000
    376        -17.477014   1.000000
    377        -17.473982   1.000000
    378        -17.471588   1.000000
    379        -17.471006   1.000000
    380        -17.464158   1.000000
    381        -17.451471   1.000000
    382        -17.445133   1.000000
    383        -17.433804   1.000000
    384        -17.428477   1.000000
    385          2.480650   1.000000
    386          3.723030   1.000000
    387          3.827654   1.000000
    388          4.495997   1.000000
    389          4.509020   1.000000
    390          4.531675   1.000000
    391          4.533835   1.000000
    392          4.534839   1.000000
    393          4.720416   1.000000
    394          5.178910   1.000000
    395          5.180527   1.000000
    396          5.182339   1.000000
    397          5.271476   1.000000
    398          5.713759   1.000000
    399          5.715604   1.000000
    400          5.718436   1.000000
    401          5.760855   1.000000
    402          5.896253   1.000000
    403          5.900537   1.000000
    404          5.901456   1.000000
    405          5.908206   1.000000
    406          5.946926   1.000000
    407          5.957812   1.000000
    408          5.994628   1.000000
    409          5.995230   1.000000
    410          5.998569   1.000000
    411          5.999310   1.000000
    412          6.000307   1.000000
    413          6.001742   1.000000
    414          6.004494   1.000000
    415          6.028093   1.000000
    416          6.052412   1.000000
    417          6.053161   1.000000
    418          6.055623   1.000000
    419          6.148199   1.000000
    420          6.178331   1.000000
    421          6.189034   1.000000
    422          6.191144   1.000000
    423          6.191624   1.000000
    424          6.192145   1.000000
    425          6.192913   1.000000
    426          6.200472   1.000000
    427          6.247850   1.000000
    428          6.304352   1.000000
    429          6.387658   1.000000
    430          6.564059   1.000000
    431          6.565540   1.000000
    432          6.571612   1.000000
    433          6.574796   1.000000
    434          6.582374   1.000000
    435          6.584663   1.000000
    436          6.584976   1.000000
    437          6.622402   1.000000
    438          6.666372   1.000000
    439          6.666813   1.000000
    440          6.673037   1.000000
    441          6.700063   1.000000
    442          6.706769   1.000000
    443          6.738599   1.000000
    444          6.759852   1.000000
    445          6.762915   1.000000
    446          6.766897   1.000000
    447          6.767057   1.000000
    448          6.770269   1.000000
    449          6.772383   1.000000
    450          6.773162   1.000000
    451          6.793041   1.000000
    452          6.827478   1.000000
    453          6.831692   1.000000
    454          6.833312   1.000000
    455          6.852432   1.000000
    456          6.859242   1.000000
    457          6.860354   1.000000
    458          6.865418   1.000000
    459          6.869387   1.000000
    460          6.871395   1.000000
    461          6.874103   1.000000
    462          6.879911   1.000000
    463          6.881531   1.000000
    464          6.881992   1.000000
    465          6.883247   1.000000
    466          6.888692   1.000000
    467          6.891804   1.000000
    468          6.891979   1.000000
    469          6.901796   1.000000
    470          6.906671   1.000000
    471          6.907894   1.000000
    472          6.916896   1.000000
    473          6.920602   1.000000
    474          6.926651   1.000000
    475          7.075309   1.000000
    476          7.131745   1.000000
    477          7.140733   1.000000
    478          7.195188   1.000000
    479          7.203326   1.000000
    480          7.203888   1.000000
    481          7.266065   1.000000
    482          7.329426   1.000000
    483          7.373895   1.000000
    484          7.419158   1.000000
    485          7.425155   1.000000
    486          7.429249   1.000000
    487          7.430626   1.000000
    488          7.433188   1.000000
    489          7.456744   1.000000
    490          7.464256   1.000000
    491          7.466505   1.000000
    492          7.478252   1.000000
    493          7.478522   1.000000
    494          7.601489   1.000000
    495          7.613859   1.000000
    496          7.616167   1.000000
    497          7.631243   1.000000
    498          7.664073   1.000000
    499          7.668967   1.000000
    500          7.676018   1.000000
    501          7.676329   1.000000
    502          7.680776   1.000000
    503          7.681191   1.000000
    504          7.686063   1.000000
    505          7.693755   1.000000
    506          7.705332   1.000000
    507          7.707206   1.000000
    508          7.707492   1.000000
    509          7.708429   1.000000
    510          7.710771   1.000000
    511          7.714995   1.000000
    512          7.718683   1.000000
    513          7.793028   1.000000
    514          7.798272   1.000000
    515          7.806354   1.000000
    516          7.812068   1.000000
    517          7.867347   1.000000
    518          7.882211   1.000000
    519          7.885499   1.000000
    520          7.886345   1.000000
    521          7.931857   1.000000
    522          7.939911   1.000000
    523          7.946644   1.000000
    524          7.948573   1.000000
    525          7.989485   1.000000
    526          8.008911   1.000000
    527          8.038265   1.000000
    528          8.076116   1.000000
    529          8.081847   1.000000
    530          8.086595   1.000000
    531          8.142269   1.000000
    532          8.246120   1.000003
    533          8.247075   1.000003
    534          8.252514   1.000004
    535          8.267395   1.000006
    536          8.287148   1.000011
    537          8.289629   1.000012
    538          8.289966   1.000012
    539          8.293900   1.000014
    540          8.297535   1.000016
    541          8.301666   1.000018
    542          8.303501   1.000019
    543          8.345402   1.000066
    544          8.360633   1.000102
    545          8.379872   1.000172
    546          8.392849   1.000242
    547          8.394345   1.000251
    548          8.395647   1.000260
    549          8.397505   1.000273
    550          8.399195   1.000285
    551          8.401797   1.000304
    552          8.406354   1.000342
    553          8.408887   1.000364
    554          8.411364   1.000387
    555          8.412105   1.000395
    556          8.413744   1.000411
    557          8.415637   1.000431
    558          8.417764   1.000454
    559          8.449374   1.000961
    560          8.459292   1.001202
    561          8.462999   1.001305
    562          8.472227   1.001595
    563          8.491769   1.002399
    564          8.513330   1.003666
    565          8.616515   1.018307
    566          8.633799   1.022184
    567          8.638106   1.023178
    568          8.645568   1.024905
    569          8.833308   0.929459
    570          8.872168   0.827579
    571          8.880844   0.799855
    572          8.884028   0.789260
    573          9.030926   0.211714
    574          9.051939   0.145905
    575          9.054438   0.138770
    576          9.055641   0.135390
    577          9.058296   0.128057
    578          9.059224   0.125533
    579          9.065971   0.107840
    580          9.070141   0.097476
    581          9.078011   0.079113
    582          9.085446   0.063203
    583          9.112853   0.016306
    584          9.115974   0.012091
    585          9.122921   0.003481
    586          9.128867  -0.003067
    587          9.131792  -0.006020
    588          9.135625  -0.009630
    589          9.137144  -0.010981
    590          9.140080  -0.013469
    591          9.140447  -0.013768
    592          9.147805  -0.019255
    593          9.148821  -0.019937
    594          9.149812  -0.020586
    595          9.153544  -0.022880
    596          9.153694  -0.022967
    597          9.156845  -0.024719
    598          9.157517  -0.025073
    599          9.159226  -0.025940
    600          9.161356  -0.026958
    601          9.165439  -0.028722
    602          9.165905  -0.028908
    603          9.166568  -0.029168
    604          9.173881  -0.031637
    605          9.288188  -0.020645
    606          9.291093  -0.019991
    607          9.297131  -0.018654
    608          9.303065  -0.017377
    609          9.305726  -0.016818
    610          9.313138  -0.015308
    611          9.316104  -0.014725
    612          9.318943  -0.014179
    613          9.320572  -0.013871
    614          9.326576  -0.012771
    615          9.373225  -0.006163
    616          9.385121  -0.005001
    617          9.411142  -0.003069
    618          9.412833  -0.002968
    619          9.423460  -0.002400
    620          9.439253  -0.001728
    621          9.553564  -0.000105
    622          9.568191  -0.000069
    623          9.569887  -0.000066
    624          9.589398  -0.000037
    625          9.590791  -0.000036
    626          9.594628  -0.000032
    627          9.598157  -0.000029
    628          9.613343  -0.000018
    629          9.664708  -0.000003
    630          9.667348  -0.000003
    631          9.669905  -0.000003
    632          9.687360  -0.000002
    633          9.696155  -0.000001
    634          9.705612  -0.000001
    635          9.710294  -0.000001
    636          9.713561  -0.000001
    637          9.714235  -0.000001
    638          9.716966  -0.000001
    639          9.718677  -0.000001
    640          9.720467  -0.000000
    641          9.722609  -0.000000
    642          9.726411  -0.000000
    643          9.728295  -0.000000
    644          9.750479  -0.000000
    645          9.763281  -0.000000
    646          9.769080  -0.000000
    647          9.777119  -0.000000
    648          9.783394  -0.000000
    649          9.828087  -0.000000
    650          9.851304  -0.000000
    651          9.901448  -0.000000
    652          9.903291  -0.000000
    653          9.909455  -0.000000
    654          9.910622  -0.000000
    655          9.919132  -0.000000
    656          9.924481  -0.000000
    657          9.950812  -0.000000
    658          9.956667  -0.000000
    659          9.962239  -0.000000
    660          9.965014  -0.000000
    661          9.968004  -0.000000
    662          9.969098  -0.000000
    663          9.974022  -0.000000
    664          9.977945  -0.000000
    665          9.981519  -0.000000
    666         10.013377  -0.000000
    667         10.015754  -0.000000
    668         10.020618  -0.000000
    669         10.033198  -0.000000
    670         10.040012  -0.000000
    671         10.106492  -0.000000
    672         10.130060  -0.000000
    673         10.200156  -0.000000
    674         10.203074  -0.000000
    675         10.205024  -0.000000
    676         10.209678  -0.000000
    677         10.210742  -0.000000
    678         10.211305  -0.000000
    679         10.223989  -0.000000
    680         10.227400  -0.000000
    681         10.240813  -0.000000
    682         10.251651  -0.000000
    683         10.252946  -0.000000
    684         10.267588  -0.000000
    685         10.268499  -0.000000
    686         10.281603  -0.000000
    687         10.283571  -0.000000
    688         10.284336  -0.000000
    689         10.285320  -0.000000
    690         10.296491  -0.000000
    691         10.301062  -0.000000
 
  0.5000000E+00  0.5000000E+00  0.0000000E+00  0.2083333E-01
      1        -39.913961   1.000000
      2        -39.890282   1.000000
      3        -39.884718   1.000000
      4        -39.868530   1.000000
      5        -39.859779   1.000000
      6        -39.855391   1.000000
      7        -39.852567   1.000000
      8        -39.850360   1.000000
      9        -39.843702   1.000000
     10        -39.838903   1.000000
     11        -39.836432   1.000000
     12        -39.829539   1.000000
     13        -39.824540   1.000000
     14        -39.821058   1.000000
     15        -39.815631   1.000000
     16        -39.813880   1.000000
     17        -39.807523   1.000000
     18        -39.806825   1.000000
     19        -39.802053   1.000000
     20        -39.798140   1.000000
     21        -39.795124   1.000000
     22        -39.791675   1.000000
     23        -39.787669   1.000000
     24        -39.787481   1.000000
     25        -39.787138   1.000000
     26        -39.785222   1.000000
     27        -39.785183   1.000000
     28        -39.780967   1.000000
     29        -39.780810   1.000000
     30        -39.780438   1.000000
     31        -39.780269   1.000000
     32        -39.777824   1.000000
     33        -39.774271   1.000000
     34        -39.774121   1.000000
     35        -39.773641   1.000000
     36        -39.772214   1.000000
     37        -39.768814   1.000000
     38        -39.767512   1.000000
     39        -39.767368   1.000000
     40        -39.765508   1.000000
     41        -39.764600   1.000000
     42        -39.763501   1.000000
     43        -39.761280   1.000000
     44        -39.760725   1.000000
     45        -39.760520   1.000000
     46        -39.759052   1.000000
     47        -39.757416   1.000000
     48        -39.755373   1.000000
     49        -39.755324   1.000000
     50        -39.752830   1.000000
     51        -39.752666   1.000000
     52        -39.750175   1.000000
     53        -39.748283   1.000000
     54        -39.747695   1.000000
     55        -39.745692   1.000000
     56        -39.744489   1.000000
     57        -39.744371   1.000000
     58        -39.743969   1.000000
     59        -39.743512   1.000000
     60        -39.742781   1.000000
     61        -39.742268   1.000000
     62        -39.742104   1.000000
     63        -39.741382   1.000000
     64        -39.739144   1.000000
     65        -39.738153   1.000000
     66        -39.738087   1.000000
     67        -39.736884   1.000000
     68        -39.736726   1.000000
     69        -39.736350   1.000000
     70        -39.734465   1.000000
     71        -39.734123   1.000000
     72        -39.732652   1.000000
     73        -39.732066   1.000000
     74        -39.730804   1.000000
     75        -39.730222   1.000000
     76        -39.730099   1.000000
     77        -39.729393   1.000000
     78        -39.729019   1.000000
     79        -39.728923   1.000000
     80        -39.727936   1.000000
     81        -39.727006   1.000000
     82        -39.725969   1.000000
     83        -39.724913   1.000000
     84        -39.724145   1.000000
     85        -39.723359   1.000000
     86        -39.721299   1.000000
     87        -39.721201   1.000000
     88        -39.720552   1.000000
     89        -39.719003   1.000000
     90        -39.717882   1.000000
     91        -39.712801   1.000000
     92        -39.711688   1.000000
     93        -39.705828   1.000000
     94        -39.705662   1.000000
     95        -39.702988   1.000000
     96        -39.700575   1.000000
     97        -18.375100   1.000000
     98        -18.367581   1.000000
     99        -18.320835   1.000000
    100        -18.290239   1.000000
    101        -18.290151   1.000000
    102        -18.284101   1.000000
    103        -18.282144   1.000000
    104        -18.281941   1.000000
    105        -18.281526   1.000000
    106        -18.281258   1.000000
    107        -18.280070   1.000000
    108        -18.278698   1.000000
    109        -18.271710   1.000000
    110        -18.267438   1.000000
    111        -18.263431   1.000000
    112        -18.259894   1.000000
    113        -18.228431   1.000000
    114        -18.211355   1.000000
    115        -18.211245   1.000000
    116        -18.209332   1.000000
    117        -18.207936   1.000000
    118        -18.203811   1.000000
    119        -18.201405   1.000000
    120        -18.200127   1.000000
    121        -18.199938   1.000000
    122        -18.198181   1.000000
    123        -18.196941   1.000000
    124        -18.196197   1.000000
    125        -18.195842   1.000000
    126        -18.194091   1.000000
    127        -18.194057   1.000000
    128        -18.192918   1.000000
    129        -18.191843   1.000000
    130        -18.191782   1.000000
    131        -18.191303   1.000000
    132        -18.191239   1.000000
    133        -18.190510   1.000000
    134        -18.189781   1.000000
    135        -18.188608   1.000000
    136        -18.185854   1.000000
    137        -18.175971   1.000000
    138        -18.168279   1.000000
    139        -18.166166   1.000000
    140        -18.164530   1.000000
    141        -18.164352   1.000000
    142        -18.161264   1.000000
    143        -18.158312   1.000000
    144        -18.157150   1.000000
    145        -18.156036   1.000000
    146        -18.155384   1.000000
    147        -18.153293   1.000000
    148        -18.153229   1.000000
    149        -18.152029   1.000000
    150        -18.150969   1.000000
    151        -18.150506   1.000000
    152        -18.148572   1.000000
    153        -18.147694   1.000000
    154        -18.144418   1.000000
    155        -18.142105   1.000000
    156        -18.141867   1.000000
    157        -18.140073   1.000000
    158        -18.139945   1.000000
    159        -18.138245   1.000000
    160        -18.136980   1.000000
    161        -18.089313   1.000000
    162        -18.083051   1.000000
    163        -18.079219   1.000000
    164        -18.072999   1.000000
    165        -18.072587   1.000000
    166        -18.069615   1.000000
    167        -18.069319   1.000000
    168        -18.068288   1.000000
    169        -18.067399   1.000000
    170        -18.066907   1.000000
    171        -18.046290   1.000000
    172        -18.041519   1.000000
    173        -18.033045   1.000000
    174        -18.032947   1.000000
    175        -18.032126   1.000000
    176        -18.028113   1.000000
    177        -18.024140   1.000000
    178        -18.021387   1.000000
    179        -18.004289   1.000000
    180        -17.996124   1.000000
    181        -17.994891   1.000000
    182        -17.989136   1.000000
    183        -17.989032   1.000000
    184        -17.988428   1.000000
    185        -17.986770   1.000000
    186        -17.982788   1.000000
    187        -17.982051   1.000000
    188        -17.981252   1.000000
    189        -17.979808   1.000000
    190        -17.977482   1.000000
    191        -17.940905   1.000000
    192        -17.939820   1.000000
    193        -17.934119   1.000000
    194        -17.933276   1.000000
    195        -17.929263   1.000000
    196        -17.928799   1.000000
    197        -17.897648   1.000000
    198        -17.887567   1.000000
    199        -17.882369   1.000000
    200        -17.874044   1.000000
    201        -17.873270   1.000000
    202        -17.871729   1.000000
    203        -17.862261   1.000000
    204        -17.853225   1.000000
    205        -17.851830   1.000000
    206        -17.848316   1.000000
    207        -17.845715   1.000000
    208        -17.837281   1.000000
    209        -17.836827   1.000000
    210        -17.834856   1.000000
    211        -17.834771   1.000000
    212        -17.834479   1.000000
    213        -17.830272   1.000000
    214        -17.829475   1.000000
    215        -17.818897   1.000000
    216        -17.814980   1.000000
    217        -17.811473   1.000000
    218        -17.807015   1.000000
    219        -17.803307   1.000000
    220        -17.801933   1.000000
    221        -17.801193   1.000000
    222        -17.798842   1.000000
    223        -17.797212   1.000000
    224        -17.796071   1.000000
    225        -17.793853   1.000000
    226        -17.792862   1.000000
    227        -17.792213   1.000000
    228        -17.791936   1.000000
    229        -17.790848   1.000000
    230        -17.790162   1.000000
    231        -17.788914   1.000000
    232        -17.788161   1.000000
    233        -17.769542   1.000000
    234        -17.761092   1.000000
    235        -17.758998   1.000000
    236        -17.754932   1.000000
    237        -17.746793   1.000000
    238        -17.745423   1.000000
    239        -17.745141   1.000000
    240        -17.744661   1.000000
    241        -17.741562   1.000000
    242        -17.741505   1.000000
    243        -17.740920   1.000000
    244        -17.733536   1.000000
    245        -17.731551   1.000000
    246        -17.731160   1.000000
    247        -17.727560   1.000000
    248        -17.723613   1.000000
    249        -17.721282   1.000000
    250        -17.720021   1.000000
    251        -17.719798   1.000000
    252        -17.717138   1.000000
    253        -17.716049   1.000000
    254        -17.714048   1.000000
    255        -17.713911   1.000000
    256        -17.713174   1.000000
    257        -17.712891   1.000000
    258        -17.712569   1.000000
    259        -17.712361   1.000000
    260        -17.711955   1.000000
    261        -17.709654   1.000000
    262        -17.709046   1.000000
    263        -17.708434   1.000000
    264        -17.707240   1.000000
    265        -17.706789   1.000000
    266        -17.705482   1.000000
    267        -17.705236   1.000000
    268        -17.698795   1.000000
    269        -17.688203   1.000000
    270        -17.685952   1.000000
    271        -17.682797   1.000000
    272        -17.679774   1.000000
    273        -17.678533   1.000000
    274        -17.677696   1.000000
    275        -17.673562   1.000000
    276        -17.671143   1.000000
    277        -17.669638   1.000000
    278        -17.669398   1.000000
    279        -17.669138   1.000000
    280        -17.668136   1.000000
    281        -17.667044   1.000000
    282        -17.666232   1.000000
    283        -17.665882   1.000000
    284        -17.664950   1.000000
    285        -17.663796   1.000000
    286        -17.655528   1.000000
    287        -17.652422   1.000000
    288        -17.650385   1.000000
    289        -17.650286   1.000000
    290        -17.649883   1.000000
    291        -17.635182   1.000000
    292        -17.634218   1.000000
    293        -17.628657   1.000000
    294        -17.627733   1.000000
    295        -17.619371   1.000000
    296        -17.618625   1.000000
    297        -17.617908   1.000000
    298        -17.615749   1.000000
    299        -17.612424   1.000000
    300        -17.611740   1.000000
    301        -17.609640   1.000000
    302        -17.606234   1.000000
    303        -17.605879   1.000000
    304        -17.605034   1.000000
    305        -17.604737   1.000000
    306        -17.603741   1.000000
    307        -17.603413   1.000000
    308        -17.603009   1.000000
    309        -17.602306   1.000000
    310        -17.600888   1.000000
    311        -17.600548   1.000000
    312        -17.600066   1.000000
    313        -17.599305   1.000000
    314        -17.598569   1.000000
    315        -17.598128   1.000000
    316        -17.597030   1.000000
    317        -17.595380   1.000000
    318        -17.593550   1.000000
    319        -17.593403   1.000000
    320        -17.592310   1.000000
    321        -17.587098   1.000000
    322        -17.586402   1.000000
    323        -17.583301   1.000000
    324        -17.582557   1.000000
    325        -17.581051   1.000000
    326        -17.576713   1.000000
    327        -17.576604   1.000000
    328        -17.576063   1.000000
    329        -17.574347   1.000000
    330        -17.572687   1.000000
    331        -17.572207   1.000000
    332        -17.570952   1.000000
    333        -17.570141   1.000000
    334        -17.569487   1.000000
    335        -17.568282   1.000000
    336        -17.568032   1.000000
    337        -17.567564   1.000000
    338        -17.566203   1.000000
    339        -17.564506   1.000000
    340        -17.562067   1.000000
    341        -17.557901   1.000000
    342        -17.554193   1.000000
    343        -17.553734   1.000000
    344        -17.550566   1.000000
    345        -17.549865   1.000000
    346        -17.549594   1.000000
    347        -17.548828   1.000000
    348        -17.548625   1.000000
    349        -17.548349   1.000000
    350        -17.547167   1.000000
    351        -17.546921   1.000000
    352        -17.546498   1.000000
    353        -17.545834   1.000000
    354        -17.543152   1.000000
    355        -17.541010   1.000000
    356        -17.540611   1.000000
    357        -17.530294   1.000000
    358        -17.528579   1.000000
    359        -17.526252   1.000000
    360        -17.525115   1.000000
    361        -17.525081   1.000000
    362        -17.523250   1.000000
    363        -17.522648   1.000000
    364        -17.520730   1.000000
    365        -17.515442   1.000000
    366        -17.515033   1.000000
    367        -17.509396   1.000000
    368        -17.505859   1.000000
    369        -17.505115   1.000000
    370        -17.504845   1.000000
    371        -17.503036   1.000000
    372        -17.493934   1.000000
    373        -17.491158   1.000000
    374        -17.487030   1.000000
    375        -17.478746   1.000000
    376        -17.477014   1.000000
    377        -17.473982   1.000000
    378        -17.471588   1.000000
    379        -17.471006   1.000000
    380        -17.464158   1.000000
    381        -17.451471   1.000000
    382        -17.445133   1.000000
    383        -17.433804   1.000000
    384        -17.428477   1.000000
    385          2.480650   1.000000
    386          3.723030   1.000000
    387          3.827654   1.000000
    388          4.495997   1.000000
    389          4.509020   1.000000
    390          4.531674   1.000000
    391          4.533836   1.000000
    392          4.534839   1.000000
    393          4.720416   1.000000
    394          5.178910   1.000000
    395          5.180527   1.000000
    396          5.182339   1.000000
    397          5.271476   1.000000
    398          5.713759   1.000000
    399          5.715604   1.000000
    400          5.718436   1.000000
    401          5.760855   1.000000
    402          5.896253   1.000000
    403          5.900537   1.000000
    404          5.901456   1.000000
    405          5.908206   1.000000
    406          5.946926   1.000000
    407          5.957812   1.000000
    408          5.994628   1.000000
    409          5.995230   1.000000
    410          5.998569   1.000000
    411          5.999310   1.000000
    412          6.000307   1.000000
    413          6.001742   1.000000
    414          6.004494   1.000000
    415          6.028093   1.000000
    416          6.052412   1.000000
    417          6.053161   1.000000
    418          6.055623   1.000000
    419          6.148199   1.000000
    420          6.178331   1.000000
    421          6.189034   1.000000
    422          6.191144   1.000000
    423          6.191624   1.000000
    424          6.192145   1.000000
    425          6.192913   1.000000
    426          6.200472   1.000000
    427          6.247850   1.000000
    428          6.304352   1.000000
    429          6.387658   1.000000
    430          6.564059   1.000000
    431          6.565540   1.000000
    432          6.571612   1.000000
    433          6.574796   1.000000
    434          6.582374   1.000000
    435          6.584663   1.000000
    436          6.584976   1.000000
    437          6.622402   1.000000
    438          6.666372   1.000000
    439          6.666813   1.000000
    440          6.673037   1.000000
    441          6.700063   1.000000
    442          6.706769   1.000000
    443          6.738599   1.000000
    444          6.759852   1.000000
    445          6.762915   1.000000
    446          6.766897   1.000000
    447          6.767057   1.000000
    448          6.770269   1.000000
    449          6.772383   1.000000
    450          6.773162   1.000000
    451          6.793041   1.000000
    452          6.827478   1.000000
    453          6.831692   1.000000
    454          6.833312   1.000000
    455          6.852432   1.000000
    456          6.859242   1.000000
    457          6.860354   1.000000
    458          6.865418   1.000000
    459          6.869386   1.000000
    460          6.871395   1.000000
    461          6.874103   1.000000
    462          6.879911   1.000000
    463          6.881531   1.000000
    464          6.881992   1.000000
    465          6.883247   1.000000
    466          6.888692   1.000000
    467          6.891804   1.000000
    468          6.891979   1.000000
    469          6.901796   1.000000
    470          6.906671   1.000000
    471          6.907894   1.000000
    472          6.916896   1.000000
    473          6.920602   1.000000
    474          6.926651   1.000000
    475          7.075309   1.000000
    476          7.131745   1.000000
    477          7.140733   1.000000
    478          7.195188   1.000000
    479          7.203326   1.000000
    480          7.203888   1.000000
    481          7.266065   1.000000
    482          7.329426   1.000000
    483          7.373895   1.000000
    484          7.419158   1.000000
    485          7.425155   1.000000
    486          7.429249   1.000000
    487          7.430626   1.000000
    488          7.433188   1.000000
    489          7.456744   1.000000
    490          7.464256   1.000000
    491          7.466505   1.000000
    492          7.478252   1.000000
    493          7.478522   1.000000
    494          7.601489   1.000000
    495          7.613859   1.000000
    496          7.616167   1.000000
    497          7.631242   1.000000
    498          7.664073   1.000000
    499          7.668967   1.000000
    500          7.676018   1.000000
    501          7.676329   1.000000
    502          7.680776   1.000000
    503          7.681191   1.000000
    504          7.686063   1.000000
    505          7.693755   1.000000
    506          7.705333   1.000000
    507          7.707206   1.000000
    508          7.707492   1.000000
    509          7.708429   1.000000
    510          7.710771   1.000000
    511          7.714995   1.000000
    512          7.718683   1.000000
    513          7.793028   1.000000
    514          7.798272   1.000000
    515          7.806354   1.000000
    516          7.812068   1.000000
    517          7.867347   1.000000
    518          7.882211   1.000000
    519          7.885499   1.000000
    520          7.886345   1.000000
    521          7.931857   1.000000
    522          7.939911   1.000000
    523          7.946644   1.000000
    524          7.948573   1.000000
    525          7.989485   1.000000
    526          8.008911   1.000000
    527          8.038265   1.000000
    528          8.076116   1.000000
    529          8.081847   1.000000
    530          8.086595   1.000000
    531          8.142269   1.000000
    532          8.246119   1.000003
    533          8.247075   1.000003
    534          8.252514   1.000004
    535          8.267395   1.000006
    536          8.287148   1.000011
    537          8.289629   1.000012
    538          8.289966   1.000012
    539          8.293900   1.000014
    540          8.297535   1.000016
    541          8.301666   1.000018
    542          8.303501   1.000019
    543          8.345402   1.000066
    544          8.360633   1.000102
    545          8.379872   1.000172
    546          8.392849   1.000242
    547          8.394345   1.000251
    548          8.395647   1.000260
    549          8.397505   1.000273
    550          8.399195   1.000285
    551          8.401797   1.000304
    552          8.406354   1.000342
    553          8.408887   1.000364
    554          8.411364   1.000387
    555          8.412105   1.000395
    556          8.413744   1.000411
    557          8.415637   1.000431
    558          8.417764   1.000454
    559          8.449374   1.000961
    560          8.459292   1.001202
    561          8.462999   1.001305
    562          8.472227   1.001595
    563          8.491769   1.002399
    564          8.513330   1.003666
    565          8.616515   1.018307
    566          8.633799   1.022184
    567          8.638106   1.023178
    568          8.645568   1.024905
    569          8.833308   0.929459
    570          8.872168   0.827579
    571          8.880844   0.799855
    572          8.884028   0.789261
    573          9.030926   0.211714
    574          9.051939   0.145905
    575          9.054438   0.138770
    576          9.055641   0.135390
    577          9.058296   0.128057
    578          9.059224   0.125533
    579          9.065971   0.107840
    580          9.070141   0.097476
    581          9.078011   0.079113
    582          9.085446   0.063203
    583          9.112853   0.016306
    584          9.115974   0.012091
    585          9.122921   0.003481
    586          9.128867  -0.003067
    587          9.131792  -0.006020
    588          9.135625  -0.009630
    589          9.137144  -0.010981
    590          9.140080  -0.013469
    591          9.140447  -0.013768
    592          9.147805  -0.019255
    593          9.148821  -0.019937
    594          9.149812  -0.020586
    595          9.153544  -0.022880
    596          9.153694  -0.022967
    597          9.156845  -0.024719
    598          9.157517  -0.025073
    599          9.159226  -0.025940
    600          9.161356  -0.026958
    601          9.165439  -0.028722
    602          9.165905  -0.028908
    603          9.166568  -0.029168
    604          9.173881  -0.031637
    605          9.288188  -0.020645
    606          9.291093  -0.019991
    607          9.297131  -0.018654
    608          9.303065  -0.017377
    609          9.305726  -0.016818
    610          9.313138  -0.015308
    611          9.316104  -0.014725
    612          9.318943  -0.014179
    613          9.320572  -0.013871
    614          9.326576  -0.012771
    615          9.373225  -0.006163
    616          9.385121  -0.005001
    617          9.411142  -0.003069
    618          9.412833  -0.002968
    619          9.423460  -0.002400
    620          9.439253  -0.001728
    621          9.553564  -0.000105
    622          9.568191  -0.000069
    623          9.569887  -0.000066
    624          9.589398  -0.000037
    625          9.590791  -0.000036
    626          9.594628  -0.000032
    627          9.598157  -0.000029
    628          9.613343  -0.000018
    629          9.664709  -0.000003
    630          9.667348  -0.000003
    631          9.669904  -0.000003
    632          9.687360  -0.000002
    633          9.696154  -0.000001
    634          9.705612  -0.000001
    635          9.710294  -0.000001
    636          9.713561  -0.000001
    637          9.714235  -0.000001
    638          9.716966  -0.000001
    639          9.718677  -0.000001
    640          9.720467  -0.000000
    641          9.722609  -0.000000
    642          9.726411  -0.000000
    643          9.728295  -0.000000
    644          9.750479  -0.000000
    645          9.763281  -0.000000
    646          9.769080  -0.000000
    647          9.777119  -0.000000
    648          9.783394  -0.000000
    649          9.828087  -0.000000
    650          9.851304  -0.000000
    651          9.901448  -0.000000
    652          9.903291  -0.000000
    653          9.909455  -0.000000
    654          9.910622  -0.000000
    655          9.919132  -0.000000
    656          9.924481  -0.000000
    657          9.950812  -0.000000
    658          9.956667  -0.000000
    659          9.962239  -0.000000
    660          9.965014  -0.000000
    661          9.968004  -0.000000
    662          9.969098  -0.000000
    663          9.974022  -0.000000
    664          9.977945  -0.000000
    665          9.981519  -0.000000
    666         10.013377  -0.000000
    667         10.015754  -0.000000
    668         10.020618  -0.000000
    669         10.033198  -0.000000
    670         10.040012  -0.000000
    671         10.106492  -0.000000
    672         10.130060  -0.000000
    673         10.200157  -0.000000
    674         10.203074  -0.000000
    675         10.205024  -0.000000
    676         10.209677  -0.000000
    677         10.210742  -0.000000
    678         10.211305  -0.000000
    679         10.223989  -0.000000
    680         10.227400  -0.000000
    681         10.240812  -0.000000
    682         10.251651  -0.000000
    683         10.252946  -0.000000
    684         10.267588  -0.000000
    685         10.268498  -0.000000
    686         10.281603  -0.000000
    687         10.283566  -0.000000
    688         10.284352  -0.000000
    689         10.285351  -0.000000
    690         10.295225  -0.000000
    691         10.301081  -0.000000
 
  0.2500000E+00  0.2500000E+00  0.0000000E+00  0.4166667E-01
      1        -39.914017   1.000000
      2        -39.890644   1.000000
      3        -39.882333   1.000000
      4        -39.873030   1.000000
      5        -39.860487   1.000000
      6        -39.852786   1.000000
      7        -39.849390   1.000000
      8        -39.848159   1.000000
      9        -39.846968   1.000000
     10        -39.840195   1.000000
     11        -39.836055   1.000000
     12        -39.829237   1.000000
     13        -39.826221   1.000000
     14        -39.820212   1.000000
     15        -39.817676   1.000000
     16        -39.809999   1.000000
     17        -39.808067   1.000000
     18        -39.806797   1.000000
     19        -39.802021   1.000000
     20        -39.799680   1.000000
     21        -39.797291   1.000000
     22        -39.794886   1.000000
     23        -39.788159   1.000000
     24        -39.786082   1.000000
     25        -39.785018   1.000000
     26        -39.783262   1.000000
     27        -39.781999   1.000000
     28        -39.781809   1.000000
     29        -39.781081   1.000000
     30        -39.779317   1.000000
     31        -39.777981   1.000000
     32        -39.777652   1.000000
     33        -39.776282   1.000000
     34        -39.774024   1.000000
     35        -39.772677   1.000000
     36        -39.771823   1.000000
     37        -39.770731   1.000000
     38        -39.768629   1.000000
     39        -39.768232   1.000000
     40        -39.766451   1.000000
     41        -39.766228   1.000000
     42        -39.766003   1.000000
     43        -39.762565   1.000000
     44        -39.759160   1.000000
     45        -39.757981   1.000000
     46        -39.757735   1.000000
     47        -39.755411   1.000000
     48        -39.754946   1.000000
     49        -39.754224   1.000000
     50        -39.752647   1.000000
     51        -39.751531   1.000000
     52        -39.750857   1.000000
     53        -39.750369   1.000000
     54        -39.749361   1.000000
     55        -39.747133   1.000000
     56        -39.746785   1.000000
     57        -39.745359   1.000000
     58        -39.744716   1.000000
     59        -39.742750   1.000000
     60        -39.742481   1.000000
     61        -39.741620   1.000000
     62        -39.740949   1.000000
     63        -39.740261   1.000000
     64        -39.738774   1.000000
     65        -39.738482   1.000000
     66        -39.737408   1.000000
     67        -39.735930   1.000000
     68        -39.735725   1.000000
     69        -39.734871   1.000000
     70        -39.734557   1.000000
     71        -39.734168   1.000000
     72        -39.733381   1.000000
     73        -39.733044   1.000000
     74        -39.731704   1.000000
     75        -39.731465   1.000000
     76        -39.729900   1.000000
     77        -39.729332   1.000000
     78        -39.728911   1.000000
     79        -39.728347   1.000000
     80        -39.727931   1.000000
     81        -39.726419   1.000000
     82        -39.725606   1.000000
     83        -39.725309   1.000000
     84        -39.723935   1.000000
     85        -39.723103   1.000000
     86        -39.721871   1.000000
     87        -39.721017   1.000000
     88        -39.720776   1.000000
     89        -39.719645   1.000000
     90        -39.717517   1.000000
     91        -39.712466   1.000000
     92        -39.711943   1.000000
     93        -39.705801   1.000000
     94        -39.705649   1.000000
     95        -39.702990   1.000000
     96        -39.700582   1.000000
     97        -18.383032   1.000000
     98        -18.341595   1.000000
     99        -18.334418   1.000000
    100        -18.322410   1.000000
    101        -18.299609   1.000000
    102        -18.293094   1.000000
    103        -18.286141   1.000000
    104        -18.285101   1.000000
    105        -18.284778   1.000000
    106        -18.268383   1.000000
    107        -18.257280   1.000000
    108        -18.255178   1.000000
    109        -18.254029   1.000000
    110        -18.249379   1.000000
    111        -18.244964   1.000000
    112        -18.241745   1.000000
    113        -18.237732   1.000000
    114        -18.234889   1.000000
    115        -18.231172   1.000000
    116        -18.227022   1.000000
    117        -18.225901   1.000000
    118        -18.220576   1.000000
    119        -18.217790   1.000000
    120        -18.216549   1.000000
    121        -18.215138   1.000000
    122        -18.210934   1.000000
    123        -18.199364   1.000000
    124        -18.192009   1.000000
    125        -18.190281   1.000000
    126        -18.188820   1.000000
    127        -18.187081   1.000000
    128        -18.185165   1.000000
    129        -18.183311   1.000000
    130        -18.181099   1.000000
    131        -18.180964   1.000000
    132        -18.180515   1.000000
    133        -18.179386   1.000000
    134        -18.177209   1.000000
    135        -18.176360   1.000000
    136        -18.176187   1.000000
    137        -18.173212   1.000000
    138        -18.170393   1.000000
    139        -18.166617   1.000000
    140        -18.166071   1.000000
    141        -18.165667   1.000000
    142        -18.164298   1.000000
    143        -18.163660   1.000000
    144        -18.161055   1.000000
    145        -18.160349   1.000000
    146        -18.158121   1.000000
    147        -18.157926   1.000000
    148        -18.155444   1.000000
    149        -18.154688   1.000000
    150        -18.152052   1.000000
    151        -18.149960   1.000000
    152        -18.148748   1.000000
    153        -18.146042   1.000000
    154        -18.144061   1.000000
    155        -18.143643   1.000000
    156        -18.129958   1.000000
    157        -18.124474   1.000000
    158        -18.123434   1.000000
    159        -18.119442   1.000000
    160        -18.115541   1.000000
    161        -18.112247   1.000000
    162        -18.108201   1.000000
    163        -18.105683   1.000000
    164        -18.103789   1.000000
    165        -18.092686   1.000000
    166        -18.089644   1.000000
    167        -18.066450   1.000000
    168        -18.059482   1.000000
    169        -18.059099   1.000000
    170        -18.054065   1.000000
    171        -18.053020   1.000000
    172        -18.044119   1.000000
    173        -18.041495   1.000000
    174        -18.030861   1.000000
    175        -18.027287   1.000000
    176        -18.023751   1.000000
    177        -18.020262   1.000000
    178        -18.019955   1.000000
    179        -18.016618   1.000000
    180        -18.000102   1.000000
    181        -17.995269   1.000000
    182        -17.983117   1.000000
    183        -17.978447   1.000000
    184        -17.974363   1.000000
    185        -17.972110   1.000000
    186        -17.970565   1.000000
    187        -17.966389   1.000000
    188        -17.964394   1.000000
    189        -17.961464   1.000000
    190        -17.953918   1.000000
    191        -17.947137   1.000000
    192        -17.942429   1.000000
    193        -17.942084   1.000000
    194        -17.939406   1.000000
    195        -17.917720   1.000000
    196        -17.909769   1.000000
    197        -17.908343   1.000000
    198        -17.903691   1.000000
    199        -17.902769   1.000000
    200        -17.901120   1.000000
    201        -17.882386   1.000000
    202        -17.873917   1.000000
    203        -17.872890   1.000000
    204        -17.872195   1.000000
    205        -17.861834   1.000000
    206        -17.856827   1.000000
    207        -17.852877   1.000000
    208        -17.846697   1.000000
    209        -17.844802   1.000000
    210        -17.836739   1.000000
    211        -17.825687   1.000000
    212        -17.821869   1.000000
    213        -17.816887   1.000000
    214        -17.814161   1.000000
    215        -17.812231   1.000000
    216        -17.811945   1.000000
    217        -17.805837   1.000000
    218        -17.804737   1.000000
    219        -17.803458   1.000000
    220        -17.799081   1.000000
    221        -17.797704   1.000000
    222        -17.797201   1.000000
    223        -17.795286   1.000000
    224        -17.794229   1.000000
    225        -17.793748   1.000000
    226        -17.789524   1.000000
    227        -17.788513   1.000000
    228        -17.782509   1.000000
    229        -17.781871   1.000000
    230        -17.778255   1.000000
    231        -17.778090   1.000000
    232        -17.774866   1.000000
    233        -17.772681   1.000000
    234        -17.771281   1.000000
    235        -17.770759   1.000000
    236        -17.767875   1.000000
    237        -17.764780   1.000000
    238        -17.762529   1.000000
    239        -17.758957   1.000000
    240        -17.756600   1.000000
    241        -17.756186   1.000000
    242        -17.756056   1.000000
    243        -17.744439   1.000000
    244        -17.741252   1.000000
    245        -17.737885   1.000000
    246        -17.734627   1.000000
    247        -17.730253   1.000000
    248        -17.728438   1.000000
    249        -17.727794   1.000000
    250        -17.726311   1.000000
    251        -17.725553   1.000000
    252        -17.724102   1.000000
    253        -17.719172   1.000000
    254        -17.717671   1.000000
    255        -17.717121   1.000000
    256        -17.711517   1.000000
    257        -17.709949   1.000000
    258        -17.706380   1.000000
    259        -17.703208   1.000000
    260        -17.702358   1.000000
    261        -17.698613   1.000000
    262        -17.697451   1.000000
    263        -17.695275   1.000000
    264        -17.694477   1.000000
    265        -17.692903   1.000000
    266        -17.690694   1.000000
    267        -17.684638   1.000000
    268        -17.684205   1.000000
    269        -17.683462   1.000000
    270        -17.682417   1.000000
    271        -17.676757   1.000000
    272        -17.675861   1.000000
    273        -17.674493   1.000000
    274        -17.673802   1.000000
    275        -17.672541   1.000000
    276        -17.671803   1.000000
    277        -17.671135   1.000000
    278        -17.667347   1.000000
    279        -17.666221   1.000000
    280        -17.664225   1.000000
    281        -17.659019   1.000000
    282        -17.656425   1.000000
    283        -17.655273   1.000000
    284        -17.653778   1.000000
    285        -17.653030   1.000000
    286        -17.648675   1.000000
    287        -17.647024   1.000000
    288        -17.646802   1.000000
    289        -17.646060   1.000000
    290        -17.644479   1.000000
    291        -17.642087   1.000000
    292        -17.640295   1.000000
    293        -17.639344   1.000000
    294        -17.637292   1.000000
    295        -17.637199   1.000000
    296        -17.632572   1.000000
    297        -17.629831   1.000000
    298        -17.628831   1.000000
    299        -17.628173   1.000000
    300        -17.627154   1.000000
    301        -17.626299   1.000000
    302        -17.621196   1.000000
    303        -17.620107   1.000000
    304        -17.614359   1.000000
    305        -17.612239   1.000000
    306        -17.611371   1.000000
    307        -17.608989   1.000000
    308        -17.604357   1.000000
    309        -17.603667   1.000000
    310        -17.601668   1.000000
    311        -17.601059   1.000000
    312        -17.599640   1.000000
    313        -17.590424   1.000000
    314        -17.589998   1.000000
    315        -17.589620   1.000000
    316        -17.588576   1.000000
    317        -17.586922   1.000000
    318        -17.584778   1.000000
    319        -17.584677   1.000000
    320        -17.583009   1.000000
    321        -17.582226   1.000000
    322        -17.581211   1.000000
    323        -17.580613   1.000000
    324        -17.579819   1.000000
    325        -17.578951   1.000000
    326        -17.577356   1.000000
    327        -17.576281   1.000000
    328        -17.575898   1.000000
    329        -17.573276   1.000000
    330        -17.572959   1.000000
    331        -17.571132   1.000000
    332        -17.570978   1.000000
    333        -17.568747   1.000000
    334        -17.566957   1.000000
    335        -17.566110   1.000000
    336        -17.564829   1.000000
    337        -17.564706   1.000000
    338        -17.564102   1.000000
    339        -17.563359   1.000000
    340        -17.563104   1.000000
    341        -17.561775   1.000000
    342        -17.560324   1.000000
    343        -17.559797   1.000000
    344        -17.558202   1.000000
    345        -17.557052   1.000000
    346        -17.555996   1.000000
    347        -17.554168   1.000000
    348        -17.553181   1.000000
    349        -17.551318   1.000000
    350        -17.548667   1.000000
    351        -17.547084   1.000000
    352        -17.546021   1.000000
    353        -17.544144   1.000000
    354        -17.537328   1.000000
    355        -17.536524   1.000000
    356        -17.535510   1.000000
    357        -17.534703   1.000000
    358        -17.532346   1.000000
    359        -17.530543   1.000000
    360        -17.526566   1.000000
    361        -17.524524   1.000000
    362        -17.522435   1.000000
    363        -17.520518   1.000000
    364        -17.517045   1.000000
    365        -17.515261   1.000000
    366        -17.514426   1.000000
    367        -17.512183   1.000000
    368        -17.511297   1.000000
    369        -17.508545   1.000000
    370        -17.492919   1.000000
    371        -17.491567   1.000000
    372        -17.491188   1.000000
    373        -17.489826   1.000000
    374        -17.488995   1.000000
    375        -17.483699   1.000000
    376        -17.480697   1.000000
    377        -17.470532   1.000000
    378        -17.467322   1.000000
    379        -17.465355   1.000000
    380        -17.460805   1.000000
    381        -17.448669   1.000000
    382        -17.446397   1.000000
    383        -17.442695   1.000000
    384        -17.430125   1.000000
    385          2.480566   1.000000
    386          3.671759   1.000000
    387          4.025346   1.000000
    388          4.105281   1.000000
    389          4.442623   1.000000
    390          4.508458   1.000000
    391          4.791152   1.000000
    392          4.793379   1.000000
    393          4.794395   1.000000
    394          4.903481   1.000000
    395          5.089438   1.000000
    396          5.156451   1.000000
    397          5.621793   1.000000
    398          5.622686   1.000000
    399          5.625832   1.000000
    400          5.655777   1.000000
    401          5.712175   1.000000
    402          5.789796   1.000000
    403          5.814654   1.000000
    404          5.913515   1.000000
    405          5.917070   1.000000
    406          5.921018   1.000000
    407          5.930505   1.000000
    408          5.961808   1.000000
    409          5.978104   1.000000
    410          5.984147   1.000000
    411          5.990497   1.000000
    412          5.993788   1.000000
    413          6.018791   1.000000
    414          6.049241   1.000000
    415          6.076529   1.000000
    416          6.174592   1.000000
    417          6.177244   1.000000
    418          6.179694   1.000000
    419          6.180488   1.000000
    420          6.181596   1.000000
    421          6.187009   1.000000
    422          6.214907   1.000000
    423          6.216710   1.000000
    424          6.234782   1.000000
    425          6.253814   1.000000
    426          6.281677   1.000000
    427          6.310311   1.000000
    428          6.312552   1.000000
    429          6.314975   1.000000
    430          6.430789   1.000000
    431          6.482620   1.000000
    432          6.489774   1.000000
    433          6.492882   1.000000
    434          6.505953   1.000000
    435          6.554051   1.000000
    436          6.571181   1.000000
    437          6.581444   1.000000
    438          6.585722   1.000000
    439          6.589123   1.000000
    440          6.627574   1.000000
    441          6.692733   1.000000
    442          6.693320   1.000000
    443          6.696291   1.000000
    444          6.704564   1.000000
    445          6.706866   1.000000
    446          6.712220   1.000000
    447          6.727188   1.000000
    448          6.746417   1.000000
    449          6.749186   1.000000
    450          6.786115   1.000000
    451          6.803722   1.000000
    452          6.810735   1.000000
    453          6.814829   1.000000
    454          6.824317   1.000000
    455          6.842874   1.000000
    456          6.873177   1.000000
    457          6.877959   1.000000
    458          6.882441   1.000000
    459          6.884508   1.000000
    460          6.898615   1.000000
    461          6.915181   1.000000
    462          6.919295   1.000000
    463          6.920212   1.000000
    464          6.947532   1.000000
    465          6.953816   1.000000
    466          6.963396   1.000000
    467          6.997029   1.000000
    468          6.998224   1.000000
    469          6.998474   1.000000
    470          7.000286   1.000000
    471          7.002562   1.000000
    472          7.063302   1.000000
    473          7.080674   1.000000
    474          7.083145   1.000000
    475          7.085655   1.000000
    476          7.088254   1.000000
    477          7.090255   1.000000
    478          7.128528   1.000000
    479          7.134150   1.000000
    480          7.148074   1.000000
    481          7.207459   1.000000
    482          7.208282   1.000000
    483          7.218882   1.000000
    484          7.298882   1.000000
    485          7.308688   1.000000
    486          7.312695   1.000000
    487          7.403996   1.000000
    488          7.417797   1.000000
    489          7.491128   1.000000
    490          7.521706   1.000000
    491          7.542031   1.000000
    492          7.612818   1.000000
    493          7.616198   1.000000
    494          7.622075   1.000000
    495          7.624361   1.000000
    496          7.628774   1.000000
    497          7.630390   1.000000
    498          7.634565   1.000000
    499          7.635595   1.000000
    500          7.640571   1.000000
    501          7.644313   1.000000
    502          7.645918   1.000000
    503          7.661729   1.000000
    504          7.701539   1.000000
    505          7.716420   1.000000
    506          7.732776   1.000000
    507          7.738416   1.000000
    508          7.741198   1.000000
    509          7.744045   1.000000
    510          7.746694   1.000000
    511          7.750794   1.000000
    512          7.753886   1.000000
    513          7.754448   1.000000
    514          7.775249   1.000000
    515          7.777368   1.000000
    516          7.778639   1.000000
    517          7.800533   1.000000
    518          7.824204   1.000000
    519          7.825214   1.000000
    520          7.900254   1.000000
    521          7.910208   1.000000
    522          7.914041   1.000000
    523          7.941418   1.000000
    524          8.040372   1.000000
    525          8.078771   1.000000
    526          8.091761   1.000000
    527          8.118300   1.000000
    528          8.130712   1.000000
    529          8.171652   1.000000
    530          8.183992   1.000000
    531          8.184571   1.000000
    532          8.196502   1.000001
    533          8.211518   1.000001
    534          8.211937   1.000001
    535          8.212841   1.000001
    536          8.221356   1.000001
    537          8.227892   1.000002
    538          8.232081   1.000002
    539          8.235841   1.000002
    540          8.239946   1.000002
    541          8.241251   1.000003
    542          8.286099   1.000011
    543          8.338650   1.000054
    544          8.342274   1.000060
    545          8.342868   1.000061
    546          8.350185   1.000076
    547          8.360278   1.000101
    548          8.370556   1.000133
    549          8.373746   1.000146
    550          8.375948   1.000154
    551          8.379696   1.000171
    552          8.384564   1.000194
    553          8.385167   1.000198
    554          8.388063   1.000213
    555          8.390969   1.000230
    556          8.397135   1.000270
    557          8.398930   1.000283
    558          8.406255   1.000341
    559          8.407503   1.000352
    560          8.496054   1.002616
    561          8.504110   1.003069
    562          8.508172   1.003321
    563          8.569864   1.009694
    564          8.582127   1.011636
    565          8.740013   1.032016
    566          8.752357   1.027648
    567          8.756382   1.025759
    568          8.762859   1.022192
    569          8.763460   1.021826
    570          8.771937   1.016017
    571          8.872886   0.825349
    572          8.892630   0.759565
    573          8.903456   0.720140
    574          8.907839   0.703587
    575          8.923515   0.642018
    576          8.931050   0.611341
    577          8.941473   0.568085
    578          8.951382   0.526388
    579          9.011499   0.280938
    580          9.027385   0.223772
    581          9.056679   0.132501
    582          9.062904   0.115741
    583          9.073852   0.088623
    584          9.076903   0.081604
    585          9.085063   0.063989
    586          9.086465   0.061131
    587          9.089490   0.055130
    588          9.091075   0.052078
    589          9.127176  -0.001280
    590          9.177685  -0.032650
    591          9.179691  -0.033114
    592          9.185016  -0.034124
    593          9.195647  -0.035264
    594          9.199152  -0.035412
    595          9.208539  -0.035326
    596          9.215744  -0.034847
    597          9.219604  -0.034465
    598          9.224824  -0.033826
    599          9.227020  -0.033519
    600          9.227944  -0.033383
    601          9.232249  -0.032708
    602          9.238512  -0.031608
    603          9.296089  -0.018883
    604          9.313195  -0.015297
    605          9.318114  -0.014337
    606          9.333295  -0.011606
    607          9.336448  -0.011085
    608          9.340943  -0.010369
    609          9.355949  -0.008213
    610          9.357244  -0.008043
    611          9.373847  -0.006098
    612          9.377876  -0.005686
    613          9.379936  -0.005484
    614          9.445429  -0.001514
    615          9.447797  -0.001438
    616          9.470123  -0.000872
    617          9.483690  -0.000634
    618          9.491668  -0.000523
    619          9.518419  -0.000268
    620          9.537580  -0.000162
    621          9.545692  -0.000130
    622          9.550712  -0.000113
    623          9.559267  -0.000089
    624          9.565124  -0.000076
    625          9.572250  -0.000062
    626          9.581078  -0.000048
    627          9.589540  -0.000037
    628          9.596652  -0.000030
    629          9.600521  -0.000027
    630          9.604863  -0.000023
    631          9.610838  -0.000020
    632          9.613809  -0.000018
    633          9.624858  -0.000013
    634          9.626540  -0.000012
    635          9.633555  -0.000010
    636          9.635210  -0.000009
    637          9.638497  -0.000008
    638          9.641043  -0.000008
    639          9.644762  -0.000007
    640          9.646862  -0.000006
    641          9.648956  -0.000006
    642          9.656617  -0.000005
    643          9.670704  -0.000003
    644          9.673513  -0.000003
    645          9.812763  -0.000000
    646          9.816451  -0.000000
    647          9.833580  -0.000000
    648          9.839254  -0.000000
    649          9.848784  -0.000000
    650          9.852347  -0.000000
    651          9.880265  -0.000000
    652          9.893114  -0.000000
    653          9.902909  -0.000000
    654          9.905883  -0.000000
    655          9.908832  -0.000000
    656          9.920624  -0.000000
    657          9.921736  -0.000000
    658          9.931035  -0.000000
    659          9.937020  -0.000000
    660          9.942025  -0.000000
    661          9.952150  -0.000000
    662          9.953747  -0.000000
    663         10.012816  -0.000000
    664         10.017463  -0.000000
    665         10.022645  -0.000000
    666         10.030632  -0.000000
    667         10.037364  -0.000000
    668         10.040615  -0.000000
    669         10.089210  -0.000000
    670         10.110895  -0.000000
    671         10.120615  -0.000000
    672         10.123144  -0.000000
    673         10.127994  -0.000000
    674         10.129460  -0.000000
    675         10.133290  -0.000000
    676         10.152772  -0.000000
    677         10.171774  -0.000000
    678         10.177128  -0.000000
    679         10.182488  -0.000000
    680         10.192339  -0.000000
    681         10.204961  -0.000000
    682         10.212218  -0.000000
    683         10.213887  -0.000000
    684         10.227026  -0.000000
    685         10.233114  -0.000000
    686         10.233335  -0.000000
    687         10.293109  -0.000000
    688         10.315838  -0.000000
    689         10.321659  -0.000000
    690         10.326645  -0.000000
    691         10.332561  -0.000000
 
 -0.2500000E+00  0.5000000E+00  0.0000000E+00  0.4166667E-01
      1        -39.914023   1.000000
      2        -39.890645   1.000000
      3        -39.882229   1.000000
      4        -39.873175   1.000000
      5        -39.860451   1.000000
      6        -39.852845   1.000000
      7        -39.849299   1.000000
      8        -39.848016   1.000000
      9        -39.847142   1.000000
     10        -39.840332   1.000000
     11        -39.835924   1.000000
     12        -39.829170   1.000000
     13        -39.826190   1.000000
     14        -39.820017   1.000000
     15        -39.818032   1.000000
     16        -39.809860   1.000000
     17        -39.808212   1.000000
     18        -39.806723   1.000000
     19        -39.802057   1.000000
     20        -39.799663   1.000000
     21        -39.797186   1.000000
     22        -39.794843   1.000000
     23        -39.787995   1.000000
     24        -39.786066   1.000000
     25        -39.785108   1.000000
     26        -39.783642   1.000000
     27        -39.782082   1.000000
     28        -39.781849   1.000000
     29        -39.780960   1.000000
     30        -39.779318   1.000000
     31        -39.777982   1.000000
     32        -39.777505   1.000000
     33        -39.776236   1.000000
     34        -39.774098   1.000000
     35        -39.772824   1.000000
     36        -39.771748   1.000000
     37        -39.770773   1.000000
     38        -39.768667   1.000000
     39        -39.768162   1.000000
     40        -39.766368   1.000000
     41        -39.766230   1.000000
     42        -39.765962   1.000000
     43        -39.762634   1.000000
     44        -39.759140   1.000000
     45        -39.757953   1.000000
     46        -39.757740   1.000000
     47        -39.755417   1.000000
     48        -39.754871   1.000000
     49        -39.754073   1.000000
     50        -39.752726   1.000000
     51        -39.751521   1.000000
     52        -39.751024   1.000000
     53        -39.750428   1.000000
     54        -39.749279   1.000000
     55        -39.747060   1.000000
     56        -39.746724   1.000000
     57        -39.745293   1.000000
     58        -39.744712   1.000000
     59        -39.742643   1.000000
     60        -39.742495   1.000000
     61        -39.741662   1.000000
     62        -39.741033   1.000000
     63        -39.740343   1.000000
     64        -39.738795   1.000000
     65        -39.738491   1.000000
     66        -39.737467   1.000000
     67        -39.735901   1.000000
     68        -39.735703   1.000000
     69        -39.734856   1.000000
     70        -39.734620   1.000000
     71        -39.734157   1.000000
     72        -39.733400   1.000000
     73        -39.733126   1.000000
     74        -39.731715   1.000000
     75        -39.731429   1.000000
     76        -39.729848   1.000000
     77        -39.729359   1.000000
     78        -39.728925   1.000000
     79        -39.728377   1.000000
     80        -39.727871   1.000000
     81        -39.726335   1.000000
     82        -39.725653   1.000000
     83        -39.725326   1.000000
     84        -39.723849   1.000000
     85        -39.723136   1.000000
     86        -39.721963   1.000000
     87        -39.720980   1.000000
     88        -39.720782   1.000000
     89        -39.719546   1.000000
     90        -39.717543   1.000000
     91        -39.712559   1.000000
     92        -39.711892   1.000000
     93        -39.705808   1.000000
     94        -39.705642   1.000000
     95        -39.702989   1.000000
     96        -39.700577   1.000000
     97        -18.383034   1.000000
     98        -18.341568   1.000000
     99        -18.334444   1.000000
    100        -18.322396   1.000000
    101        -18.299610   1.000000
    102        -18.293058   1.000000
    103        -18.286178   1.000000
    104        -18.285127   1.000000
    105        -18.284757   1.000000
    106        -18.268535   1.000000
    107        -18.257222   1.000000
    108        -18.255038   1.000000
    109        -18.254047   1.000000
    110        -18.249304   1.000000
    111        -18.244968   1.000000
    112        -18.241805   1.000000
    113        -18.237737   1.000000
    114        -18.234927   1.000000
    115        -18.231152   1.000000
    116        -18.227037   1.000000
    117        -18.225922   1.000000
    118        -18.220630   1.000000
    119        -18.217802   1.000000
    120        -18.216523   1.000000
    121        -18.215147   1.000000
    122        -18.210982   1.000000
    123        -18.199303   1.000000
    124        -18.191734   1.000000
    125        -18.190424   1.000000
    126        -18.188884   1.000000
    127        -18.187201   1.000000
    128        -18.185185   1.000000
    129        -18.183424   1.000000
    130        -18.181172   1.000000
    131        -18.181010   1.000000
    132        -18.180328   1.000000
    133        -18.179217   1.000000
    134        -18.177301   1.000000
    135        -18.176510   1.000000
    136        -18.176020   1.000000
    137        -18.173120   1.000000
    138        -18.170351   1.000000
    139        -18.166590   1.000000
    140        -18.166051   1.000000
    141        -18.165670   1.000000
    142        -18.164352   1.000000
    143        -18.163581   1.000000
    144        -18.160880   1.000000
    145        -18.160302   1.000000
    146        -18.158222   1.000000
    147        -18.157958   1.000000
    148        -18.155459   1.000000
    149        -18.154754   1.000000
    150        -18.152041   1.000000
    151        -18.149883   1.000000
    152        -18.148816   1.000000
    153        -18.146041   1.000000
    154        -18.144153   1.000000
    155        -18.143684   1.000000
    156        -18.130047   1.000000
    157        -18.124420   1.000000
    158        -18.123403   1.000000
    159        -18.119422   1.000000
    160        -18.115596   1.000000
    161        -18.112252   1.000000
    162        -18.108149   1.000000
    163        -18.105670   1.000000
    164        -18.103864   1.000000
    165        -18.092628   1.000000
    166        -18.089717   1.000000
    167        -18.066309   1.000000
    168        -18.059437   1.000000
    169        -18.059151   1.000000
    170        -18.054118   1.000000
    171        -18.053077   1.000000
    172        -18.044130   1.000000
    173        -18.041469   1.000000
    174        -18.030748   1.000000
    175        -18.027320   1.000000
    176        -18.023842   1.000000
    177        -18.020276   1.000000
    178        -18.020070   1.000000
    179        -18.016436   1.000000
    180        -18.000110   1.000000
    181        -17.995246   1.000000
    182        -17.983151   1.000000
    183        -17.978420   1.000000
    184        -17.974207   1.000000
    185        -17.972175   1.000000
    186        -17.970581   1.000000
    187        -17.966462   1.000000
    188        -17.964495   1.000000
    189        -17.961481   1.000000
    190        -17.953941   1.000000
    191        -17.947135   1.000000
    192        -17.942397   1.000000
    193        -17.941957   1.000000
    194        -17.939375   1.000000
    195        -17.917830   1.000000
    196        -17.909794   1.000000
    197        -17.908325   1.000000
    198        -17.903684   1.000000
    199        -17.902818   1.000000
    200        -17.901083   1.000000
    201        -17.882392   1.000000
    202        -17.873953   1.000000
    203        -17.872903   1.000000
    204        -17.872172   1.000000
    205        -17.861834   1.000000
    206        -17.856868   1.000000
    207        -17.852782   1.000000
    208        -17.846782   1.000000
    209        -17.844682   1.000000
    210        -17.836617   1.000000
    211        -17.825575   1.000000
    212        -17.821864   1.000000
    213        -17.816989   1.000000
    214        -17.814318   1.000000
    215        -17.812469   1.000000
    216        -17.811981   1.000000
    217        -17.805799   1.000000
    218        -17.804869   1.000000
    219        -17.803343   1.000000
    220        -17.799075   1.000000
    221        -17.797536   1.000000
    222        -17.797221   1.000000
    223        -17.795271   1.000000
    224        -17.794039   1.000000
    225        -17.793839   1.000000
    226        -17.789651   1.000000
    227        -17.788444   1.000000
    228        -17.782538   1.000000
    229        -17.781797   1.000000
    230        -17.778301   1.000000
    231        -17.778114   1.000000
    232        -17.774932   1.000000
    233        -17.772828   1.000000
    234        -17.771264   1.000000
    235        -17.770694   1.000000
    236        -17.767883   1.000000
    237        -17.764769   1.000000
    238        -17.762454   1.000000
    239        -17.758753   1.000000
    240        -17.756647   1.000000
    241        -17.756180   1.000000
    242        -17.756128   1.000000
    243        -17.744298   1.000000
    244        -17.741305   1.000000
    245        -17.738198   1.000000
    246        -17.734509   1.000000
    247        -17.730113   1.000000
    248        -17.728450   1.000000
    249        -17.727798   1.000000
    250        -17.726335   1.000000
    251        -17.725503   1.000000
    252        -17.724181   1.000000
    253        -17.719059   1.000000
    254        -17.717736   1.000000
    255        -17.717164   1.000000
    256        -17.711532   1.000000
    257        -17.709852   1.000000
    258        -17.706344   1.000000
    259        -17.703182   1.000000
    260        -17.702528   1.000000
    261        -17.698633   1.000000
    262        -17.697421   1.000000
    263        -17.695186   1.000000
    264        -17.694421   1.000000
    265        -17.692887   1.000000
    266        -17.690680   1.000000
    267        -17.684663   1.000000
    268        -17.684453   1.000000
    269        -17.683389   1.000000
    270        -17.682432   1.000000
    271        -17.676739   1.000000
    272        -17.675792   1.000000
    273        -17.674525   1.000000
    274        -17.673870   1.000000
    275        -17.672496   1.000000
    276        -17.671699   1.000000
    277        -17.671117   1.000000
    278        -17.667348   1.000000
    279        -17.666327   1.000000
    280        -17.664238   1.000000
    281        -17.659029   1.000000
    282        -17.656181   1.000000
    283        -17.655173   1.000000
    284        -17.653776   1.000000
    285        -17.653006   1.000000
    286        -17.648587   1.000000
    287        -17.647127   1.000000
    288        -17.646881   1.000000
    289        -17.646166   1.000000
    290        -17.644442   1.000000
    291        -17.641990   1.000000
    292        -17.640316   1.000000
    293        -17.639421   1.000000
    294        -17.637218   1.000000
    295        -17.637202   1.000000
    296        -17.632658   1.000000
    297        -17.629819   1.000000
    298        -17.628798   1.000000
    299        -17.628143   1.000000
    300        -17.627135   1.000000
    301        -17.626448   1.000000
    302        -17.621148   1.000000
    303        -17.620014   1.000000
    304        -17.614454   1.000000
    305        -17.612294   1.000000
    306        -17.611434   1.000000
    307        -17.609222   1.000000
    308        -17.604325   1.000000
    309        -17.603569   1.000000
    310        -17.601421   1.000000
    311        -17.600968   1.000000
    312        -17.599684   1.000000
    313        -17.590548   1.000000
    314        -17.590102   1.000000
    315        -17.589710   1.000000
    316        -17.588660   1.000000
    317        -17.586988   1.000000
    318        -17.584771   1.000000
    319        -17.584645   1.000000
    320        -17.583039   1.000000
    321        -17.581955   1.000000
    322        -17.581027   1.000000
    323        -17.580641   1.000000
    324        -17.580068   1.000000
    325        -17.578868   1.000000
    326        -17.577462   1.000000
    327        -17.576186   1.000000
    328        -17.575908   1.000000
    329        -17.573392   1.000000
    330        -17.572861   1.000000
    331        -17.571175   1.000000
    332        -17.570986   1.000000
    333        -17.568740   1.000000
    334        -17.566901   1.000000
    335        -17.566191   1.000000
    336        -17.564874   1.000000
    337        -17.564735   1.000000
    338        -17.564026   1.000000
    339        -17.563218   1.000000
    340        -17.563023   1.000000
    341        -17.561717   1.000000
    342        -17.560350   1.000000
    343        -17.559810   1.000000
    344        -17.558265   1.000000
    345        -17.556989   1.000000
    346        -17.555918   1.000000
    347        -17.554253   1.000000
    348        -17.553173   1.000000
    349        -17.551313   1.000000
    350        -17.548657   1.000000
    351        -17.547190   1.000000
    352        -17.546023   1.000000
    353        -17.544120   1.000000
    354        -17.537320   1.000000
    355        -17.536534   1.000000
    356        -17.535522   1.000000
    357        -17.534664   1.000000
    358        -17.532434   1.000000
    359        -17.530566   1.000000
    360        -17.526509   1.000000
    361        -17.524547   1.000000
    362        -17.522453   1.000000
    363        -17.520430   1.000000
    364        -17.516959   1.000000
    365        -17.515329   1.000000
    366        -17.514367   1.000000
    367        -17.512194   1.000000
    368        -17.511258   1.000000
    369        -17.508614   1.000000
    370        -17.492989   1.000000
    371        -17.491549   1.000000
    372        -17.491413   1.000000
    373        -17.489817   1.000000
    374        -17.488825   1.000000
    375        -17.483818   1.000000
    376        -17.480617   1.000000
    377        -17.470526   1.000000
    378        -17.467215   1.000000
    379        -17.465333   1.000000
    380        -17.460944   1.000000
    381        -17.448659   1.000000
    382        -17.446409   1.000000
    383        -17.442667   1.000000
    384        -17.430097   1.000000
    385          2.480570   1.000000
    386          3.671730   1.000000
    387          4.025454   1.000000
    388          4.105203   1.000000
    389          4.442623   1.000000
    390          4.508416   1.000000
    391          4.791084   1.000000
    392          4.793486   1.000000
    393          4.794462   1.000000
    394          4.903426   1.000000
    395          5.089435   1.000000
    396          5.156447   1.000000
    397          5.621834   1.000000
    398          5.622749   1.000000
    399          5.625784   1.000000
    400          5.655808   1.000000
    401          5.711977   1.000000
    402          5.789855   1.000000
    403          5.814615   1.000000
    404          5.913533   1.000000
    405          5.917056   1.000000
    406          5.921045   1.000000
    407          5.930363   1.000000
    408          5.961787   1.000000
    409          5.978130   1.000000
    410          5.984041   1.000000
    411          5.990465   1.000000
    412          5.993873   1.000000
    413          6.018957   1.000000
    414          6.049241   1.000000
    415          6.076657   1.000000
    416          6.174867   1.000000
    417          6.177134   1.000000
    418          6.179415   1.000000
    419          6.180598   1.000000
    420          6.181446   1.000000
    421          6.187024   1.000000
    422          6.214928   1.000000
    423          6.216766   1.000000
    424          6.234826   1.000000
    425          6.253779   1.000000
    426          6.281697   1.000000
    427          6.310158   1.000000
    428          6.312582   1.000000
    429          6.315152   1.000000
    430          6.430707   1.000000
    431          6.482719   1.000000
    432          6.489792   1.000000
    433          6.492765   1.000000
    434          6.505874   1.000000
    435          6.554227   1.000000
    436          6.571094   1.000000
    437          6.581438   1.000000
    438          6.585757   1.000000
    439          6.589126   1.000000
    440          6.627620   1.000000
    441          6.692630   1.000000
    442          6.693225   1.000000
    443          6.696007   1.000000
    444          6.704820   1.000000
    445          6.706833   1.000000
    446          6.712234   1.000000
    447          6.727181   1.000000
    448          6.746507   1.000000
    449          6.749262   1.000000
    450          6.785884   1.000000
    451          6.803803   1.000000
    452          6.810642   1.000000
    453          6.814880   1.000000
    454          6.824466   1.000000
    455          6.842862   1.000000
    456          6.872925   1.000000
    457          6.878264   1.000000
    458          6.882369   1.000000
    459          6.884523   1.000000
    460          6.898586   1.000000
    461          6.915040   1.000000
    462          6.919393   1.000000
    463          6.920156   1.000000
    464          6.947534   1.000000
    465          6.953787   1.000000
    466          6.963580   1.000000
    467          6.997288   1.000000
    468          6.998048   1.000000
    469          6.998357   1.000000
    470          7.000359   1.000000
    471          7.002622   1.000000
    472          7.063225   1.000000
    473          7.080690   1.000000
    474          7.083150   1.000000
    475          7.085672   1.000000
    476          7.088209   1.000000
    477          7.090443   1.000000
    478          7.128728   1.000000
    479          7.133898   1.000000
    480          7.148130   1.000000
    481          7.207529   1.000000
    482          7.208367   1.000000
    483          7.218773   1.000000
    484          7.298772   1.000000
    485          7.308816   1.000000
    486          7.312516   1.000000
    487          7.403998   1.000000
    488          7.417825   1.000000
    489          7.491114   1.000000
    490          7.521676   1.000000
    491          7.542109   1.000000
    492          7.613006   1.000000
    493          7.615709   1.000000
    494          7.621463   1.000000
    495          7.624696   1.000000
    496          7.628611   1.000000
    497          7.630879   1.000000
    498          7.634626   1.000000
    499          7.635561   1.000000
    500          7.640831   1.000000
    501          7.644129   1.000000
    502          7.645911   1.000000
    503          7.661649   1.000000
    504          7.701054   1.000000
    505          7.716617   1.000000
    506          7.733115   1.000000
    507          7.738257   1.000000
    508          7.741432   1.000000
    509          7.744201   1.000000
    510          7.747011   1.000000
    511          7.750722   1.000000
    512          7.753530   1.000000
    513          7.754035   1.000000
    514          7.775555   1.000000
    515          7.777402   1.000000
    516          7.778576   1.000000
    517          7.800531   1.000000
    518          7.824243   1.000000
    519          7.825210   1.000000
    520          7.900299   1.000000
    521          7.910168   1.000000
    522          7.914166   1.000000
    523          7.941405   1.000000
    524          8.040376   1.000000
    525          8.078734   1.000000
    526          8.091785   1.000000
    527          8.118262   1.000000
    528          8.130359   1.000000
    529          8.171925   1.000000
    530          8.183933   1.000000
    531          8.184972   1.000000
    532          8.195956   1.000001
    533          8.211503   1.000001
    534          8.212130   1.000001
    535          8.212567   1.000001
    536          8.221526   1.000001
    537          8.227908   1.000002
    538          8.231973   1.000002
    539          8.235907   1.000002
    540          8.239819   1.000002
    541          8.240995   1.000002
    542          8.286405   1.000011
    543          8.338647   1.000054
    544          8.342302   1.000060
    545          8.342893   1.000062
    546          8.350366   1.000076
    547          8.360453   1.000101
    548          8.370520   1.000133
    549          8.373771   1.000146
    550          8.375746   1.000154
    551          8.379627   1.000171
    552          8.384772   1.000196
    553          8.385194   1.000198
    554          8.388393   1.000215
    555          8.391468   1.000233
    556          8.396785   1.000268
    557          8.398837   1.000282
    558          8.406159   1.000340
    559          8.407026   1.000347
    560          8.496095   1.002618
    561          8.504189   1.003074
    562          8.508214   1.003324
    563          8.569850   1.009692
    564          8.582171   1.011644
    565          8.739803   1.032073
    566          8.752424   1.027618
    567          8.756530   1.025684
    568          8.762751   1.022257
    569          8.763891   1.021561
    570          8.771390   1.016429
    571          8.872692   0.825952
    572          8.892504   0.760014
    573          8.903399   0.720354
    574          8.908111   0.702547
    575          8.923634   0.641535
    576          8.931283   0.610384
    577          8.941949   0.566093
    578          8.950780   0.528933
    579          9.011375   0.281406
    580          9.027490   0.223411
    581          9.057319   0.130734
    582          9.063378   0.114507
    583          9.073404   0.089673
    584          9.076260   0.083063
    585          9.085227   0.063650
    586          9.086750   0.060556
    587          9.089513   0.055085
    588          9.091185   0.051868
    589          9.127008  -0.001099
    590          9.177665  -0.032645
    591          9.180176  -0.033219
    592          9.184690  -0.034071
    593          9.195541  -0.035258
    594          9.198932  -0.035406
    595          9.208938  -0.035308
    596          9.215600  -0.034860
    597          9.219707  -0.034454
    598          9.224423  -0.033879
    599          9.226870  -0.033540
    600          9.228448  -0.033308
    601          9.232169  -0.032721
    602          9.238164  -0.031673
    603          9.294749  -0.019178
    604          9.313374  -0.015261
    605          9.318218  -0.014317
    606          9.334289  -0.011440
    607          9.336533  -0.011071
    608          9.341058  -0.010351
    609          9.355889  -0.008221
    610          9.357297  -0.008037
    611          9.374143  -0.006066
    612          9.377895  -0.005684
    613          9.379953  -0.005482
    614          9.445261  -0.001519
    615          9.447688  -0.001441
    616          9.470156  -0.000871
    617          9.483541  -0.000637
    618          9.491959  -0.000520
    619          9.518607  -0.000267
    620          9.536947  -0.000165
    621          9.545792  -0.000130
    622          9.550901  -0.000113
    623          9.559649  -0.000088
    624          9.565370  -0.000075
    625          9.571924  -0.000062
    626          9.580856  -0.000048
    627          9.589696  -0.000037
    628          9.596503  -0.000030
    629          9.600343  -0.000027
    630          9.604495  -0.000024
    631          9.610992  -0.000019
    632          9.614237  -0.000018
    633          9.625121  -0.000013
    634          9.626263  -0.000012
    635          9.633250  -0.000010
    636          9.635188  -0.000009
    637          9.639003  -0.000008
    638          9.641119  -0.000007
    639          9.644663  -0.000007
    640          9.646900  -0.000006
    641          9.648952  -0.000006
    642          9.656346  -0.000005
    643          9.670442  -0.000003
    644          9.673353  -0.000003
    645          9.812640  -0.000000
    646          9.816584  -0.000000
    647          9.833400  -0.000000
    648          9.839707  -0.000000
    649          9.848769  -0.000000
    650          9.852396  -0.000000
    651          9.880112  -0.000000
    652          9.893180  -0.000000
    653          9.902800  -0.000000
    654          9.905716  -0.000000
    655          9.908665  -0.000000
    656          9.921088  -0.000000
    657          9.921757  -0.000000
    658          9.930409  -0.000000
    659          9.936768  -0.000000
    660          9.942577  -0.000000
    661          9.952110  -0.000000
    662          9.953610  -0.000000
    663         10.012889  -0.000000
    664         10.017512  -0.000000
    665         10.022699  -0.000000
    666         10.030589  -0.000000
    667         10.037415  -0.000000
    668         10.040519  -0.000000
    669         10.089533  -0.000000
    670         10.111086  -0.000000
    671         10.120353  -0.000000
    672         10.123046  -0.000000
    673         10.127814  -0.000000
    674         10.129643  -0.000000
    675         10.132938  -0.000000
    676         10.152679  -0.000000
    677         10.171694  -0.000000
    678         10.177373  -0.000000
    679         10.182694  -0.000000
    680         10.192206  -0.000000
    681         10.205024  -0.000000
    682         10.212255  -0.000000
    683         10.214057  -0.000000
    684         10.227041  -0.000000
    685         10.233113  -0.000000
    686         10.233569  -0.000000
    687         10.293067  -0.000000
    688         10.316075  -0.000000
    689         10.321106  -0.000000
    690         10.327009  -0.000000
    691         10.335100  -0.000000
 
  0.5000000E+00  0.2500000E+00  0.0000000E+00  0.4166667E-01
      1        -39.914017   1.000000
      2        -39.890644   1.000000
      3        -39.882333   1.000000
      4        -39.873030   1.000000
      5        -39.860487   1.000000
      6        -39.852786   1.000000
      7        -39.849390   1.000000
      8        -39.848159   1.000000
      9        -39.846968   1.000000
     10        -39.840195   1.000000
     11        -39.836055   1.000000
     12        -39.829237   1.000000
     13        -39.826221   1.000000
     14        -39.820212   1.000000
     15        -39.817676   1.000000
     16        -39.809999   1.000000
     17        -39.808067   1.000000
     18        -39.806797   1.000000
     19        -39.802021   1.000000
     20        -39.799680   1.000000
     21        -39.797291   1.000000
     22        -39.794886   1.000000
     23        -39.788159   1.000000
     24        -39.786082   1.000000
     25        -39.785018   1.000000
     26        -39.783263   1.000000
     27        -39.781999   1.000000
     28        -39.781809   1.000000
     29        -39.781081   1.000000
     30        -39.779317   1.000000
     31        -39.777981   1.000000
     32        -39.777652   1.000000
     33        -39.776282   1.000000
     34        -39.774024   1.000000
     35        -39.772677   1.000000
     36        -39.771823   1.000000
     37        -39.770731   1.000000
     38        -39.768629   1.000000
     39        -39.768232   1.000000
     40        -39.766451   1.000000
     41        -39.766228   1.000000
     42        -39.766003   1.000000
     43        -39.762565   1.000000
     44        -39.759160   1.000000
     45        -39.757981   1.000000
     46        -39.757735   1.000000
     47        -39.755411   1.000000
     48        -39.754946   1.000000
     49        -39.754224   1.000000
     50        -39.752647   1.000000
     51        -39.751531   1.000000
     52        -39.750857   1.000000
     53        -39.750369   1.000000
     54        -39.749361   1.000000
     55        -39.747133   1.000000
     56        -39.746785   1.000000
     57        -39.745359   1.000000
     58        -39.744716   1.000000
     59        -39.742750   1.000000
     60        -39.742481   1.000000
     61        -39.741620   1.000000
     62        -39.740949   1.000000
     63        -39.740261   1.000000
     64        -39.738774   1.000000
     65        -39.738482   1.000000
     66        -39.737408   1.000000
     67        -39.735930   1.000000
     68        -39.735725   1.000000
     69        -39.734871   1.000000
     70        -39.734557   1.000000
     71        -39.734168   1.000000
     72        -39.733381   1.000000
     73        -39.733044   1.000000
     74        -39.731704   1.000000
     75        -39.731465   1.000000
     76        -39.729900   1.000000
     77        -39.729332   1.000000
     78        -39.728911   1.000000
     79        -39.728347   1.000000
     80        -39.727931   1.000000
     81        -39.726419   1.000000
     82        -39.725607   1.000000
     83        -39.725309   1.000000
     84        -39.723935   1.000000
     85        -39.723103   1.000000
     86        -39.721871   1.000000
     87        -39.721017   1.000000
     88        -39.720776   1.000000
     89        -39.719645   1.000000
     90        -39.717517   1.000000
     91        -39.712465   1.000000
     92        -39.711943   1.000000
     93        -39.705801   1.000000
     94        -39.705649   1.000000
     95        -39.702990   1.000000
     96        -39.700582   1.000000
     97        -18.383032   1.000000
     98        -18.341595   1.000000
     99        -18.334418   1.000000
    100        -18.322410   1.000000
    101        -18.299609   1.000000
    102        -18.293094   1.000000
    103        -18.286141   1.000000
    104        -18.285101   1.000000
    105        -18.284778   1.000000
    106        -18.268383   1.000000
    107        -18.257280   1.000000
    108        -18.255178   1.000000
    109        -18.254029   1.000000
    110        -18.249378   1.000000
    111        -18.244964   1.000000
    112        -18.241745   1.000000
    113        -18.237732   1.000000
    114        -18.234889   1.000000
    115        -18.231172   1.000000
    116        -18.227022   1.000000
    117        -18.225901   1.000000
    118        -18.220576   1.000000
    119        -18.217790   1.000000
    120        -18.216549   1.000000
    121        -18.215138   1.000000
    122        -18.210934   1.000000
    123        -18.199364   1.000000
    124        -18.192009   1.000000
    125        -18.190281   1.000000
    126        -18.188820   1.000000
    127        -18.187081   1.000000
    128        -18.185165   1.000000
    129        -18.183311   1.000000
    130        -18.181099   1.000000
    131        -18.180964   1.000000
    132        -18.180515   1.000000
    133        -18.179386   1.000000
    134        -18.177209   1.000000
    135        -18.176360   1.000000
    136        -18.176187   1.000000
    137        -18.173212   1.000000
    138        -18.170393   1.000000
    139        -18.166617   1.000000
    140        -18.166071   1.000000
    141        -18.165667   1.000000
    142        -18.164298   1.000000
    143        -18.163660   1.000000
    144        -18.161055   1.000000
    145        -18.160349   1.000000
    146        -18.158121   1.000000
    147        -18.157926   1.000000
    148        -18.155444   1.000000
    149        -18.154688   1.000000
    150        -18.152052   1.000000
    151        -18.149960   1.000000
    152        -18.148748   1.000000
    153        -18.146042   1.000000
    154        -18.144061   1.000000
    155        -18.143643   1.000000
    156        -18.129958   1.000000
    157        -18.124474   1.000000
    158        -18.123434   1.000000
    159        -18.119442   1.000000
    160        -18.115541   1.000000
    161        -18.112247   1.000000
    162        -18.108201   1.000000
    163        -18.105683   1.000000
    164        -18.103789   1.000000
    165        -18.092686   1.000000
    166        -18.089644   1.000000
    167        -18.066450   1.000000
    168        -18.059482   1.000000
    169        -18.059099   1.000000
    170        -18.054065   1.000000
    171        -18.053020   1.000000
    172        -18.044119   1.000000
    173        -18.041495   1.000000
    174        -18.030861   1.000000
    175        -18.027287   1.000000
    176        -18.023751   1.000000
    177        -18.020262   1.000000
    178        -18.019955   1.000000
    179        -18.016618   1.000000
    180        -18.000102   1.000000
    181        -17.995269   1.000000
    182        -17.983117   1.000000
    183        -17.978447   1.000000
    184        -17.974363   1.000000
    185        -17.972110   1.000000
    186        -17.970565   1.000000
    187        -17.966389   1.000000
    188        -17.964395   1.000000
    189        -17.961464   1.000000
    190        -17.953918   1.000000
    191        -17.947137   1.000000
    192        -17.942429   1.000000
    193        -17.942084   1.000000
    194        -17.939406   1.000000
    195        -17.917719   1.000000
    196        -17.909769   1.000000
    197        -17.908343   1.000000
    198        -17.903691   1.000000
    199        -17.902769   1.000000
    200        -17.901120   1.000000
    201        -17.882386   1.000000
    202        -17.873917   1.000000
    203        -17.872890   1.000000
    204        -17.872195   1.000000
    205        -17.861834   1.000000
    206        -17.856827   1.000000
    207        -17.852877   1.000000
    208        -17.846697   1.000000
    209        -17.844802   1.000000
    210        -17.836739   1.000000
    211        -17.825687   1.000000
    212        -17.821869   1.000000
    213        -17.816887   1.000000
    214        -17.814161   1.000000
    215        -17.812231   1.000000
    216        -17.811945   1.000000
    217        -17.805837   1.000000
    218        -17.804737   1.000000
    219        -17.803458   1.000000
    220        -17.799081   1.000000
    221        -17.797704   1.000000
    222        -17.797201   1.000000
    223        -17.795286   1.000000
    224        -17.794229   1.000000
    225        -17.793748   1.000000
    226        -17.789524   1.000000
    227        -17.788513   1.000000
    228        -17.782509   1.000000
    229        -17.781871   1.000000
    230        -17.778255   1.000000
    231        -17.778090   1.000000
    232        -17.774866   1.000000
    233        -17.772681   1.000000
    234        -17.771281   1.000000
    235        -17.770759   1.000000
    236        -17.767875   1.000000
    237        -17.764780   1.000000
    238        -17.762529   1.000000
    239        -17.758957   1.000000
    240        -17.756600   1.000000
    241        -17.756186   1.000000
    242        -17.756056   1.000000
    243        -17.744439   1.000000
    244        -17.741252   1.000000
    245        -17.737885   1.000000
    246        -17.734627   1.000000
    247        -17.730253   1.000000
    248        -17.728438   1.000000
    249        -17.727794   1.000000
    250        -17.726311   1.000000
    251        -17.725553   1.000000
    252        -17.724102   1.000000
    253        -17.719172   1.000000
    254        -17.717671   1.000000
    255        -17.717121   1.000000
    256        -17.711517   1.000000
    257        -17.709949   1.000000
    258        -17.706380   1.000000
    259        -17.703208   1.000000
    260        -17.702359   1.000000
    261        -17.698613   1.000000
    262        -17.697451   1.000000
    263        -17.695275   1.000000
    264        -17.694477   1.000000
    265        -17.692903   1.000000
    266        -17.690694   1.000000
    267        -17.684638   1.000000
    268        -17.684205   1.000000
    269        -17.683462   1.000000
    270        -17.682417   1.000000
    271        -17.676757   1.000000
    272        -17.675861   1.000000
    273        -17.674493   1.000000
    274        -17.673802   1.000000
    275        -17.672541   1.000000
    276        -17.671803   1.000000
    277        -17.671135   1.000000
    278        -17.667347   1.000000
    279        -17.666221   1.000000
    280        -17.664225   1.000000
    281        -17.659019   1.000000
    282        -17.656425   1.000000
    283        -17.655273   1.000000
    284        -17.653778   1.000000
    285        -17.653030   1.000000
    286        -17.648675   1.000000
    287        -17.647024   1.000000
    288        -17.646802   1.000000
    289        -17.646060   1.000000
    290        -17.644479   1.000000
    291        -17.642087   1.000000
    292        -17.640295   1.000000
    293        -17.639344   1.000000
    294        -17.637292   1.000000
    295        -17.637199   1.000000
    296        -17.632572   1.000000
    297        -17.629831   1.000000
    298        -17.628831   1.000000
    299        -17.628173   1.000000
    300        -17.627154   1.000000
    301        -17.626299   1.000000
    302        -17.621196   1.000000
    303        -17.620107   1.000000
    304        -17.614359   1.000000
    305        -17.612239   1.000000
    306        -17.611371   1.000000
    307        -17.608989   1.000000
    308        -17.604357   1.000000
    309        -17.603667   1.000000
    310        -17.601668   1.000000
    311        -17.601059   1.000000
    312        -17.599640   1.000000
    313        -17.590424   1.000000
    314        -17.589998   1.000000
    315        -17.589620   1.000000
    316        -17.588576   1.000000
    317        -17.586922   1.000000
    318        -17.584778   1.000000
    319        -17.584677   1.000000
    320        -17.583009   1.000000
    321        -17.582226   1.000000
    322        -17.581211   1.000000
    323        -17.580614   1.000000
    324        -17.579819   1.000000
    325        -17.578951   1.000000
    326        -17.577356   1.000000
    327        -17.576281   1.000000
    328        -17.575898   1.000000
    329        -17.573276   1.000000
    330        -17.572959   1.000000
    331        -17.571132   1.000000
    332        -17.570978   1.000000
    333        -17.568747   1.000000
    334        -17.566957   1.000000
    335        -17.566110   1.000000
    336        -17.564829   1.000000
    337        -17.564706   1.000000
    338        -17.564102   1.000000
    339        -17.563359   1.000000
    340        -17.563104   1.000000
    341        -17.561775   1.000000
    342        -17.560324   1.000000
    343        -17.559797   1.000000
    344        -17.558202   1.000000
    345        -17.557052   1.000000
    346        -17.555996   1.000000
    347        -17.554168   1.000000
    348        -17.553181   1.000000
    349        -17.551318   1.000000
    350        -17.548667   1.000000
    351        -17.547084   1.000000
    352        -17.546021   1.000000
    353        -17.544144   1.000000
    354        -17.537328   1.000000
    355        -17.536524   1.000000
    356        -17.535510   1.000000
    357        -17.534703   1.000000
    358        -17.532346   1.000000
    359        -17.530543   1.000000
    360        -17.526566   1.000000
    361        -17.524524   1.000000
    362        -17.522435   1.000000
    363        -17.520518   1.000000
    364        -17.517045   1.000000
    365        -17.515261   1.000000
    366        -17.514426   1.000000
    367        -17.512183   1.000000
    368        -17.511297   1.000000
    369        -17.508545   1.000000
    370        -17.492919   1.000000
    371        -17.491567   1.000000
    372        -17.491188   1.000000
    373        -17.489826   1.000000
    374        -17.488995   1.000000
    375        -17.483699   1.000000
    376        -17.480697   1.000000
    377        -17.470532   1.000000
    378        -17.467322   1.000000
    379        -17.465355   1.000000
    380        -17.460805   1.000000
    381        -17.448669   1.000000
    382        -17.446397   1.000000
    383        -17.442695   1.000000
    384        -17.430125   1.000000
    385          2.480566   1.000000
    386          3.671759   1.000000
    387          4.025346   1.000000
    388          4.105281   1.000000
    389          4.442623   1.000000
    390          4.508458   1.000000
    391          4.791152   1.000000
    392          4.793379   1.000000
    393          4.794395   1.000000
    394          4.903482   1.000000
    395          5.089438   1.000000
    396          5.156451   1.000000
    397          5.621793   1.000000
    398          5.622686   1.000000
    399          5.625832   1.000000
    400          5.655777   1.000000
    401          5.712175   1.000000
    402          5.789796   1.000000
    403          5.814654   1.000000
    404          5.913515   1.000000
    405          5.917070   1.000000
    406          5.921018   1.000000
    407          5.930505   1.000000
    408          5.961808   1.000000
    409          5.978104   1.000000
    410          5.984147   1.000000
    411          5.990496   1.000000
    412          5.993788   1.000000
    413          6.018791   1.000000
    414          6.049241   1.000000
    415          6.076529   1.000000
    416          6.174592   1.000000
    417          6.177244   1.000000
    418          6.179694   1.000000
    419          6.180488   1.000000
    420          6.181596   1.000000
    421          6.187009   1.000000
    422          6.214907   1.000000
    423          6.216710   1.000000
    424          6.234782   1.000000
    425          6.253814   1.000000
    426          6.281677   1.000000
    427          6.310311   1.000000
    428          6.312552   1.000000
    429          6.314975   1.000000
    430          6.430789   1.000000
    431          6.482620   1.000000
    432          6.489774   1.000000
    433          6.492882   1.000000
    434          6.505953   1.000000
    435          6.554051   1.000000
    436          6.571181   1.000000
    437          6.581444   1.000000
    438          6.585722   1.000000
    439          6.589123   1.000000
    440          6.627574   1.000000
    441          6.692733   1.000000
    442          6.693320   1.000000
    443          6.696291   1.000000
    444          6.704564   1.000000
    445          6.706866   1.000000
    446          6.712220   1.000000
    447          6.727188   1.000000
    448          6.746417   1.000000
    449          6.749186   1.000000
    450          6.786115   1.000000
    451          6.803722   1.000000
    452          6.810735   1.000000
    453          6.814829   1.000000
    454          6.824317   1.000000
    455          6.842874   1.000000
    456          6.873177   1.000000
    457          6.877959   1.000000
    458          6.882441   1.000000
    459          6.884508   1.000000
    460          6.898615   1.000000
    461          6.915181   1.000000
    462          6.919295   1.000000
    463          6.920212   1.000000
    464          6.947532   1.000000
    465          6.953816   1.000000
    466          6.963396   1.000000
    467          6.997029   1.000000
    468          6.998224   1.000000
    469          6.998474   1.000000
    470          7.000286   1.000000
    471          7.002562   1.000000
    472          7.063302   1.000000
    473          7.080674   1.000000
    474          7.083145   1.000000
    475          7.085655   1.000000
    476          7.088254   1.000000
    477          7.090255   1.000000
    478          7.128528   1.000000
    479          7.134151   1.000000
    480          7.148074   1.000000
    481          7.207459   1.000000
    482          7.208282   1.000000
    483          7.218882   1.000000
    484          7.298883   1.000000
    485          7.308688   1.000000
    486          7.312695   1.000000
    487          7.403996   1.000000
    488          7.417797   1.000000
    489          7.491128   1.000000
    490          7.521706   1.000000
    491          7.542031   1.000000
    492          7.612818   1.000000
    493          7.616197   1.000000
    494          7.622075   1.000000
    495          7.624361   1.000000
    496          7.628774   1.000000
    497          7.630390   1.000000
    498          7.634565   1.000000
    499          7.635595   1.000000
    500          7.640571   1.000000
    501          7.644313   1.000000
    502          7.645918   1.000000
    503          7.661729   1.000000
    504          7.701539   1.000000
    505          7.716420   1.000000
    506          7.732776   1.000000
    507          7.738416   1.000000
    508          7.741198   1.000000
    509          7.744045   1.000000
    510          7.746694   1.000000
    511          7.750794   1.000000
    512          7.753886   1.000000
    513          7.754448   1.000000
    514          7.775249   1.000000
    515          7.777368   1.000000
    516          7.778639   1.000000
    517          7.800533   1.000000
    518          7.824204   1.000000
    519          7.825214   1.000000
    520          7.900254   1.000000
    521          7.910208   1.000000
    522          7.914041   1.000000
    523          7.941418   1.000000
    524          8.040372   1.000000
    525          8.078771   1.000000
    526          8.091761   1.000000
    527          8.118300   1.000000
    528          8.130712   1.000000
    529          8.171652   1.000000
    530          8.183992   1.000000
    531          8.184571   1.000000
    532          8.196502   1.000001
    533          8.211518   1.000001
    534          8.211937   1.000001
    535          8.212841   1.000001
    536          8.221356   1.000001
    537          8.227892   1.000002
    538          8.232081   1.000002
    539          8.235841   1.000002
    540          8.239946   1.000002
    541          8.241251   1.000003
    542          8.286099   1.000011
    543          8.338650   1.000054
    544          8.342274   1.000060
    545          8.342868   1.000061
    546          8.350185   1.000076
    547          8.360278   1.000101
    548          8.370556   1.000133
    549          8.373746   1.000146
    550          8.375948   1.000154
    551          8.379696   1.000171
    552          8.384564   1.000194
    553          8.385167   1.000198
    554          8.388063   1.000213
    555          8.390969   1.000230
    556          8.397135   1.000270
    557          8.398930   1.000283
    558          8.406255   1.000341
    559          8.407503   1.000352
    560          8.496054   1.002616
    561          8.504110   1.003069
    562          8.508172   1.003321
    563          8.569864   1.009694
    564          8.582127   1.011636
    565          8.740013   1.032016
    566          8.752357   1.027648
    567          8.756382   1.025759
    568          8.762859   1.022192
    569          8.763460   1.021826
    570          8.771937   1.016016
    571          8.872886   0.825349
    572          8.892631   0.759565
    573          8.903456   0.720140
    574          8.907839   0.703587
    575          8.923515   0.642018
    576          8.931050   0.611341
    577          8.941473   0.568085
    578          8.951382   0.526388
    579          9.011499   0.280938
    580          9.027385   0.223772
    581          9.056679   0.132501
    582          9.062904   0.115741
    583          9.073852   0.088623
    584          9.076903   0.081604
    585          9.085063   0.063989
    586          9.086464   0.061131
    587          9.089490   0.055130
    588          9.091075   0.052078
    589          9.127176  -0.001280
    590          9.177685  -0.032650
    591          9.179692  -0.033114
    592          9.185016  -0.034124
    593          9.195647  -0.035264
    594          9.199152  -0.035412
    595          9.208539  -0.035326
    596          9.215744  -0.034847
    597          9.219604  -0.034465
    598          9.224824  -0.033826
    599          9.227020  -0.033519
    600          9.227944  -0.033383
    601          9.232249  -0.032708
    602          9.238512  -0.031608
    603          9.296089  -0.018883
    604          9.313195  -0.015297
    605          9.318114  -0.014337
    606          9.333295  -0.011606
    607          9.336448  -0.011085
    608          9.340943  -0.010369
    609          9.355948  -0.008213
    610          9.357244  -0.008043
    611          9.373847  -0.006098
    612          9.377876  -0.005686
    613          9.379936  -0.005484
    614          9.445429  -0.001514
    615          9.447797  -0.001438
    616          9.470122  -0.000872
    617          9.483690  -0.000634
    618          9.491668  -0.000523
    619          9.518419  -0.000268
    620          9.537580  -0.000162
    621          9.545692  -0.000130
    622          9.550712  -0.000113
    623          9.559267  -0.000089
    624          9.565124  -0.000076
    625          9.572250  -0.000062
    626          9.581078  -0.000048
    627          9.589540  -0.000037
    628          9.596652  -0.000030
    629          9.600521  -0.000027
    630          9.604863  -0.000023
    631          9.610838  -0.000020
    632          9.613809  -0.000018
    633          9.624858  -0.000013
    634          9.626540  -0.000012
    635          9.633555  -0.000010
    636          9.635210  -0.000009
    637          9.638497  -0.000008
    638          9.641043  -0.000008
    639          9.644762  -0.000007
    640          9.646862  -0.000006
    641          9.648956  -0.000006
    642          9.656617  -0.000005
    643          9.670704  -0.000003
    644          9.673513  -0.000003
    645          9.812763  -0.000000
    646          9.816451  -0.000000
    647          9.833580  -0.000000
    648          9.839254  -0.000000
    649          9.848784  -0.000000
    650          9.852347  -0.000000
    651          9.880264  -0.000000
    652          9.893114  -0.000000
    653          9.902909  -0.000000
    654          9.905883  -0.000000
    655          9.908832  -0.000000
    656          9.920623  -0.000000
    657          9.921736  -0.000000
    658          9.931035  -0.000000
    659          9.937020  -0.000000
    660          9.942025  -0.000000
    661          9.952150  -0.000000
    662          9.953747  -0.000000
    663         10.012816  -0.000000
    664         10.017463  -0.000000
    665         10.022645  -0.000000
    666         10.030632  -0.000000
    667         10.037364  -0.000000
    668         10.040615  -0.000000
    669         10.089210  -0.000000
    670         10.110895  -0.000000
    671         10.120615  -0.000000
    672         10.123144  -0.000000
    673         10.127994  -0.000000
    674         10.129460  -0.000000
    675         10.133290  -0.000000
    676         10.152772  -0.000000
    677         10.171774  -0.000000
    678         10.177128  -0.000000
    679         10.182488  -0.000000
    680         10.192339  -0.000000
    681         10.204961  -0.000000
    682         10.212218  -0.000000
    683         10.213887  -0.000000
    684         10.227026  -0.000000
    685         10.233114  -0.000000
    686         10.233335  -0.000000
    687         10.293109  -0.000000
    688         10.315838  -0.000000
    689         10.321681  -0.000000
    690         10.326974  -0.000000
    691         10.339383  -0.000000
 
  0.0000000E+00  0.0000000E+00  0.3333333E+00  0.4166667E-01
      1        -39.916271   1.000000
      2        -39.898232   1.000000
      3        -39.879752   1.000000
      4        -39.866988   1.000000
      5        -39.852323   1.000000
      6        -39.851836   1.000000
      7        -39.845734   1.000000
      8        -39.837067   1.000000
      9        -39.836776   1.000000
     10        -39.836747   1.000000
     11        -39.832873   1.000000
     12        -39.832560   1.000000
     13        -39.829782   1.000000
     14        -39.827290   1.000000
     15        -39.827082   1.000000
     16        -39.827044   1.000000
     17        -39.817762   1.000000
     18        -39.807403   1.000000
     19        -39.806952   1.000000
     20        -39.806848   1.000000
     21        -39.797170   1.000000
     22        -39.796830   1.000000
     23        -39.795055   1.000000
     24        -39.789757   1.000000
     25        -39.788193   1.000000
     26        -39.787985   1.000000
     27        -39.780103   1.000000
     28        -39.779743   1.000000
     29        -39.776638   1.000000
     30        -39.773917   1.000000
     31        -39.769251   1.000000
     32        -39.769072   1.000000
     33        -39.766975   1.000000
     34        -39.766681   1.000000
     35        -39.766469   1.000000
     36        -39.766403   1.000000
     37        -39.765466   1.000000
     38        -39.765123   1.000000
     39        -39.765097   1.000000
     40        -39.763585   1.000000
     41        -39.763375   1.000000
     42        -39.763281   1.000000
     43        -39.762258   1.000000
     44        -39.762205   1.000000
     45        -39.760276   1.000000
     46        -39.760106   1.000000
     47        -39.759576   1.000000
     48        -39.758264   1.000000
     49        -39.756919   1.000000
     50        -39.753947   1.000000
     51        -39.752914   1.000000
     52        -39.752631   1.000000
     53        -39.749406   1.000000
     54        -39.749384   1.000000
     55        -39.747987   1.000000
     56        -39.747955   1.000000
     57        -39.747421   1.000000
     58        -39.745777   1.000000
     59        -39.745512   1.000000
     60        -39.744761   1.000000
     61        -39.742301   1.000000
     62        -39.742259   1.000000
     63        -39.741880   1.000000
     64        -39.739806   1.000000
     65        -39.738971   1.000000
     66        -39.738956   1.000000
     67        -39.736813   1.000000
     68        -39.736786   1.000000
     69        -39.736554   1.000000
     70        -39.736439   1.000000
     71        -39.736409   1.000000
     72        -39.733674   1.000000
     73        -39.733498   1.000000
     74        -39.733325   1.000000
     75        -39.733233   1.000000
     76        -39.729295   1.000000
     77        -39.729103   1.000000
     78        -39.729007   1.000000
     79        -39.726046   1.000000
     80        -39.724763   1.000000
     81        -39.724520   1.000000
     82        -39.722630   1.000000
     83        -39.722309   1.000000
     84        -39.722293   1.000000
     85        -39.722123   1.000000
     86        -39.720975   1.000000
     87        -39.720967   1.000000
     88        -39.720591   1.000000
     89        -39.719421   1.000000
     90        -39.719217   1.000000
     91        -39.713834   1.000000
     92        -39.713614   1.000000
     93        -39.705996   1.000000
     94        -39.705955   1.000000
     95        -39.702466   1.000000
     96        -39.700353   1.000000
     97        -18.389812   1.000000
     98        -18.350682   1.000000
     99        -18.328601   1.000000
    100        -18.328584   1.000000
    101        -18.318192   1.000000
    102        -18.310625   1.000000
    103        -18.310619   1.000000
    104        -18.309370   1.000000
    105        -18.300423   1.000000
    106        -18.294746   1.000000
    107        -18.294719   1.000000
    108        -18.275738   1.000000
    109        -18.270709   1.000000
    110        -18.270658   1.000000
    111        -18.249515   1.000000
    112        -18.239989   1.000000
    113        -18.239979   1.000000
    114        -18.234226   1.000000
    115        -18.234120   1.000000
    116        -18.233360   1.000000
    117        -18.231646   1.000000
    118        -18.217671   1.000000
    119        -18.217469   1.000000
    120        -18.216469   1.000000
    121        -18.214212   1.000000
    122        -18.214170   1.000000
    123        -18.212885   1.000000
    124        -18.211183   1.000000
    125        -18.211145   1.000000
    126        -18.207587   1.000000
    127        -18.207508   1.000000
    128        -18.205821   1.000000
    129        -18.198436   1.000000
    130        -18.197205   1.000000
    131        -18.197190   1.000000
    132        -18.195802   1.000000
    133        -18.193748   1.000000
    134        -18.193694   1.000000
    135        -18.178449   1.000000
    136        -18.171340   1.000000
    137        -18.171164   1.000000
    138        -18.166764   1.000000
    139        -18.166740   1.000000
    140        -18.165050   1.000000
    141        -18.163365   1.000000
    142        -18.159612   1.000000
    143        -18.159550   1.000000
    144        -18.130713   1.000000
    145        -18.130646   1.000000
    146        -18.130385   1.000000
    147        -18.126149   1.000000
    148        -18.126135   1.000000
    149        -18.124098   1.000000
    150        -18.120268   1.000000
    151        -18.113861   1.000000
    152        -18.113782   1.000000
    153        -18.108625   1.000000
    154        -18.108603   1.000000
    155        -18.108407   1.000000
    156        -18.104292   1.000000
    157        -18.104237   1.000000
    158        -18.104188   1.000000
    159        -18.102841   1.000000
    160        -18.101054   1.000000
    161        -18.101043   1.000000
    162        -18.099771   1.000000
    163        -18.099696   1.000000
    164        -18.098989   1.000000
    165        -18.097790   1.000000
    166        -18.096014   1.000000
    167        -18.096008   1.000000
    168        -18.095207   1.000000
    169        -18.093115   1.000000
    170        -18.093060   1.000000
    171        -18.031308   1.000000
    172        -18.027976   1.000000
    173        -18.027891   1.000000
    174        -18.025547   1.000000
    175        -18.018942   1.000000
    176        -18.018813   1.000000
    177        -18.016751   1.000000
    178        -17.962584   1.000000
    179        -17.951407   1.000000
    180        -17.951280   1.000000
    181        -17.927956   1.000000
    182        -17.927615   1.000000
    183        -17.923877   1.000000
    184        -17.915183   1.000000
    185        -17.915124   1.000000
    186        -17.911225   1.000000
    187        -17.910646   1.000000
    188        -17.910635   1.000000
    189        -17.897685   1.000000
    190        -17.892936   1.000000
    191        -17.892898   1.000000
    192        -17.887479   1.000000
    193        -17.887394   1.000000
    194        -17.884584   1.000000
    195        -17.884260   1.000000
    196        -17.883434   1.000000
    197        -17.881203   1.000000
    198        -17.881163   1.000000
    199        -17.878089   1.000000
    200        -17.877242   1.000000
    201        -17.877064   1.000000
    202        -17.874434   1.000000
    203        -17.873542   1.000000
    204        -17.873231   1.000000
    205        -17.868703   1.000000
    206        -17.866406   1.000000
    207        -17.866360   1.000000
    208        -17.863555   1.000000
    209        -17.863554   1.000000
    210        -17.857281   1.000000
    211        -17.856679   1.000000
    212        -17.853440   1.000000
    213        -17.853283   1.000000
    214        -17.853008   1.000000
    215        -17.851745   1.000000
    216        -17.851480   1.000000
    217        -17.851336   1.000000
    218        -17.849489   1.000000
    219        -17.847100   1.000000
    220        -17.847084   1.000000
    221        -17.838389   1.000000
    222        -17.838382   1.000000
    223        -17.835126   1.000000
    224        -17.828919   1.000000
    225        -17.828758   1.000000
    226        -17.826474   1.000000
    227        -17.826332   1.000000
    228        -17.824735   1.000000
    229        -17.820705   1.000000
    230        -17.820232   1.000000
    231        -17.816333   1.000000
    232        -17.816192   1.000000
    233        -17.813486   1.000000
    234        -17.813335   1.000000
    235        -17.810316   1.000000
    236        -17.810103   1.000000
    237        -17.809336   1.000000
    238        -17.806140   1.000000
    239        -17.789279   1.000000
    240        -17.789205   1.000000
    241        -17.784010   1.000000
    242        -17.783898   1.000000
    243        -17.783596   1.000000
    244        -17.778795   1.000000
    245        -17.756710   1.000000
    246        -17.756678   1.000000
    247        -17.752833   1.000000
    248        -17.737239   1.000000
    249        -17.737211   1.000000
    250        -17.732978   1.000000
    251        -17.719572   1.000000
    252        -17.719558   1.000000
    253        -17.717770   1.000000
    254        -17.702298   1.000000
    255        -17.702184   1.000000
    256        -17.696376   1.000000
    257        -17.694826   1.000000
    258        -17.691853   1.000000
    259        -17.691623   1.000000
    260        -17.691581   1.000000
    261        -17.690630   1.000000
    262        -17.690577   1.000000
    263        -17.689753   1.000000
    264        -17.686959   1.000000
    265        -17.686858   1.000000
    266        -17.685555   1.000000
    267        -17.685244   1.000000
    268        -17.685073   1.000000
    269        -17.684019   1.000000
    270        -17.679966   1.000000
    271        -17.679228   1.000000
    272        -17.679139   1.000000
    273        -17.668085   1.000000
    274        -17.667965   1.000000
    275        -17.665281   1.000000
    276        -17.660541   1.000000
    277        -17.660473   1.000000
    278        -17.660222   1.000000
    279        -17.658386   1.000000
    280        -17.658320   1.000000
    281        -17.655745   1.000000
    282        -17.655593   1.000000
    283        -17.655122   1.000000
    284        -17.652317   1.000000
    285        -17.652302   1.000000
    286        -17.652240   1.000000
    287        -17.647282   1.000000
    288        -17.644962   1.000000
    289        -17.644952   1.000000
    290        -17.644542   1.000000
    291        -17.641829   1.000000
    292        -17.641596   1.000000
    293        -17.639256   1.000000
    294        -17.638702   1.000000
    295        -17.638643   1.000000
    296        -17.638634   1.000000
    297        -17.638460   1.000000
    298        -17.637910   1.000000
    299        -17.633666   1.000000
    300        -17.633642   1.000000
    301        -17.633590   1.000000
    302        -17.626440   1.000000
    303        -17.626323   1.000000
    304        -17.621603   1.000000
    305        -17.620227   1.000000
    306        -17.620161   1.000000
    307        -17.619665   1.000000
    308        -17.616455   1.000000
    309        -17.616103   1.000000
    310        -17.616028   1.000000
    311        -17.614853   1.000000
    312        -17.614776   1.000000
    313        -17.612828   1.000000
    314        -17.611744   1.000000
    315        -17.611708   1.000000
    316        -17.610910   1.000000
    317        -17.602206   1.000000
    318        -17.598380   1.000000
    319        -17.598260   1.000000
    320        -17.595830   1.000000
    321        -17.595733   1.000000
    322        -17.595686   1.000000
    323        -17.587462   1.000000
    324        -17.586930   1.000000
    325        -17.586907   1.000000
    326        -17.583707   1.000000
    327        -17.583538   1.000000
    328        -17.579605   1.000000
    329        -17.579602   1.000000
    330        -17.578833   1.000000
    331        -17.577362   1.000000
    332        -17.575877   1.000000
    333        -17.575855   1.000000
    334        -17.575728   1.000000
    335        -17.558669   1.000000
    336        -17.558531   1.000000
    337        -17.556138   1.000000
    338        -17.555267   1.000000
    339        -17.553926   1.000000
    340        -17.553875   1.000000
    341        -17.551217   1.000000
    342        -17.551113   1.000000
    343        -17.549464   1.000000
    344        -17.547581   1.000000
    345        -17.547436   1.000000
    346        -17.541918   1.000000
    347        -17.539309   1.000000
    348        -17.539278   1.000000
    349        -17.537292   1.000000
    350        -17.534380   1.000000
    351        -17.534280   1.000000
    352        -17.530113   1.000000
    353        -17.529958   1.000000
    354        -17.529767   1.000000
    355        -17.525709   1.000000
    356        -17.524559   1.000000
    357        -17.524495   1.000000
    358        -17.518729   1.000000
    359        -17.514680   1.000000
    360        -17.514425   1.000000
    361        -17.510266   1.000000
    362        -17.507101   1.000000
    363        -17.507031   1.000000
    364        -17.500943   1.000000
    365        -17.500936   1.000000
    366        -17.495344   1.000000
    367        -17.494348   1.000000
    368        -17.494301   1.000000
    369        -17.490818   1.000000
    370        -17.490648   1.000000
    371        -17.485207   1.000000
    372        -17.478941   1.000000
    373        -17.478875   1.000000
    374        -17.477727   1.000000
    375        -17.475036   1.000000
    376        -17.474862   1.000000
    377        -17.470497   1.000000
    378        -17.470448   1.000000
    379        -17.464492   1.000000
    380        -17.459665   1.000000
    381        -17.433318   1.000000
    382        -17.433288   1.000000
    383        -17.421546   1.000000
    384        -17.421511   1.000000
    385          2.464037   1.000000
    386          3.467611   1.000000
    387          3.775215   1.000000
    388          4.725059   1.000000
    389          4.878656   1.000000
    390          4.878824   1.000000
    391          4.883238   1.000000
    392          4.883296   1.000000
    393          4.886537   1.000000
    394          4.959171   1.000000
    395          5.075727   1.000000
    396          5.075889   1.000000
    397          5.080155   1.000000
    398          5.080201   1.000000
    399          5.083600   1.000000
    400          5.206339   1.000000
    401          5.353884   1.000000
    402          5.799361   1.000000
    403          5.799463   1.000000
    404          5.804858   1.000000
    405          5.804900   1.000000
    406          5.808160   1.000000
    407          5.833847   1.000000
    408          5.880994   1.000000
    409          5.939932   1.000000
    410          5.977653   1.000000
    411          5.977676   1.000000
    412          5.979604   1.000000
    413          5.998664   1.000000
    414          5.998716   1.000000
    415          6.044169   1.000000
    416          6.193634   1.000000
    417          6.200337   1.000000
    418          6.200349   1.000000
    419          6.208618   1.000000
    420          6.208694   1.000000
    421          6.228090   1.000000
    422          6.266601   1.000000
    423          6.266652   1.000000
    424          6.273189   1.000000
    425          6.273262   1.000000
    426          6.276557   1.000000
    427          6.350820   1.000000
    428          6.426935   1.000000
    429          6.426941   1.000000
    430          6.449384   1.000000
    431          6.480365   1.000000
    432          6.480368   1.000000
    433          6.524585   1.000000
    434          6.792686   1.000000
    435          6.794405   1.000000
    436          6.794662   1.000000
    437          6.796296   1.000000
    438          6.802659   1.000000
    439          6.803124   1.000000
    440          6.814078   1.000000
    441          6.815591   1.000000
    442          6.815753   1.000000
    443          6.819592   1.000000
    444          6.819830   1.000000
    445          6.828849   1.000000
    446          6.838166   1.000000
    447          6.838523   1.000000
    448          6.841182   1.000000
    449          6.842225   1.000000
    450          6.847141   1.000000
    451          6.847297   1.000000
    452          6.851383   1.000000
    453          6.851499   1.000000
    454          6.853336   1.000000
    455          6.853518   1.000000
    456          6.853726   1.000000
    457          6.901151   1.000000
    458          6.952134   1.000000
    459          6.952141   1.000000
    460          6.953053   1.000000
    461          6.955385   1.000000
    462          6.955650   1.000000
    463          6.957572   1.000000
    464          6.957589   1.000000
    465          6.962326   1.000000
    466          6.962898   1.000000
    467          6.963391   1.000000
    468          6.964382   1.000000
    469          6.965253   1.000000
    470          6.965273   1.000000
    471          6.967289   1.000000
    472          6.971437   1.000000
    473          6.971809   1.000000
    474          6.980577   1.000000
    475          7.008753   1.000000
    476          7.008925   1.000000
    477          7.009556   1.000000
    478          7.017324   1.000000
    479          7.019743   1.000000
    480          7.019815   1.000000
    481          7.143652   1.000000
    482          7.169959   1.000000
    483          7.170010   1.000000
    484          7.357919   1.000000
    485          7.586513   1.000000
    486          7.586958   1.000000
    487          7.591403   1.000000
    488          7.591431   1.000000
    489          7.596962   1.000000
    490          7.604836   1.000000
    491          7.667829   1.000000
    492          7.668376   1.000000
    493          7.679591   1.000000
    494          7.679814   1.000000
    495          7.680107   1.000000
    496          7.683969   1.000000
    497          7.684633   1.000000
    498          7.686991   1.000000
    499          7.702847   1.000000
    500          7.724511   1.000000
    501          7.732619   1.000000
    502          7.732672   1.000000
    503          7.740352   1.000000
    504          7.740719   1.000000
    505          7.742246   1.000000
    506          7.778153   1.000000
    507          7.780847   1.000000
    508          7.780907   1.000000
    509          7.786793   1.000000
    510          7.787480   1.000000
    511          7.793929   1.000000
    512          7.794599   1.000000
    513          7.794956   1.000000
    514          7.875678   1.000000
    515          7.906513   1.000000
    516          7.906542   1.000000
    517          7.911958   1.000000
    518          7.931209   1.000000
    519          7.931639   1.000000
    520          7.931894   1.000000
    521          7.940875   1.000000
    522          7.941137   1.000000
    523          7.943946   1.000000
    524          7.993730   1.000000
    525          7.993839   1.000000
    526          8.000161   1.000000
    527          8.031462   1.000000
    528          8.031500   1.000000
    529          8.031811   1.000000
    530          8.033221   1.000000
    531          8.033385   1.000000
    532          8.040144   1.000000
    533          8.040315   1.000000
    534          8.041582   1.000000
    535          8.045710   1.000000
    536          8.045857   1.000000
    537          8.047851   1.000000
    538          8.119435   1.000000
    539          8.134205   1.000000
    540          8.134432   1.000000
    541          8.139047   1.000000
    542          8.143486   1.000000
    543          8.143833   1.000000
    544          8.288173   1.000012
    545          8.361325   1.000104
    546          8.361659   1.000105
    547          8.370955   1.000135
    548          8.371375   1.000136
    549          8.382317   1.000183
    550          8.388969   1.000218
    551          8.389424   1.000221
    552          8.389585   1.000222
    553          8.421923   1.000503
    554          8.441883   1.000809
    555          8.442240   1.000816
    556          8.455452   1.001103
    557          8.455578   1.001106
    558          8.458635   1.001184
    559          8.464690   1.001354
    560          8.466821   1.001419
    561          8.467499   1.001440
    562          8.473099   1.001625
    563          8.476761   1.001757
    564          8.477046   1.001767
    565          8.535739   1.005526
    566          8.536165   1.005567
    567          8.536618   1.005611
    568          8.549900   1.007043
    569          8.550300   1.007090
    570          8.563733   1.008813
    571          8.714960   1.035437
    572          8.734217   1.033397
    573          8.735433   1.033140
    574          8.735763   1.033068
    575          8.741628   1.031559
    576          8.741677   1.031545
    577          8.927370   0.626398
    578          8.954729   0.512241
    579          9.002323   0.315992
    580          9.002692   0.314555
    581          9.002821   0.314054
    582          9.007579   0.295749
    583          9.007636   0.295532
    584          9.060483   0.122145
    585          9.109232   0.021476
    586          9.111176   0.018663
    587          9.111535   0.018153
    588          9.116762   0.011061
    589          9.117947   0.009537
    590          9.118581   0.008735
    591          9.189683  -0.034760
    592          9.190121  -0.034809
    593          9.190559  -0.034855
    594          9.192397  -0.035031
    595          9.193818  -0.035145
    596          9.204894  -0.035437
    597          9.214359  -0.034964
    598          9.214908  -0.034919
    599          9.234001  -0.032413
    600          9.236740  -0.031932
    601          9.237016  -0.031882
    602          9.251886  -0.028910
    603          9.269764  -0.024884
    604          9.281581  -0.022153
    605          9.282402  -0.021964
    606          9.283518  -0.021708
    607          9.294979  -0.019127
    608          9.295458  -0.019021
    609          9.302117  -0.017579
    610          9.302119  -0.017578
    611          9.303996  -0.017181
    612          9.309697  -0.016000
    613          9.310207  -0.015896
    614          9.322067  -0.013592
    615          9.441614  -0.001643
    616          9.490473  -0.000539
    617          9.491173  -0.000530
    618          9.525514  -0.000223
    619          9.529199  -0.000202
    620          9.529489  -0.000201
    621          9.534259  -0.000177
    622          9.538435  -0.000158
    623          9.538572  -0.000158
    624          9.542594  -0.000141
    625          9.543549  -0.000138
    626          9.544350  -0.000135
    627          9.564361  -0.000077
    628          9.580889  -0.000048
    629          9.581269  -0.000047
    630          9.583871  -0.000044
    631          9.610365  -0.000020
    632          9.624205  -0.000013
    633          9.625247  -0.000012
    634          9.627178  -0.000012
    635          9.632285  -0.000010
    636          9.649950  -0.000006
    637          9.650103  -0.000006
    638          9.661107  -0.000004
    639          9.661318  -0.000004
    640          9.666097  -0.000003
    641          9.666222  -0.000003
    642          9.752347  -0.000000
    643          9.752432  -0.000000
    644          9.794488  -0.000000
    645          9.794653  -0.000000
    646          9.836421  -0.000000
    647          9.836513  -0.000000
    648          9.843586  -0.000000
    649          9.848232  -0.000000
    650          9.877685  -0.000000
    651         10.027007  -0.000000
    652         10.034451  -0.000000
    653         10.035068  -0.000000
    654         10.057068  -0.000000
    655         10.057524  -0.000000
    656         10.073907  -0.000000
    657         10.087231  -0.000000
    658         10.087852  -0.000000
    659         10.098306  -0.000000
    660         10.104982  -0.000000
    661         10.105337  -0.000000
    662         10.106403  -0.000000
    663         10.140426  -0.000000
    664         10.141599  -0.000000
    665         10.145736  -0.000000
    666         10.156375  -0.000000
    667         10.156838  -0.000000
    668         10.163585  -0.000000
    669         10.165359  -0.000000
    670         10.165549  -0.000000
    671         10.181448  -0.000000
    672         10.181452  -0.000000
    673         10.182931  -0.000000
    674         10.184625  -0.000000
    675         10.185151  -0.000000
    676         10.186591  -0.000000
    677         10.192866  -0.000000
    678         10.192982  -0.000000
    679         10.193498  -0.000000
    680         10.194687  -0.000000
    681         10.195725  -0.000000
    682         10.195932  -0.000000
    683         10.200712  -0.000000
    684         10.200977  -0.000000
    685         10.202762  -0.000000
    686         10.217399  -0.000000
    687         10.222273  -0.000000
    688         10.224123  -0.000000
    689         10.224340  -0.000000
    690         10.242346  -0.000000
    691         10.243436  -0.000000
 
  0.2500000E+00 -0.8988716E-17  0.3333333E+00  0.4166667E-01
      1        -39.914740   1.000000
      2        -39.895889   1.000000
      3        -39.879434   1.000000
      4        -39.869830   1.000000
      5        -39.857116   1.000000
      6        -39.854909   1.000000
      7        -39.850833   1.000000
      8        -39.843642   1.000000
      9        -39.842498   1.000000
     10        -39.841285   1.000000
     11        -39.834653   1.000000
     12        -39.826920   1.000000
     13        -39.825034   1.000000
     14        -39.818799   1.000000
     15        -39.818073   1.000000
     16        -39.815171   1.000000
     17        -39.811482   1.000000
     18        -39.807819   1.000000
     19        -39.806294   1.000000
     20        -39.805489   1.000000
     21        -39.801409   1.000000
     22        -39.796595   1.000000
     23        -39.794233   1.000000
     24        -39.789141   1.000000
     25        -39.787124   1.000000
     26        -39.784788   1.000000
     27        -39.783111   1.000000
     28        -39.782457   1.000000
     29        -39.778972   1.000000
     30        -39.778487   1.000000
     31        -39.776497   1.000000
     32        -39.773464   1.000000
     33        -39.773454   1.000000
     34        -39.771833   1.000000
     35        -39.769747   1.000000
     36        -39.766814   1.000000
     37        -39.766547   1.000000
     38        -39.765282   1.000000
     39        -39.764780   1.000000
     40        -39.763734   1.000000
     41        -39.763631   1.000000
     42        -39.761469   1.000000
     43        -39.761260   1.000000
     44        -39.760698   1.000000
     45        -39.758754   1.000000
     46        -39.757933   1.000000
     47        -39.757160   1.000000
     48        -39.754249   1.000000
     49        -39.753725   1.000000
     50        -39.752482   1.000000
     51        -39.751332   1.000000
     52        -39.750847   1.000000
     53        -39.750080   1.000000
     54        -39.749596   1.000000
     55        -39.748302   1.000000
     56        -39.747790   1.000000
     57        -39.747012   1.000000
     58        -39.746355   1.000000
     59        -39.745188   1.000000
     60        -39.744750   1.000000
     61        -39.744608   1.000000
     62        -39.742755   1.000000
     63        -39.741993   1.000000
     64        -39.740849   1.000000
     65        -39.738811   1.000000
     66        -39.738059   1.000000
     67        -39.738023   1.000000
     68        -39.737393   1.000000
     69        -39.736021   1.000000
     70        -39.735888   1.000000
     71        -39.734821   1.000000
     72        -39.733176   1.000000
     73        -39.732766   1.000000
     74        -39.731764   1.000000
     75        -39.730529   1.000000
     76        -39.729979   1.000000
     77        -39.728258   1.000000
     78        -39.726971   1.000000
     79        -39.726335   1.000000
     80        -39.725346   1.000000
     81        -39.724760   1.000000
     82        -39.723860   1.000000
     83        -39.722962   1.000000
     84        -39.722649   1.000000
     85        -39.722211   1.000000
     86        -39.721490   1.000000
     87        -39.721355   1.000000
     88        -39.720705   1.000000
     89        -39.719806   1.000000
     90        -39.719395   1.000000
     91        -39.713591   1.000000
     92        -39.713504   1.000000
     93        -39.706071   1.000000
     94        -39.705991   1.000000
     95        -39.702772   1.000000
     96        -39.700537   1.000000
     97        -18.379033   1.000000
     98        -18.337528   1.000000
     99        -18.315672   1.000000
    100        -18.311310   1.000000
    101        -18.304505   1.000000
    102        -18.300583   1.000000
    103        -18.297494   1.000000
    104        -18.297175   1.000000
    105        -18.293026   1.000000
    106        -18.286194   1.000000
    107        -18.282468   1.000000
    108        -18.275275   1.000000
    109        -18.264015   1.000000
    110        -18.261746   1.000000
    111        -18.259592   1.000000
    112        -18.255959   1.000000
    113        -18.250900   1.000000
    114        -18.245246   1.000000
    115        -18.239353   1.000000
    116        -18.237054   1.000000
    117        -18.227653   1.000000
    118        -18.223591   1.000000
    119        -18.219971   1.000000
    120        -18.218894   1.000000
    121        -18.214149   1.000000
    122        -18.212228   1.000000
    123        -18.211027   1.000000
    124        -18.207165   1.000000
    125        -18.205748   1.000000
    126        -18.204710   1.000000
    127        -18.204173   1.000000
    128        -18.202357   1.000000
    129        -18.202067   1.000000
    130        -18.199441   1.000000
    131        -18.198686   1.000000
    132        -18.197152   1.000000
    133        -18.196462   1.000000
    134        -18.184843   1.000000
    135        -18.182684   1.000000
    136        -18.180338   1.000000
    137        -18.176084   1.000000
    138        -18.172527   1.000000
    139        -18.171073   1.000000
    140        -18.169014   1.000000
    141        -18.168707   1.000000
    142        -18.165518   1.000000
    143        -18.161584   1.000000
    144        -18.157061   1.000000
    145        -18.154332   1.000000
    146        -18.147259   1.000000
    147        -18.142478   1.000000
    148        -18.139883   1.000000
    149        -18.136595   1.000000
    150        -18.136100   1.000000
    151        -18.130230   1.000000
    152        -18.129610   1.000000
    153        -18.122760   1.000000
    154        -18.119118   1.000000
    155        -18.118857   1.000000
    156        -18.114297   1.000000
    157        -18.111937   1.000000
    158        -18.097595   1.000000
    159        -18.093944   1.000000
    160        -18.086043   1.000000
    161        -18.082783   1.000000
    162        -18.082572   1.000000
    163        -18.078522   1.000000
    164        -18.075913   1.000000
    165        -18.074160   1.000000
    166        -18.073694   1.000000
    167        -18.067045   1.000000
    168        -18.065602   1.000000
    169        -18.061370   1.000000
    170        -18.059514   1.000000
    171        -18.054143   1.000000
    172        -18.053978   1.000000
    173        -18.051657   1.000000
    174        -18.026409   1.000000
    175        -18.005471   1.000000
    176        -17.993886   1.000000
    177        -17.986885   1.000000
    178        -17.986099   1.000000
    179        -17.973819   1.000000
    180        -17.966434   1.000000
    181        -17.961213   1.000000
    182        -17.957406   1.000000
    183        -17.956506   1.000000
    184        -17.951230   1.000000
    185        -17.951211   1.000000
    186        -17.946163   1.000000
    187        -17.944433   1.000000
    188        -17.943250   1.000000
    189        -17.943115   1.000000
    190        -17.938144   1.000000
    191        -17.935216   1.000000
    192        -17.933358   1.000000
    193        -17.930953   1.000000
    194        -17.930677   1.000000
    195        -17.918529   1.000000
    196        -17.915322   1.000000
    197        -17.908138   1.000000
    198        -17.902147   1.000000
    199        -17.896111   1.000000
    200        -17.892855   1.000000
    201        -17.885508   1.000000
    202        -17.883855   1.000000
    203        -17.876831   1.000000
    204        -17.871766   1.000000
    205        -17.870145   1.000000
    206        -17.865933   1.000000
    207        -17.864207   1.000000
    208        -17.861816   1.000000
    209        -17.860560   1.000000
    210        -17.859080   1.000000
    211        -17.856385   1.000000
    212        -17.855565   1.000000
    213        -17.853102   1.000000
    214        -17.852541   1.000000
    215        -17.844327   1.000000
    216        -17.837939   1.000000
    217        -17.833519   1.000000
    218        -17.831360   1.000000
    219        -17.830417   1.000000
    220        -17.824714   1.000000
    221        -17.823876   1.000000
    222        -17.820543   1.000000
    223        -17.810493   1.000000
    224        -17.809509   1.000000
    225        -17.807245   1.000000
    226        -17.803027   1.000000
    227        -17.798548   1.000000
    228        -17.796621   1.000000
    229        -17.794905   1.000000
    230        -17.792634   1.000000
    231        -17.789576   1.000000
    232        -17.787760   1.000000
    233        -17.782922   1.000000
    234        -17.782540   1.000000
    235        -17.774443   1.000000
    236        -17.770934   1.000000
    237        -17.766950   1.000000
    238        -17.764656   1.000000
    239        -17.763753   1.000000
    240        -17.763710   1.000000
    241        -17.761718   1.000000
    242        -17.752799   1.000000
    243        -17.752642   1.000000
    244        -17.747438   1.000000
    245        -17.746218   1.000000
    246        -17.743167   1.000000
    247        -17.742451   1.000000
    248        -17.738590   1.000000
    249        -17.738138   1.000000
    250        -17.733626   1.000000
    251        -17.732639   1.000000
    252        -17.728650   1.000000
    253        -17.727439   1.000000
    254        -17.724258   1.000000
    255        -17.718390   1.000000
    256        -17.712092   1.000000
    257        -17.708787   1.000000
    258        -17.705156   1.000000
    259        -17.703199   1.000000
    260        -17.699974   1.000000
    261        -17.696334   1.000000
    262        -17.695030   1.000000
    263        -17.689974   1.000000
    264        -17.685767   1.000000
    265        -17.684588   1.000000
    266        -17.682132   1.000000
    267        -17.681798   1.000000
    268        -17.680602   1.000000
    269        -17.677556   1.000000
    270        -17.677009   1.000000
    271        -17.673367   1.000000
    272        -17.672675   1.000000
    273        -17.670236   1.000000
    274        -17.669932   1.000000
    275        -17.669323   1.000000
    276        -17.664708   1.000000
    277        -17.661233   1.000000
    278        -17.660523   1.000000
    279        -17.658999   1.000000
    280        -17.654232   1.000000
    281        -17.653014   1.000000
    282        -17.651271   1.000000
    283        -17.649602   1.000000
    284        -17.647534   1.000000
    285        -17.645981   1.000000
    286        -17.641965   1.000000
    287        -17.641591   1.000000
    288        -17.640689   1.000000
    289        -17.640544   1.000000
    290        -17.637887   1.000000
    291        -17.634626   1.000000
    292        -17.634190   1.000000
    293        -17.633854   1.000000
    294        -17.632161   1.000000
    295        -17.632052   1.000000
    296        -17.630494   1.000000
    297        -17.628988   1.000000
    298        -17.628086   1.000000
    299        -17.627189   1.000000
    300        -17.625918   1.000000
    301        -17.623013   1.000000
    302        -17.622049   1.000000
    303        -17.621372   1.000000
    304        -17.619996   1.000000
    305        -17.618968   1.000000
    306        -17.617265   1.000000
    307        -17.616724   1.000000
    308        -17.615731   1.000000
    309        -17.614909   1.000000
    310        -17.614606   1.000000
    311        -17.613616   1.000000
    312        -17.608536   1.000000
    313        -17.605370   1.000000
    314        -17.604185   1.000000
    315        -17.602580   1.000000
    316        -17.602107   1.000000
    317        -17.597697   1.000000
    318        -17.596374   1.000000
    319        -17.595911   1.000000
    320        -17.593314   1.000000
    321        -17.593047   1.000000
    322        -17.590551   1.000000
    323        -17.586480   1.000000
    324        -17.583234   1.000000
    325        -17.582683   1.000000
    326        -17.580782   1.000000
    327        -17.579491   1.000000
    328        -17.578080   1.000000
    329        -17.577465   1.000000
    330        -17.576346   1.000000
    331        -17.576189   1.000000
    332        -17.574735   1.000000
    333        -17.570171   1.000000
    334        -17.569541   1.000000
    335        -17.568207   1.000000
    336        -17.565518   1.000000
    337        -17.565334   1.000000
    338        -17.564304   1.000000
    339        -17.562677   1.000000
    340        -17.561799   1.000000
    341        -17.560784   1.000000
    342        -17.559376   1.000000
    343        -17.558029   1.000000
    344        -17.553999   1.000000
    345        -17.553673   1.000000
    346        -17.549843   1.000000
    347        -17.548835   1.000000
    348        -17.547146   1.000000
    349        -17.546172   1.000000
    350        -17.544619   1.000000
    351        -17.544591   1.000000
    352        -17.541687   1.000000
    353        -17.540336   1.000000
    354        -17.535512   1.000000
    355        -17.534340   1.000000
    356        -17.528398   1.000000
    357        -17.521991   1.000000
    358        -17.520486   1.000000
    359        -17.517595   1.000000
    360        -17.516611   1.000000
    361        -17.512897   1.000000
    362        -17.512040   1.000000
    363        -17.510379   1.000000
    364        -17.505046   1.000000
    365        -17.503234   1.000000
    366        -17.501818   1.000000
    367        -17.500411   1.000000
    368        -17.497173   1.000000
    369        -17.495747   1.000000
    370        -17.493934   1.000000
    371        -17.492907   1.000000
    372        -17.487978   1.000000
    373        -17.487352   1.000000
    374        -17.481152   1.000000
    375        -17.479558   1.000000
    376        -17.476475   1.000000
    377        -17.474440   1.000000
    378        -17.473806   1.000000
    379        -17.466275   1.000000
    380        -17.452619   1.000000
    381        -17.446421   1.000000
    382        -17.437171   1.000000
    383        -17.434526   1.000000
    384        -17.425056   1.000000
    385          2.472961   1.000000
    386          3.566592   1.000000
    387          3.862815   1.000000
    388          4.329488   1.000000
    389          4.568658   1.000000
    390          4.652754   1.000000
    391          4.701190   1.000000
    392          4.825674   1.000000
    393          4.877522   1.000000
    394          4.953000   1.000000
    395          5.252217   1.000000
    396          5.280065   1.000000
    397          5.368617   1.000000
    398          5.404135   1.000000
    399          5.422799   1.000000
    400          5.456315   1.000000
    401          5.512508   1.000000
    402          5.586971   1.000000
    403          5.691021   1.000000
    404          5.730528   1.000000
    405          5.961532   1.000000
    406          5.971876   1.000000
    407          5.982201   1.000000
    408          5.990090   1.000000
    409          6.004766   1.000000
    410          6.010744   1.000000
    411          6.017391   1.000000
    412          6.032973   1.000000
    413          6.043273   1.000000
    414          6.062126   1.000000
    415          6.076642   1.000000
    416          6.097594   1.000000
    417          6.146348   1.000000
    418          6.202934   1.000000
    419          6.220843   1.000000
    420          6.232733   1.000000
    421          6.251528   1.000000
    422          6.266382   1.000000
    423          6.290952   1.000000
    424          6.291762   1.000000
    425          6.309173   1.000000
    426          6.320261   1.000000
    427          6.328433   1.000000
    428          6.346652   1.000000
    429          6.378171   1.000000
    430          6.391497   1.000000
    431          6.428213   1.000000
    432          6.517217   1.000000
    433          6.521767   1.000000
    434          6.524553   1.000000
    435          6.529044   1.000000
    436          6.531931   1.000000
    437          6.535901   1.000000
    438          6.539822   1.000000
    439          6.561237   1.000000
    440          6.584854   1.000000
    441          6.586556   1.000000
    442          6.591435   1.000000
    443          6.604792   1.000000
    444          6.649318   1.000000
    445          6.656299   1.000000
    446          6.676008   1.000000
    447          6.702803   1.000000
    448          6.702821   1.000000
    449          6.754105   1.000000
    450          6.770702   1.000000
    451          6.773657   1.000000
    452          6.857184   1.000000
    453          6.862330   1.000000
    454          6.890218   1.000000
    455          6.891370   1.000000
    456          6.921101   1.000000
    457          6.922732   1.000000
    458          6.926551   1.000000
    459          6.928365   1.000000
    460          6.929165   1.000000
    461          6.930539   1.000000
    462          6.937315   1.000000
    463          7.016249   1.000000
    464          7.051120   1.000000
    465          7.057034   1.000000
    466          7.062138   1.000000
    467          7.073198   1.000000
    468          7.073327   1.000000
    469          7.075694   1.000000
    470          7.079645   1.000000
    471          7.122167   1.000000
    472          7.138707   1.000000
    473          7.143437   1.000000
    474          7.167255   1.000000
    475          7.167674   1.000000
    476          7.179481   1.000000
    477          7.183314   1.000000
    478          7.185426   1.000000
    479          7.193560   1.000000
    480          7.214481   1.000000
    481          7.257435   1.000000
    482          7.263688   1.000000
    483          7.265327   1.000000
    484          7.292579   1.000000
    485          7.297047   1.000000
    486          7.367355   1.000000
    487          7.438305   1.000000
    488          7.448453   1.000000
    489          7.462180   1.000000
    490          7.475534   1.000000
    491          7.489313   1.000000
    492          7.509142   1.000000
    493          7.523773   1.000000
    494          7.530783   1.000000
    495          7.546328   1.000000
    496          7.557906   1.000000
    497          7.584568   1.000000
    498          7.602645   1.000000
    499          7.611047   1.000000
    500          7.616424   1.000000
    501          7.638359   1.000000
    502          7.661473   1.000000
    503          7.670719   1.000000
    504          7.673435   1.000000
    505          7.715718   1.000000
    506          7.808838   1.000000
    507          7.822859   1.000000
    508          7.834903   1.000000
    509          7.875510   1.000000
    510          7.880554   1.000000
    511          7.887920   1.000000
    512          7.890560   1.000000
    513          7.913596   1.000000
    514          7.921503   1.000000
    515          7.943843   1.000000
    516          7.946773   1.000000
    517          7.960146   1.000000
    518          7.969836   1.000000
    519          7.981180   1.000000
    520          7.999980   1.000000
    521          8.011059   1.000000
    522          8.028124   1.000000
    523          8.035375   1.000000
    524          8.037264   1.000000
    525          8.043442   1.000000
    526          8.044500   1.000000
    527          8.051368   1.000000
    528          8.058413   1.000000
    529          8.059429   1.000000
    530          8.061961   1.000000
    531          8.078866   1.000000
    532          8.092711   1.000000
    533          8.095552   1.000000
    534          8.101696   1.000000
    535          8.132320   1.000000
    536          8.140578   1.000000
    537          8.146614   1.000000
    538          8.149860   1.000000
    539          8.152647   1.000000
    540          8.159959   1.000000
    541          8.178969   1.000000
    542          8.211153   1.000001
    543          8.241062   1.000002
    544          8.278432   1.000009
    545          8.281486   1.000009
    546          8.294596   1.000014
    547          8.316853   1.000029
    548          8.333042   1.000046
    549          8.334923   1.000049
    550          8.351650   1.000079
    551          8.354013   1.000084
    552          8.360461   1.000101
    553          8.385073   1.000197
    554          8.397163   1.000270
    555          8.408525   1.000361
    556          8.422889   1.000515
    557          8.424063   1.000530
    558          8.436471   1.000713
    559          8.437425   1.000729
    560          8.440838   1.000789
    561          8.442297   1.000817
    562          8.449437   1.000963
    563          8.451687   1.001013
    564          8.461301   1.001257
    565          8.489170   1.002275
    566          8.541238   1.006081
    567          8.545033   1.006489
    568          8.557119   1.007930
    569          8.684493   1.032951
    570          8.732729   1.033689
    571          8.770398   1.017164
    572          8.770451   1.017126
    573          8.797104   0.990707
    574          8.897035   0.743787
    575          8.912134   0.687063
    576          8.935811   0.591684
    577          8.937988   0.582633
    578          8.966991   0.460403
    579          8.986771   0.378102
    580          9.002553   0.315098
    581          9.048087   0.157198
    582          9.049935   0.151737
    583          9.063704   0.113658
    584          9.074674   0.086709
    585          9.105288   0.027453
    586          9.111297   0.018491
    587          9.149896  -0.020640
    588          9.150963  -0.021318
    589          9.165188  -0.028621
    590          9.166148  -0.029005
    591          9.176130  -0.032257
    592          9.177573  -0.032623
    593          9.183739  -0.033910
    594          9.186164  -0.034301
    595          9.195800  -0.035273
    596          9.197783  -0.035367
    597          9.200236  -0.035437
    598          9.200935  -0.035447
    599          9.206601  -0.035397
    600          9.208272  -0.035337
    601          9.215870  -0.034836
    602          9.236199  -0.032029
    603          9.244195  -0.030511
    604          9.244845  -0.030380
    605          9.254158  -0.028417
    606          9.303891  -0.017203
    607          9.352624  -0.008660
    608          9.392712  -0.004356
    609          9.399669  -0.003826
    610          9.405138  -0.003447
    611          9.412704  -0.002976
    612          9.432757  -0.001982
    613          9.446138  -0.001491
    614          9.456090  -0.001198
    615          9.466992  -0.000937
    616          9.472274  -0.000830
    617          9.473628  -0.000804
    618          9.483025  -0.000644
    619          9.485200  -0.000612
    620          9.489957  -0.000546
    621          9.496236  -0.000468
    622          9.498521  -0.000443
    623          9.503606  -0.000390
    624          9.507956  -0.000350
    625          9.511142  -0.000323
    626          9.547578  -0.000123
    627          9.568677  -0.000068
    628          9.572339  -0.000062
    629          9.598331  -0.000029
    630          9.599502  -0.000028
    631          9.615571  -0.000017
    632          9.618966  -0.000015
    633          9.624485  -0.000013
    634          9.631124  -0.000010
    635          9.634768  -0.000009
    636          9.647860  -0.000006
    637          9.662284  -0.000004
    638          9.675666  -0.000002
    639          9.680380  -0.000002
    640          9.691669  -0.000001
    641          9.738380  -0.000000
    642          9.745668  -0.000000
    643          9.780520  -0.000000
    644          9.799862  -0.000000
    645          9.842500  -0.000000
    646          9.867602  -0.000000
    647          9.872528  -0.000000
    648          9.877560  -0.000000
    649          9.884486  -0.000000
    650          9.902463  -0.000000
    651          9.903303  -0.000000
    652          9.920978  -0.000000
    653          9.926057  -0.000000
    654          9.931342  -0.000000
    655          9.941826  -0.000000
    656          9.950930  -0.000000
    657          9.962852  -0.000000
    658          9.967275  -0.000000
    659          9.981517  -0.000000
    660          9.982607  -0.000000
    661          9.994979  -0.000000
    662         10.006137  -0.000000
    663         10.006291  -0.000000
    664         10.013179  -0.000000
    665         10.013980  -0.000000
    666         10.024209  -0.000000
    667         10.026488  -0.000000
    668         10.034677  -0.000000
    669         10.037335  -0.000000
    670         10.092724  -0.000000
    671         10.110606  -0.000000
    672         10.111042  -0.000000
    673         10.126355  -0.000000
    674         10.163678  -0.000000
    675         10.170031  -0.000000
    676         10.198366  -0.000000
    677         10.206432  -0.000000
    678         10.222081  -0.000000
    679         10.222707  -0.000000
    680         10.235199  -0.000000
    681         10.248346  -0.000000
    682         10.257552  -0.000000
    683         10.258837  -0.000000
    684         10.269662  -0.000000
    685         10.271852  -0.000000
    686         10.279013  -0.000000
    687         10.282685  -0.000000
    688         10.297308  -0.000000
    689         10.297689  -0.000000
    690         10.308478  -0.000000
    691         10.311205  -0.000000
 
  0.1345275E-16  0.2500000E+00  0.3333333E+00  0.4166667E-01
      1        -39.914744   1.000000
      2        -39.895887   1.000000
      3        -39.879469   1.000000
      4        -39.869539   1.000000
      5        -39.857422   1.000000
      6        -39.855210   1.000000
      7        -39.851207   1.000000
      8        -39.843198   1.000000
      9        -39.841543   1.000000
     10        -39.841342   1.000000
     11        -39.835024   1.000000
     12        -39.827320   1.000000
     13        -39.825053   1.000000
     14        -39.818747   1.000000
     15        -39.818056   1.000000
     16        -39.815376   1.000000
     17        -39.811155   1.000000
     18        -39.807908   1.000000
     19        -39.806555   1.000000
     20        -39.804633   1.000000
     21        -39.801584   1.000000
     22        -39.797111   1.000000
     23        -39.793945   1.000000
     24        -39.789389   1.000000
     25        -39.787286   1.000000
     26        -39.784416   1.000000
     27        -39.783231   1.000000
     28        -39.782460   1.000000
     29        -39.779282   1.000000
     30        -39.778415   1.000000
     31        -39.776431   1.000000
     32        -39.773496   1.000000
     33        -39.773169   1.000000
     34        -39.772129   1.000000
     35        -39.769457   1.000000
     36        -39.766483   1.000000
     37        -39.766362   1.000000
     38        -39.765373   1.000000
     39        -39.764769   1.000000
     40        -39.764056   1.000000
     41        -39.763836   1.000000
     42        -39.761673   1.000000
     43        -39.761200   1.000000
     44        -39.760533   1.000000
     45        -39.758736   1.000000
     46        -39.757733   1.000000
     47        -39.757639   1.000000
     48        -39.753754   1.000000
     49        -39.753504   1.000000
     50        -39.752732   1.000000
     51        -39.751459   1.000000
     52        -39.750925   1.000000
     53        -39.750086   1.000000
     54        -39.749352   1.000000
     55        -39.748405   1.000000
     56        -39.747790   1.000000
     57        -39.746856   1.000000
     58        -39.746543   1.000000
     59        -39.745249   1.000000
     60        -39.745006   1.000000
     61        -39.744227   1.000000
     62        -39.742609   1.000000
     63        -39.741822   1.000000
     64        -39.741309   1.000000
     65        -39.738867   1.000000
     66        -39.738434   1.000000
     67        -39.738012   1.000000
     68        -39.737424   1.000000
     69        -39.735957   1.000000
     70        -39.735708   1.000000
     71        -39.734766   1.000000
     72        -39.732837   1.000000
     73        -39.732416   1.000000
     74        -39.731971   1.000000
     75        -39.730462   1.000000
     76        -39.730163   1.000000
     77        -39.728704   1.000000
     78        -39.727024   1.000000
     79        -39.726051   1.000000
     80        -39.725275   1.000000
     81        -39.724901   1.000000
     82        -39.723862   1.000000
     83        -39.722936   1.000000
     84        -39.722627   1.000000
     85        -39.722232   1.000000
     86        -39.721363   1.000000
     87        -39.721296   1.000000
     88        -39.720719   1.000000
     89        -39.719942   1.000000
     90        -39.719341   1.000000
     91        -39.713772   1.000000
     92        -39.713364   1.000000
     93        -39.706095   1.000000
     94        -39.705966   1.000000
     95        -39.702771   1.000000
     96        -39.700531   1.000000
     97        -18.379031   1.000000
     98        -18.337520   1.000000
     99        -18.315678   1.000000
    100        -18.311227   1.000000
    101        -18.304654   1.000000
    102        -18.300561   1.000000
    103        -18.297516   1.000000
    104        -18.297106   1.000000
    105        -18.292990   1.000000
    106        -18.286256   1.000000
    107        -18.282480   1.000000
    108        -18.275277   1.000000
    109        -18.264199   1.000000
    110        -18.261583   1.000000
    111        -18.259471   1.000000
    112        -18.256139   1.000000
    113        -18.250665   1.000000
    114        -18.245568   1.000000
    115        -18.239317   1.000000
    116        -18.236973   1.000000
    117        -18.227917   1.000000
    118        -18.223326   1.000000
    119        -18.219775   1.000000
    120        -18.218919   1.000000
    121        -18.214216   1.000000
    122        -18.211760   1.000000
    123        -18.211044   1.000000
    124        -18.207105   1.000000
    125        -18.205804   1.000000
    126        -18.204644   1.000000
    127        -18.204397   1.000000
    128        -18.202245   1.000000
    129        -18.202139   1.000000
    130        -18.199402   1.000000
    131        -18.198830   1.000000
    132        -18.197310   1.000000
    133        -18.196371   1.000000
    134        -18.184674   1.000000
    135        -18.182954   1.000000
    136        -18.180356   1.000000
    137        -18.176138   1.000000
    138        -18.172389   1.000000
    139        -18.171189   1.000000
    140        -18.168996   1.000000
    141        -18.168680   1.000000
    142        -18.165549   1.000000
    143        -18.161983   1.000000
    144        -18.157090   1.000000
    145        -18.154138   1.000000
    146        -18.147452   1.000000
    147        -18.142323   1.000000
    148        -18.139767   1.000000
    149        -18.136889   1.000000
    150        -18.136125   1.000000
    151        -18.130109   1.000000
    152        -18.129464   1.000000
    153        -18.123114   1.000000
    154        -18.118917   1.000000
    155        -18.118370   1.000000
    156        -18.114445   1.000000
    157        -18.112233   1.000000
    158        -18.097655   1.000000
    159        -18.093636   1.000000
    160        -18.086395   1.000000
    161        -18.082630   1.000000
    162        -18.082227   1.000000
    163        -18.078231   1.000000
    164        -18.075725   1.000000
    165        -18.074346   1.000000
    166        -18.073803   1.000000
    167        -18.066553   1.000000
    168        -18.065326   1.000000
    169        -18.061565   1.000000
    170        -18.059579   1.000000
    171        -18.054449   1.000000
    172        -18.054294   1.000000
    173        -18.051730   1.000000
    174        -18.026394   1.000000
    175        -18.006045   1.000000
    176        -17.993139   1.000000
    177        -17.986878   1.000000
    178        -17.986516   1.000000
    179        -17.974013   1.000000
    180        -17.966317   1.000000
    181        -17.961950   1.000000
    182        -17.956838   1.000000
    183        -17.955937   1.000000
    184        -17.951206   1.000000
    185        -17.950910   1.000000
    186        -17.946440   1.000000
    187        -17.944946   1.000000
    188        -17.943246   1.000000
    189        -17.943165   1.000000
    190        -17.938155   1.000000
    191        -17.935121   1.000000
    192        -17.933879   1.000000
    193        -17.930504   1.000000
    194        -17.930443   1.000000
    195        -17.918641   1.000000
    196        -17.915328   1.000000
    197        -17.908646   1.000000
    198        -17.901425   1.000000
    199        -17.895098   1.000000
    200        -17.893058   1.000000
    201        -17.885685   1.000000
    202        -17.883890   1.000000
    203        -17.876648   1.000000
    204        -17.872197   1.000000
    205        -17.870218   1.000000
    206        -17.866320   1.000000
    207        -17.864722   1.000000
    208        -17.861864   1.000000
    209        -17.860648   1.000000
    210        -17.859072   1.000000
    211        -17.856358   1.000000
    212        -17.855638   1.000000
    213        -17.853298   1.000000
    214        -17.852692   1.000000
    215        -17.844034   1.000000
    216        -17.837732   1.000000
    217        -17.833480   1.000000
    218        -17.831355   1.000000
    219        -17.830169   1.000000
    220        -17.825120   1.000000
    221        -17.823077   1.000000
    222        -17.820036   1.000000
    223        -17.810883   1.000000
    224        -17.808818   1.000000
    225        -17.807137   1.000000
    226        -17.803367   1.000000
    227        -17.798519   1.000000
    228        -17.796670   1.000000
    229        -17.794850   1.000000
    230        -17.792642   1.000000
    231        -17.789555   1.000000
    232        -17.787639   1.000000
    233        -17.783366   1.000000
    234        -17.782494   1.000000
    235        -17.774906   1.000000
    236        -17.770959   1.000000
    237        -17.767546   1.000000
    238        -17.765129   1.000000
    239        -17.763669   1.000000
    240        -17.763293   1.000000
    241        -17.761745   1.000000
    242        -17.753456   1.000000
    243        -17.751974   1.000000
    244        -17.747666   1.000000
    245        -17.745822   1.000000
    246        -17.743383   1.000000
    247        -17.741935   1.000000
    248        -17.738944   1.000000
    249        -17.737614   1.000000
    250        -17.734693   1.000000
    251        -17.732404   1.000000
    252        -17.728475   1.000000
    253        -17.727107   1.000000
    254        -17.724463   1.000000
    255        -17.717510   1.000000
    256        -17.711920   1.000000
    257        -17.708912   1.000000
    258        -17.705176   1.000000
    259        -17.702840   1.000000
    260        -17.700241   1.000000
    261        -17.696452   1.000000
    262        -17.695102   1.000000
    263        -17.690024   1.000000
    264        -17.685998   1.000000
    265        -17.684475   1.000000
    266        -17.682413   1.000000
    267        -17.682029   1.000000
    268        -17.680263   1.000000
    269        -17.678016   1.000000
    270        -17.676947   1.000000
    271        -17.673603   1.000000
    272        -17.672296   1.000000
    273        -17.670567   1.000000
    274        -17.669851   1.000000
    275        -17.669450   1.000000
    276        -17.664647   1.000000
    277        -17.661495   1.000000
    278        -17.660301   1.000000
    279        -17.658748   1.000000
    280        -17.654367   1.000000
    281        -17.652177   1.000000
    282        -17.650924   1.000000
    283        -17.649556   1.000000
    284        -17.647398   1.000000
    285        -17.646181   1.000000
    286        -17.641831   1.000000
    287        -17.641664   1.000000
    288        -17.640582   1.000000
    289        -17.640412   1.000000
    290        -17.637660   1.000000
    291        -17.634866   1.000000
    292        -17.634528   1.000000
    293        -17.634190   1.000000
    294        -17.632251   1.000000
    295        -17.632165   1.000000
    296        -17.630546   1.000000
    297        -17.629114   1.000000
    298        -17.627591   1.000000
    299        -17.627236   1.000000
    300        -17.625630   1.000000
    301        -17.623129   1.000000
    302        -17.622195   1.000000
    303        -17.621776   1.000000
    304        -17.619966   1.000000
    305        -17.619200   1.000000
    306        -17.617372   1.000000
    307        -17.616691   1.000000
    308        -17.615404   1.000000
    309        -17.614972   1.000000
    310        -17.614608   1.000000
    311        -17.613397   1.000000
    312        -17.608451   1.000000
    313        -17.605630   1.000000
    314        -17.604305   1.000000
    315        -17.602552   1.000000
    316        -17.602213   1.000000
    317        -17.597408   1.000000
    318        -17.596549   1.000000
    319        -17.595873   1.000000
    320        -17.593326   1.000000
    321        -17.593241   1.000000
    322        -17.590546   1.000000
    323        -17.586159   1.000000
    324        -17.583325   1.000000
    325        -17.582612   1.000000
    326        -17.580871   1.000000
    327        -17.579431   1.000000
    328        -17.578259   1.000000
    329        -17.577603   1.000000
    330        -17.576449   1.000000
    331        -17.576073   1.000000
    332        -17.574345   1.000000
    333        -17.570095   1.000000
    334        -17.569629   1.000000
    335        -17.567825   1.000000
    336        -17.565529   1.000000
    337        -17.565368   1.000000
    338        -17.564521   1.000000
    339        -17.562553   1.000000
    340        -17.561547   1.000000
    341        -17.560754   1.000000
    342        -17.559414   1.000000
    343        -17.558100   1.000000
    344        -17.554269   1.000000
    345        -17.553959   1.000000
    346        -17.549719   1.000000
    347        -17.549065   1.000000
    348        -17.547426   1.000000
    349        -17.546112   1.000000
    350        -17.544580   1.000000
    351        -17.544432   1.000000
    352        -17.541529   1.000000
    353        -17.540443   1.000000
    354        -17.535433   1.000000
    355        -17.534432   1.000000
    356        -17.528320   1.000000
    357        -17.521965   1.000000
    358        -17.520340   1.000000
    359        -17.517814   1.000000
    360        -17.516516   1.000000
    361        -17.512912   1.000000
    362        -17.511939   1.000000
    363        -17.510444   1.000000
    364        -17.505041   1.000000
    365        -17.502930   1.000000
    366        -17.501872   1.000000
    367        -17.500454   1.000000
    368        -17.497099   1.000000
    369        -17.495888   1.000000
    370        -17.493995   1.000000
    371        -17.492665   1.000000
    372        -17.488224   1.000000
    373        -17.487423   1.000000
    374        -17.481345   1.000000
    375        -17.479589   1.000000
    376        -17.476222   1.000000
    377        -17.474378   1.000000
    378        -17.474010   1.000000
    379        -17.466070   1.000000
    380        -17.452722   1.000000
    381        -17.446437   1.000000
    382        -17.437127   1.000000
    383        -17.434554   1.000000
    384        -17.425022   1.000000
    385          2.472965   1.000000
    386          3.566578   1.000000
    387          3.862818   1.000000
    388          4.329622   1.000000
    389          4.568556   1.000000
    390          4.652809   1.000000
    391          4.700739   1.000000
    392          4.825672   1.000000
    393          4.877686   1.000000
    394          4.953261   1.000000
    395          5.252407   1.000000
    396          5.280387   1.000000
    397          5.368669   1.000000
    398          5.403980   1.000000
    399          5.422235   1.000000
    400          5.456572   1.000000
    401          5.512038   1.000000
    402          5.587777   1.000000
    403          5.690991   1.000000
    404          5.729653   1.000000
    405          5.960808   1.000000
    406          5.971822   1.000000
    407          5.982033   1.000000
    408          5.990499   1.000000
    409          6.004851   1.000000
    410          6.010963   1.000000
    411          6.017292   1.000000
    412          6.033555   1.000000
    413          6.043401   1.000000
    414          6.062116   1.000000
    415          6.076468   1.000000
    416          6.097354   1.000000
    417          6.146844   1.000000
    418          6.203008   1.000000
    419          6.221267   1.000000
    420          6.232569   1.000000
    421          6.251310   1.000000
    422          6.266214   1.000000
    423          6.290922   1.000000
    424          6.291820   1.000000
    425          6.309093   1.000000
    426          6.320226   1.000000
    427          6.328826   1.000000
    428          6.346581   1.000000
    429          6.378824   1.000000
    430          6.391344   1.000000
    431          6.427581   1.000000
    432          6.516356   1.000000
    433          6.521298   1.000000
    434          6.524305   1.000000
    435          6.528544   1.000000
    436          6.531790   1.000000
    437          6.536169   1.000000
    438          6.540210   1.000000
    439          6.563052   1.000000
    440          6.584705   1.000000
    441          6.586914   1.000000
    442          6.592001   1.000000
    443          6.604161   1.000000
    444          6.649822   1.000000
    445          6.656343   1.000000
    446          6.676032   1.000000
    447          6.702421   1.000000
    448          6.703510   1.000000
    449          6.750898   1.000000
    450          6.770187   1.000000
    451          6.775885   1.000000
    452          6.857611   1.000000
    453          6.861888   1.000000
    454          6.889883   1.000000
    455          6.891978   1.000000
    456          6.921007   1.000000
    457          6.923001   1.000000
    458          6.926555   1.000000
    459          6.928123   1.000000
    460          6.928898   1.000000
    461          6.931036   1.000000
    462          6.936761   1.000000
    463          7.016052   1.000000
    464          7.051706   1.000000
    465          7.056711   1.000000
    466          7.062321   1.000000
    467          7.072344   1.000000
    468          7.072790   1.000000
    469          7.075378   1.000000
    470          7.079923   1.000000
    471          7.120649   1.000000
    472          7.137892   1.000000
    473          7.149432   1.000000
    474          7.165124   1.000000
    475          7.168317   1.000000
    476          7.180324   1.000000
    477          7.183807   1.000000
    478          7.185838   1.000000
    479          7.193357   1.000000
    480          7.212056   1.000000
    481          7.257595   1.000000
    482          7.264044   1.000000
    483          7.265234   1.000000
    484          7.290678   1.000000
    485          7.297348   1.000000
    486          7.369475   1.000000
    487          7.438177   1.000000
    488          7.448352   1.000000
    489          7.462151   1.000000
    490          7.474971   1.000000
    491          7.493154   1.000000
    492          7.508024   1.000000
    493          7.523673   1.000000
    494          7.532619   1.000000
    495          7.546987   1.000000
    496          7.557426   1.000000
    497          7.579907   1.000000
    498          7.602860   1.000000
    499          7.610190   1.000000
    500          7.616494   1.000000
    501          7.633436   1.000000
    502          7.661710   1.000000
    503          7.671108   1.000000
    504          7.673282   1.000000
    505          7.721493   1.000000
    506          7.808774   1.000000
    507          7.822977   1.000000
    508          7.834651   1.000000
    509          7.875902   1.000000
    510          7.879537   1.000000
    511          7.887896   1.000000
    512          7.891530   1.000000
    513          7.913771   1.000000
    514          7.923179   1.000000
    515          7.943978   1.000000
    516          7.946412   1.000000
    517          7.957927   1.000000
    518          7.969530   1.000000
    519          7.979899   1.000000
    520          7.999974   1.000000
    521          8.010028   1.000000
    522          8.029108   1.000000
    523          8.036475   1.000000
    524          8.037512   1.000000
    525          8.043962   1.000000
    526          8.045467   1.000000
    527          8.050642   1.000000
    528          8.058143   1.000000
    529          8.059383   1.000000
    530          8.061694   1.000000
    531          8.079432   1.000000
    532          8.091971   1.000000
    533          8.096055   1.000000
    534          8.102227   1.000000
    535          8.131852   1.000000
    536          8.141033   1.000000
    537          8.145209   1.000000
    538          8.150254   1.000000
    539          8.152902   1.000000
    540          8.159061   1.000000
    541          8.179288   1.000000
    542          8.210709   1.000001
    543          8.241006   1.000002
    544          8.278526   1.000009
    545          8.281446   1.000009
    546          8.294747   1.000014
    547          8.317470   1.000029
    548          8.333671   1.000047
    549          8.334594   1.000048
    550          8.349954   1.000075
    551          8.354094   1.000085
    552          8.362744   1.000108
    553          8.382955   1.000186
    554          8.397064   1.000270
    555          8.408130   1.000357
    556          8.423057   1.000517
    557          8.424391   1.000534
    558          8.437310   1.000727
    559          8.437448   1.000729
    560          8.440534   1.000784
    561          8.442703   1.000824
    562          8.449933   1.000974
    563          8.450572   1.000988
    564          8.461669   1.001267
    565          8.489499   1.002291
    566          8.541734   1.006133
    567          8.545835   1.006578
    568          8.555900   1.007775
    569          8.684319   1.032923
    570          8.732866   1.033663
    571          8.770226   1.017290
    572          8.770646   1.016982
    573          8.797153   0.990645
    574          8.899036   0.736498
    575          8.912710   0.684829
    576          8.935707   0.592114
    577          8.938227   0.581640
    578          8.964676   0.470170
    579          8.986520   0.379123
    580          9.002546   0.315122
    581          9.046085   0.163209
    582          9.050734   0.149398
    583          9.064201   0.112372
    584          9.075773   0.084177
    585          9.105619   0.026937
    586          9.111106   0.018763
    587          9.148850  -0.019957
    588          9.153708  -0.022975
    589          9.163230  -0.027798
    590          9.167832  -0.029646
    591          9.176035  -0.032232
    592          9.180272  -0.033240
    593          9.182690  -0.033721
    594          9.186408  -0.034337
    595          9.193890  -0.035150
    596          9.198555  -0.035394
    597          9.199420  -0.035419
    598          9.201182  -0.035450
    599          9.205955  -0.035415
    600          9.207804  -0.035356
    601          9.214600  -0.034945
    602          9.236284  -0.032014
    603          9.243339  -0.030681
    604          9.245874  -0.030171
    605          9.254449  -0.028353
    606          9.302968  -0.017398
    607          9.351252  -0.008849
    608          9.393033  -0.004330
    609          9.397863  -0.003958
    610          9.405756  -0.003407
    611          9.415567  -0.002812
    612          9.431496  -0.002035
    613          9.446924  -0.001466
    614          9.456453  -0.001189
    615          9.467046  -0.000936
    616          9.471859  -0.000838
    617          9.475072  -0.000777
    618          9.482636  -0.000650
    619          9.484090  -0.000628
    620          9.488196  -0.000569
    621          9.495767  -0.000474
    622          9.500223  -0.000424
    623          9.504202  -0.000384
    624          9.508209  -0.000348
    625          9.511341  -0.000321
    626          9.548819  -0.000119
    627          9.568499  -0.000069
    628          9.572617  -0.000061
    629          9.599090  -0.000028
    630          9.599669  -0.000027
    631          9.615833  -0.000017
    632          9.617758  -0.000016
    633          9.624781  -0.000013
    634          9.630560  -0.000011
    635          9.635208  -0.000009
    636          9.647020  -0.000006
    637          9.662382  -0.000004
    638          9.675151  -0.000002
    639          9.681164  -0.000002
    640          9.689955  -0.000001
    641          9.738444  -0.000000
    642          9.745573  -0.000000
    643          9.781163  -0.000000
    644          9.799882  -0.000000
    645          9.842681  -0.000000
    646          9.868248  -0.000000
    647          9.872330  -0.000000
    648          9.876620  -0.000000
    649          9.886605  -0.000000
    650          9.902616  -0.000000
    651          9.903495  -0.000000
    652          9.923778  -0.000000
    653          9.924908  -0.000000
    654          9.925556  -0.000000
    655          9.944528  -0.000000
    656          9.950547  -0.000000
    657          9.963303  -0.000000
    658          9.967343  -0.000000
    659          9.979689  -0.000000
    660          9.983620  -0.000000
    661          9.995160  -0.000000
    662         10.005932  -0.000000
    663         10.006716  -0.000000
    664         10.012408  -0.000000
    665         10.013472  -0.000000
    666         10.023602  -0.000000
    667         10.026346  -0.000000
    668         10.034826  -0.000000
    669         10.037457  -0.000000
    670         10.091708  -0.000000
    671         10.110943  -0.000000
    672         10.112362  -0.000000
    673         10.126644  -0.000000
    674         10.163633  -0.000000
    675         10.169749  -0.000000
    676         10.197330  -0.000000
    677         10.208294  -0.000000
    678         10.222298  -0.000000
    679         10.222818  -0.000000
    680         10.234851  -0.000000
    681         10.249209  -0.000000
    682         10.256729  -0.000000
    683         10.259942  -0.000000
    684         10.269516  -0.000000
    685         10.271169  -0.000000
    686         10.278051  -0.000000
    687         10.283011  -0.000000
    688         10.296820  -0.000000
    689         10.297511  -0.000000
    690         10.308179  -0.000000
    691         10.312772  -0.000000
 
 -0.2500000E+00  0.2500000E+00  0.3333333E+00  0.4166667E-01
      1        -39.914744   1.000000
      2        -39.895891   1.000000
      3        -39.879397   1.000000
      4        -39.869756   1.000000
      5        -39.857173   1.000000
      6        -39.855204   1.000000
      7        -39.850857   1.000000
      8        -39.843410   1.000000
      9        -39.842379   1.000000
     10        -39.841399   1.000000
     11        -39.834424   1.000000
     12        -39.827117   1.000000
     13        -39.825032   1.000000
     14        -39.818709   1.000000
     15        -39.818200   1.000000
     16        -39.815013   1.000000
     17        -39.811416   1.000000
     18        -39.808114   1.000000
     19        -39.806336   1.000000
     20        -39.805422   1.000000
     21        -39.801300   1.000000
     22        -39.796801   1.000000
     23        -39.793890   1.000000
     24        -39.789222   1.000000
     25        -39.787335   1.000000
     26        -39.784658   1.000000
     27        -39.783197   1.000000
     28        -39.782367   1.000000
     29        -39.779182   1.000000
     30        -39.778356   1.000000
     31        -39.776435   1.000000
     32        -39.773617   1.000000
     33        -39.773446   1.000000
     34        -39.771777   1.000000
     35        -39.769772   1.000000
     36        -39.766632   1.000000
     37        -39.766482   1.000000
     38        -39.765396   1.000000
     39        -39.764702   1.000000
     40        -39.763889   1.000000
     41        -39.763715   1.000000
     42        -39.761485   1.000000
     43        -39.761194   1.000000
     44        -39.760563   1.000000
     45        -39.758714   1.000000
     46        -39.757853   1.000000
     47        -39.757316   1.000000
     48        -39.754025   1.000000
     49        -39.753781   1.000000
     50        -39.752496   1.000000
     51        -39.751328   1.000000
     52        -39.750977   1.000000
     53        -39.750145   1.000000
     54        -39.749505   1.000000
     55        -39.748336   1.000000
     56        -39.747753   1.000000
     57        -39.746957   1.000000
     58        -39.746479   1.000000
     59        -39.745144   1.000000
     60        -39.744852   1.000000
     61        -39.744549   1.000000
     62        -39.742691   1.000000
     63        -39.742065   1.000000
     64        -39.740702   1.000000
     65        -39.738899   1.000000
     66        -39.738133   1.000000
     67        -39.738053   1.000000
     68        -39.737456   1.000000
     69        -39.735917   1.000000
     70        -39.735861   1.000000
     71        -39.734760   1.000000
     72        -39.733167   1.000000
     73        -39.732863   1.000000
     74        -39.731783   1.000000
     75        -39.730538   1.000000
     76        -39.729853   1.000000
     77        -39.728478   1.000000
     78        -39.726912   1.000000
     79        -39.726262   1.000000
     80        -39.725242   1.000000
     81        -39.724880   1.000000
     82        -39.723892   1.000000
     83        -39.722963   1.000000
     84        -39.722615   1.000000
     85        -39.722196   1.000000
     86        -39.721407   1.000000
     87        -39.721260   1.000000
     88        -39.720720   1.000000
     89        -39.720010   1.000000
     90        -39.719308   1.000000
     91        -39.713773   1.000000
     92        -39.713359   1.000000
     93        -39.706094   1.000000
     94        -39.705967   1.000000
     95        -39.702771   1.000000
     96        -39.700531   1.000000
     97        -18.379033   1.000000
     98        -18.337512   1.000000
     99        -18.315656   1.000000
    100        -18.311367   1.000000
    101        -18.304426   1.000000
    102        -18.300590   1.000000
    103        -18.297521   1.000000
    104        -18.297163   1.000000
    105        -18.293042   1.000000
    106        -18.286248   1.000000
    107        -18.282455   1.000000
    108        -18.275293   1.000000
    109        -18.264069   1.000000
    110        -18.261659   1.000000
    111        -18.259561   1.000000
    112        -18.255990   1.000000
    113        -18.250896   1.000000
    114        -18.245230   1.000000
    115        -18.239405   1.000000
    116        -18.237013   1.000000
    117        -18.227762   1.000000
    118        -18.223435   1.000000
    119        -18.219943   1.000000
    120        -18.218894   1.000000
    121        -18.214118   1.000000
    122        -18.212265   1.000000
    123        -18.211085   1.000000
    124        -18.207172   1.000000
    125        -18.205739   1.000000
    126        -18.204734   1.000000
    127        -18.204123   1.000000
    128        -18.202361   1.000000
    129        -18.202052   1.000000
    130        -18.199431   1.000000
    131        -18.198660   1.000000
    132        -18.197156   1.000000
    133        -18.196579   1.000000
    134        -18.184854   1.000000
    135        -18.182727   1.000000
    136        -18.180312   1.000000
    137        -18.176100   1.000000
    138        -18.172451   1.000000
    139        -18.171075   1.000000
    140        -18.169072   1.000000
    141        -18.168624   1.000000
    142        -18.165531   1.000000
    143        -18.161569   1.000000
    144        -18.157075   1.000000
    145        -18.154402   1.000000
    146        -18.147244   1.000000
    147        -18.142464   1.000000
    148        -18.139934   1.000000
    149        -18.136621   1.000000
    150        -18.136069   1.000000
    151        -18.130203   1.000000
    152        -18.129521   1.000000
    153        -18.122799   1.000000
    154        -18.119080   1.000000
    155        -18.118884   1.000000
    156        -18.114235   1.000000
    157        -18.111962   1.000000
    158        -18.097605   1.000000
    159        -18.093905   1.000000
    160        -18.086080   1.000000
    161        -18.082704   1.000000
    162        -18.082590   1.000000
    163        -18.078466   1.000000
    164        -18.075985   1.000000
    165        -18.074231   1.000000
    166        -18.073734   1.000000
    167        -18.067082   1.000000
    168        -18.065445   1.000000
    169        -18.061359   1.000000
    170        -18.059588   1.000000
    171        -18.054157   1.000000
    172        -18.053942   1.000000
    173        -18.051711   1.000000
    174        -18.026399   1.000000
    175        -18.005490   1.000000
    176        -17.993919   1.000000
    177        -17.986816   1.000000
    178        -17.986091   1.000000
    179        -17.973780   1.000000
    180        -17.966433   1.000000
    181        -17.961283   1.000000
    182        -17.957378   1.000000
    183        -17.956557   1.000000
    184        -17.951387   1.000000
    185        -17.951189   1.000000
    186        -17.946156   1.000000
    187        -17.944307   1.000000
    188        -17.943192   1.000000
    189        -17.943081   1.000000
    190        -17.938140   1.000000
    191        -17.935275   1.000000
    192        -17.933323   1.000000
    193        -17.930859   1.000000
    194        -17.930780   1.000000
    195        -17.918505   1.000000
    196        -17.915412   1.000000
    197        -17.908095   1.000000
    198        -17.902138   1.000000
    199        -17.896191   1.000000
    200        -17.892855   1.000000
    201        -17.885457   1.000000
    202        -17.883888   1.000000
    203        -17.876691   1.000000
    204        -17.871851   1.000000
    205        -17.870228   1.000000
    206        -17.865883   1.000000
    207        -17.864407   1.000000
    208        -17.861768   1.000000
    209        -17.860377   1.000000
    210        -17.859231   1.000000
    211        -17.856329   1.000000
    212        -17.855579   1.000000
    213        -17.853001   1.000000
    214        -17.852586   1.000000
    215        -17.844359   1.000000
    216        -17.837862   1.000000
    217        -17.833684   1.000000
    218        -17.831218   1.000000
    219        -17.830329   1.000000
    220        -17.824841   1.000000
    221        -17.823860   1.000000
    222        -17.820577   1.000000
    223        -17.810547   1.000000
    224        -17.809506   1.000000
    225        -17.807189   1.000000
    226        -17.803002   1.000000
    227        -17.798571   1.000000
    228        -17.796569   1.000000
    229        -17.794960   1.000000
    230        -17.792663   1.000000
    231        -17.789570   1.000000
    232        -17.787763   1.000000
    233        -17.782886   1.000000
    234        -17.782573   1.000000
    235        -17.774374   1.000000
    236        -17.770901   1.000000
    237        -17.767079   1.000000
    238        -17.764718   1.000000
    239        -17.763714   1.000000
    240        -17.763530   1.000000
    241        -17.761870   1.000000
    242        -17.752769   1.000000
    243        -17.752637   1.000000
    244        -17.747457   1.000000
    245        -17.746280   1.000000
    246        -17.743193   1.000000
    247        -17.742260   1.000000
    248        -17.738613   1.000000
    249        -17.738170   1.000000
    250        -17.733751   1.000000
    251        -17.732554   1.000000
    252        -17.728629   1.000000
    253        -17.727294   1.000000
    254        -17.724286   1.000000
    255        -17.718426   1.000000
    256        -17.712083   1.000000
    257        -17.708788   1.000000
    258        -17.705212   1.000000
    259        -17.703179   1.000000
    260        -17.699930   1.000000
    261        -17.696275   1.000000
    262        -17.695088   1.000000
    263        -17.690004   1.000000
    264        -17.685734   1.000000
    265        -17.684673   1.000000
    266        -17.682007   1.000000
    267        -17.681782   1.000000
    268        -17.680540   1.000000
    269        -17.677573   1.000000
    270        -17.677018   1.000000
    271        -17.673344   1.000000
    272        -17.672715   1.000000
    273        -17.670294   1.000000
    274        -17.669944   1.000000
    275        -17.669347   1.000000
    276        -17.664620   1.000000
    277        -17.661300   1.000000
    278        -17.660364   1.000000
    279        -17.659019   1.000000
    280        -17.654370   1.000000
    281        -17.652976   1.000000
    282        -17.651334   1.000000
    283        -17.649594   1.000000
    284        -17.647618   1.000000
    285        -17.645978   1.000000
    286        -17.641996   1.000000
    287        -17.641594   1.000000
    288        -17.640765   1.000000
    289        -17.640455   1.000000
    290        -17.637913   1.000000
    291        -17.634573   1.000000
    292        -17.634174   1.000000
    293        -17.633786   1.000000
    294        -17.632208   1.000000
    295        -17.632131   1.000000
    296        -17.630413   1.000000
    297        -17.629049   1.000000
    298        -17.628059   1.000000
    299        -17.627156   1.000000
    300        -17.626037   1.000000
    301        -17.623038   1.000000
    302        -17.622108   1.000000
    303        -17.621222   1.000000
    304        -17.620010   1.000000
    305        -17.618923   1.000000
    306        -17.617358   1.000000
    307        -17.616765   1.000000
    308        -17.615469   1.000000
    309        -17.614932   1.000000
    310        -17.614649   1.000000
    311        -17.613634   1.000000
    312        -17.608468   1.000000
    313        -17.605443   1.000000
    314        -17.604196   1.000000
    315        -17.602627   1.000000
    316        -17.602097   1.000000
    317        -17.597595   1.000000
    318        -17.596298   1.000000
    319        -17.595727   1.000000
    320        -17.593365   1.000000
    321        -17.593108   1.000000
    322        -17.590594   1.000000
    323        -17.586460   1.000000
    324        -17.583275   1.000000
    325        -17.582690   1.000000
    326        -17.580802   1.000000
    327        -17.579453   1.000000
    328        -17.578110   1.000000
    329        -17.577581   1.000000
    330        -17.576382   1.000000
    331        -17.576185   1.000000
    332        -17.574699   1.000000
    333        -17.570135   1.000000
    334        -17.569664   1.000000
    335        -17.568129   1.000000
    336        -17.565474   1.000000
    337        -17.565380   1.000000
    338        -17.564369   1.000000
    339        -17.562645   1.000000
    340        -17.561887   1.000000
    341        -17.560672   1.000000
    342        -17.559353   1.000000
    343        -17.558029   1.000000
    344        -17.553937   1.000000
    345        -17.553770   1.000000
    346        -17.549929   1.000000
    347        -17.548831   1.000000
    348        -17.547128   1.000000
    349        -17.546093   1.000000
    350        -17.544648   1.000000
    351        -17.544515   1.000000
    352        -17.541608   1.000000
    353        -17.540415   1.000000
    354        -17.535494   1.000000
    355        -17.534474   1.000000
    356        -17.528365   1.000000
    357        -17.521982   1.000000
    358        -17.520550   1.000000
    359        -17.517629   1.000000
    360        -17.516478   1.000000
    361        -17.512835   1.000000
    362        -17.512034   1.000000
    363        -17.510447   1.000000
    364        -17.505057   1.000000
    365        -17.503186   1.000000
    366        -17.501755   1.000000
    367        -17.500440   1.000000
    368        -17.497095   1.000000
    369        -17.495821   1.000000
    370        -17.494041   1.000000
    371        -17.492876   1.000000
    372        -17.487935   1.000000
    373        -17.487382   1.000000
    374        -17.481271   1.000000
    375        -17.479539   1.000000
    376        -17.476349   1.000000
    377        -17.474404   1.000000
    378        -17.473856   1.000000
    379        -17.466293   1.000000
    380        -17.452660   1.000000
    381        -17.446435   1.000000
    382        -17.437137   1.000000
    383        -17.434547   1.000000
    384        -17.425021   1.000000
    385          2.472965   1.000000
    386          3.566586   1.000000
    387          3.862805   1.000000
    388          4.329498   1.000000
    389          4.568661   1.000000
    390          4.652853   1.000000
    391          4.701105   1.000000
    392          4.825673   1.000000
    393          4.877607   1.000000
    394          4.952867   1.000000
    395          5.252284   1.000000
    396          5.280046   1.000000
    397          5.368594   1.000000
    398          5.404207   1.000000
    399          5.422701   1.000000
    400          5.456381   1.000000
    401          5.512474   1.000000
    402          5.586978   1.000000
    403          5.691073   1.000000
    404          5.730388   1.000000
    405          5.961584   1.000000
    406          5.971876   1.000000
    407          5.982178   1.000000
    408          5.990166   1.000000
    409          6.004691   1.000000
    410          6.010865   1.000000
    411          6.017297   1.000000
    412          6.033023   1.000000
    413          6.043254   1.000000
    414          6.062223   1.000000
    415          6.076603   1.000000
    416          6.097448   1.000000
    417          6.146344   1.000000
    418          6.202973   1.000000
    419          6.220862   1.000000
    420          6.232675   1.000000
    421          6.251514   1.000000
    422          6.266486   1.000000
    423          6.290929   1.000000
    424          6.291809   1.000000
    425          6.309208   1.000000
    426          6.320179   1.000000
    427          6.328532   1.000000
    428          6.346592   1.000000
    429          6.378103   1.000000
    430          6.391551   1.000000
    431          6.428315   1.000000
    432          6.517095   1.000000
    433          6.521934   1.000000
    434          6.524456   1.000000
    435          6.529010   1.000000
    436          6.531912   1.000000
    437          6.535911   1.000000
    438          6.539770   1.000000
    439          6.561265   1.000000
    440          6.584840   1.000000
    441          6.586624   1.000000
    442          6.591418   1.000000
    443          6.604680   1.000000
    444          6.649307   1.000000
    445          6.656296   1.000000
    446          6.675949   1.000000
    447          6.702634   1.000000
    448          6.702987   1.000000
    449          6.754127   1.000000
    450          6.770672   1.000000
    451          6.773652   1.000000
    452          6.857330   1.000000
    453          6.862292   1.000000
    454          6.890063   1.000000
    455          6.891637   1.000000
    456          6.920959   1.000000
    457          6.922884   1.000000
    458          6.926585   1.000000
    459          6.928600   1.000000
    460          6.928961   1.000000
    461          6.930875   1.000000
    462          6.937020   1.000000
    463          7.015810   1.000000
    464          7.051568   1.000000
    465          7.056766   1.000000
    466          7.062357   1.000000
    467          7.073023   1.000000
    468          7.073468   1.000000
    469          7.075753   1.000000
    470          7.079737   1.000000
    471          7.122259   1.000000
    472          7.138689   1.000000
    473          7.143374   1.000000
    474          7.167148   1.000000
    475          7.167629   1.000000
    476          7.179294   1.000000
    477          7.183529   1.000000
    478          7.185934   1.000000
    479          7.193334   1.000000
    480          7.214059   1.000000
    481          7.257330   1.000000
    482          7.263780   1.000000
    483          7.265369   1.000000
    484          7.292508   1.000000
    485          7.297239   1.000000
    486          7.367332   1.000000
    487          7.438330   1.000000
    488          7.448397   1.000000
    489          7.462287   1.000000
    490          7.475552   1.000000
    491          7.489384   1.000000
    492          7.508684   1.000000
    493          7.523800   1.000000
    494          7.530787   1.000000
    495          7.546454   1.000000
    496          7.558049   1.000000
    497          7.584275   1.000000
    498          7.602676   1.000000
    499          7.610871   1.000000
    500          7.616513   1.000000
    501          7.638400   1.000000
    502          7.661433   1.000000
    503          7.670837   1.000000
    504          7.673525   1.000000
    505          7.715644   1.000000
    506          7.808759   1.000000
    507          7.822844   1.000000
    508          7.834904   1.000000
    509          7.875529   1.000000
    510          7.880628   1.000000
    511          7.888075   1.000000
    512          7.890559   1.000000
    513          7.913591   1.000000
    514          7.921477   1.000000
    515          7.943758   1.000000
    516          7.946851   1.000000
    517          7.960230   1.000000
    518          7.969900   1.000000
    519          7.980953   1.000000
    520          8.000136   1.000000
    521          8.010999   1.000000
    522          8.028189   1.000000
    523          8.035292   1.000000
    524          8.037261   1.000000
    525          8.043442   1.000000
    526          8.044154   1.000000
    527          8.051358   1.000000
    528          8.058211   1.000000
    529          8.059510   1.000000
    530          8.062131   1.000000
    531          8.078837   1.000000
    532          8.092670   1.000000
    533          8.095339   1.000000
    534          8.101944   1.000000
    535          8.132497   1.000000
    536          8.140878   1.000000
    537          8.146422   1.000000
    538          8.149777   1.000000
    539          8.152797   1.000000
    540          8.159922   1.000000
    541          8.178837   1.000000
    542          8.211298   1.000001
    543          8.240906   1.000002
    544          8.278798   1.000009
    545          8.281134   1.000009
    546          8.294293   1.000014
    547          8.317203   1.000029
    548          8.333339   1.000047
    549          8.335072   1.000049
    550          8.351107   1.000078
    551          8.353950   1.000084
    552          8.360468   1.000101
    553          8.385105   1.000197
    554          8.397067   1.000270
    555          8.408691   1.000362
    556          8.423140   1.000518
    557          8.424019   1.000529
    558          8.437049   1.000722
    559          8.437294   1.000727
    560          8.440644   1.000786
    561          8.442299   1.000817
    562          8.449816   1.000971
    563          8.451241   1.001003
    564          8.461086   1.001251
    565          8.489116   1.002273
    566          8.541617   1.006121
    567          8.544964   1.006481
    568          8.556763   1.007884
    569          8.684556   1.032961
    570          8.732904   1.033656
    571          8.770148   1.017347
    572          8.770565   1.017042
    573          8.797177   0.990614
    574          8.896740   0.744856
    575          8.912310   0.686383
    576          8.935930   0.591190
    577          8.937907   0.582974
    578          8.967024   0.460264
    579          8.986952   0.377362
    580          9.002533   0.315174
    581          9.047736   0.158246
    582          9.050562   0.149900
    583          9.064117   0.112589
    584          9.074174   0.087871
    585          9.105664   0.026868
    586          9.110832   0.019155
    587          9.149672  -0.020495
    588          9.150986  -0.021333
    589          9.165162  -0.028610
    590          9.166402  -0.029104
    591          9.176253  -0.032289
    592          9.177767  -0.032670
    593          9.183147  -0.033805
    594          9.186670  -0.034375
    595          9.195428  -0.035252
    596          9.198015  -0.035375
    597          9.199827  -0.035428
    598          9.201330  -0.035452
    599          9.206669  -0.035395
    600          9.208198  -0.035340
    601          9.215315  -0.034885
    602          9.236427  -0.031988
    603          9.244324  -0.030485
    604          9.244884  -0.030372
    605          9.253911  -0.028471
    606          9.303738  -0.017235
    607          9.352844  -0.008630
    608          9.393129  -0.004322
    609          9.399100  -0.003867
    610          9.405788  -0.003405
    611          9.412218  -0.003005
    612          9.432489  -0.001993
    613          9.446587  -0.001476
    614          9.455471  -0.001215
    615          9.466889  -0.000939
    616          9.472510  -0.000825
    617          9.473523  -0.000806
    618          9.483211  -0.000642
    619          9.485141  -0.000613
    620          9.490051  -0.000544
    621          9.496389  -0.000466
    622          9.498152  -0.000447
    623          9.503701  -0.000389
    624          9.508077  -0.000349
    625          9.511638  -0.000319
    626          9.547337  -0.000124
    627          9.568729  -0.000068
    628          9.572260  -0.000062
    629          9.598820  -0.000028
    630          9.599485  -0.000028
    631          9.615177  -0.000017
    632          9.618911  -0.000015
    633          9.624578  -0.000013
    634          9.631079  -0.000010
    635          9.635006  -0.000009
    636          9.647468  -0.000006
    637          9.662375  -0.000004
    638          9.675508  -0.000002
    639          9.680439  -0.000002
    640          9.691572  -0.000001
    641          9.738344  -0.000000
    642          9.745637  -0.000000
    643          9.780653  -0.000000
    644          9.799953  -0.000000
    645          9.842434  -0.000000
    646          9.867787  -0.000000
    647          9.872488  -0.000000
    648          9.877884  -0.000000
    649          9.884520  -0.000000
    650          9.902241  -0.000000
    651          9.903518  -0.000000
    652          9.921115  -0.000000
    653          9.926349  -0.000000
    654          9.930896  -0.000000
    655          9.941472  -0.000000
    656          9.951144  -0.000000
    657          9.962353  -0.000000
    658          9.967209  -0.000000
    659          9.980982  -0.000000
    660          9.982763  -0.000000
    661          9.995146  -0.000000
    662         10.006048  -0.000000
    663         10.006527  -0.000000
    664         10.013703  -0.000000
    665         10.013887  -0.000000
    666         10.023907  -0.000000
    667         10.026866  -0.000000
    668         10.034404  -0.000000
    669         10.037171  -0.000000
    670         10.092511  -0.000000
    671         10.110599  -0.000000
    672         10.111038  -0.000000
    673         10.126691  -0.000000
    674         10.163851  -0.000000
    675         10.169831  -0.000000
    676         10.198076  -0.000000
    677         10.206176  -0.000000
    678         10.222492  -0.000000
    679         10.222878  -0.000000
    680         10.234948  -0.000000
    681         10.248346  -0.000000
    682         10.257262  -0.000000
    683         10.258763  -0.000000
    684         10.269602  -0.000000
    685         10.272274  -0.000000
    686         10.278956  -0.000000
    687         10.282834  -0.000000
    688         10.297066  -0.000000
    689         10.297734  -0.000000
    690         10.307285  -0.000000
    691         10.310955  -0.000000
 
 -0.2500000E+00  0.8988716E-17  0.3333333E+00  0.4166667E-01
      1        -39.914740   1.000000
      2        -39.895883   1.000000
      3        -39.879513   1.000000
      4        -39.869603   1.000000
      5        -39.857339   1.000000
      6        -39.854916   1.000000
      7        -39.851268   1.000000
      8        -39.843323   1.000000
      9        -39.841730   1.000000
     10        -39.841232   1.000000
     11        -39.835210   1.000000
     12        -39.827102   1.000000
     13        -39.825075   1.000000
     14        -39.818874   1.000000
     15        -39.817945   1.000000
     16        -39.815537   1.000000
     17        -39.811202   1.000000
     18        -39.807623   1.000000
     19        -39.806502   1.000000
     20        -39.804682   1.000000
     21        -39.801696   1.000000
     22        -39.796869   1.000000
     23        -39.794288   1.000000
     24        -39.789304   1.000000
     25        -39.787105   1.000000
     26        -39.784579   1.000000
     27        -39.783145   1.000000
     28        -39.782577   1.000000
     29        -39.779090   1.000000
     30        -39.778513   1.000000
     31        -39.776518   1.000000
     32        -39.773400   1.000000
     33        -39.773095   1.000000
     34        -39.772161   1.000000
     35        -39.769385   1.000000
     36        -39.766737   1.000000
     37        -39.766392   1.000000
     38        -39.765237   1.000000
     39        -39.764831   1.000000
     40        -39.763860   1.000000
     41        -39.763855   1.000000
     42        -39.761666   1.000000
     43        -39.761258   1.000000
     44        -39.760596   1.000000
     45        -39.758869   1.000000
     46        -39.757705   1.000000
     47        -39.757556   1.000000
     48        -39.753966   1.000000
     49        -39.753405   1.000000
     50        -39.752665   1.000000
     51        -39.751533   1.000000
     52        -39.750790   1.000000
     53        -39.750013   1.000000
     54        -39.749437   1.000000
     55        -39.748417   1.000000
     56        -39.747856   1.000000
     57        -39.746867   1.000000
     58        -39.746414   1.000000
     59        -39.745134   1.000000
     60        -39.745077   1.000000
     61        -39.744286   1.000000
     62        -39.742683   1.000000
     63        -39.741745   1.000000
     64        -39.741443   1.000000
     65        -39.738862   1.000000
     66        -39.738358   1.000000
     67        -39.738076   1.000000
     68        -39.737301   1.000000
     69        -39.736027   1.000000
     70        -39.735704   1.000000
     71        -39.734794   1.000000
     72        -39.732828   1.000000
     73        -39.732398   1.000000
     74        -39.731881   1.000000
     75        -39.730570   1.000000
     76        -39.730134   1.000000
     77        -39.728485   1.000000
     78        -39.727075   1.000000
     79        -39.726145   1.000000
     80        -39.725354   1.000000
     81        -39.724834   1.000000
     82        -39.723849   1.000000
     83        -39.722914   1.000000
     84        -39.722666   1.000000
     85        -39.722247   1.000000
     86        -39.721453   1.000000
     87        -39.721393   1.000000
     88        -39.720675   1.000000
     89        -39.719736   1.000000
     90        -39.719457   1.000000
     91        -39.713589   1.000000
     92        -39.713506   1.000000
     93        -39.706072   1.000000
     94        -39.705989   1.000000
     95        -39.702772   1.000000
     96        -39.700537   1.000000
     97        -18.379032   1.000000
     98        -18.337531   1.000000
     99        -18.315690   1.000000
    100        -18.311176   1.000000
    101        -18.304755   1.000000
    102        -18.300549   1.000000
    103        -18.297458   1.000000
    104        -18.297119   1.000000
    105        -18.292983   1.000000
    106        -18.286205   1.000000
    107        -18.282498   1.000000
    108        -18.275267   1.000000
    109        -18.264163   1.000000
    110        -18.261660   1.000000
    111        -18.259438   1.000000
    112        -18.256120   1.000000
    113        -18.250677   1.000000
    114        -18.245612   1.000000
    115        -18.239266   1.000000
    116        -18.237013   1.000000
    117        -18.227787   1.000000
    118        -18.223494   1.000000
    119        -18.219808   1.000000
    120        -18.218900   1.000000
    121        -18.214246   1.000000
    122        -18.211749   1.000000
    123        -18.210972   1.000000
    124        -18.207057   1.000000
    125        -18.205854   1.000000
    126        -18.204650   1.000000
    127        -18.204460   1.000000
    128        -18.202213   1.000000
    129        -18.202179   1.000000
    130        -18.199410   1.000000
    131        -18.198841   1.000000
    132        -18.197263   1.000000
    133        -18.196236   1.000000
    134        -18.184693   1.000000
    135        -18.182920   1.000000
    136        -18.180401   1.000000
    137        -18.176150   1.000000
    138        -18.172463   1.000000
    139        -18.171169   1.000000
    140        -18.168930   1.000000
    141        -18.168804   1.000000
    142        -18.165524   1.000000
    143        -18.161988   1.000000
    144        -18.157087   1.000000
    145        -18.154069   1.000000
    146        -18.147476   1.000000
    147        -18.142352   1.000000
    148        -18.139700   1.000000
    149        -18.136851   1.000000
    150        -18.136156   1.000000
    151        -18.130122   1.000000
    152        -18.129554   1.000000
    153        -18.123077   1.000000
    154        -18.118924   1.000000
    155        -18.118358   1.000000
    156        -18.114500   1.000000
    157        -18.112191   1.000000
    158        -18.097644   1.000000
    159        -18.093676   1.000000
    160        -18.086359   1.000000
    161        -18.082686   1.000000
    162        -18.082171   1.000000
    163        -18.078261   1.000000
    164        -18.075644   1.000000
    165        -18.074315   1.000000
    166        -18.073780   1.000000
    167        -18.066531   1.000000
    168        -18.065496   1.000000
    169        -18.061564   1.000000
    170        -18.059525   1.000000
    171        -18.054405   1.000000
    172        -18.054374   1.000000
    173        -18.051682   1.000000
    174        -18.026398   1.000000
    175        -18.006019   1.000000
    176        -17.993103   1.000000
    177        -17.986938   1.000000
    178        -17.986526   1.000000
    179        -17.974074   1.000000
    180        -17.966343   1.000000
    181        -17.961901   1.000000
    182        -17.956831   1.000000
    183        -17.955889   1.000000
    184        -17.951062   1.000000
    185        -17.950927   1.000000
    186        -17.946500   1.000000
    187        -17.945006   1.000000
    188        -17.943319   1.000000
    189        -17.943219   1.000000
    190        -17.938121   1.000000
    191        -17.935096   1.000000
    192        -17.933888   1.000000
    193        -17.930541   1.000000
    194        -17.930365   1.000000
    195        -17.918657   1.000000
    196        -17.915259   1.000000
    197        -17.908679   1.000000
    198        -17.901409   1.000000
    199        -17.895043   1.000000
    200        -17.893071   1.000000
    201        -17.885736   1.000000
    202        -17.883827   1.000000
    203        -17.876796   1.000000
    204        -17.872130   1.000000
    205        -17.870159   1.000000
    206        -17.866395   1.000000
    207        -17.864548   1.000000
    208        -17.861925   1.000000
    209        -17.860819   1.000000
    210        -17.858945   1.000000
    211        -17.856394   1.000000
    212        -17.855555   1.000000
    213        -17.853400   1.000000
    214        -17.852665   1.000000
    215        -17.844031   1.000000
    216        -17.837827   1.000000
    217        -17.833299   1.000000
    218        -17.831458   1.000000
    219        -17.830256   1.000000
    220        -17.824978   1.000000
    221        -17.823110   1.000000
    222        -17.820023   1.000000
    223        -17.810751   1.000000
    224        -17.808856   1.000000
    225        -17.807156   1.000000
    226        -17.803374   1.000000
    227        -17.798502   1.000000
    228        -17.796693   1.000000
    229        -17.794856   1.000000
    230        -17.792585   1.000000
    231        -17.789584   1.000000
    232        -17.787673   1.000000
    233        -17.783421   1.000000
    234        -17.782414   1.000000
    235        -17.775008   1.000000
    236        -17.770925   1.000000
    237        -17.767440   1.000000
    238        -17.765060   1.000000
    239        -17.763861   1.000000
    240        -17.763375   1.000000
    241        -17.761597   1.000000
    242        -17.753464   1.000000
    243        -17.751940   1.000000
    244        -17.747649   1.000000
    245        -17.745732   1.000000
    246        -17.743361   1.000000
    247        -17.742183   1.000000
    248        -17.738930   1.000000
    249        -17.737603   1.000000
    250        -17.734603   1.000000
    251        -17.732460   1.000000
    252        -17.728449   1.000000
    253        -17.727244   1.000000
    254        -17.724435   1.000000
    255        -17.717495   1.000000
    256        -17.711939   1.000000
    257        -17.708877   1.000000
    258        -17.705124   1.000000
    259        -17.702884   1.000000
    260        -17.700259   1.000000
    261        -17.696527   1.000000
    262        -17.695055   1.000000
    263        -17.690016   1.000000
    264        -17.686052   1.000000
    265        -17.684373   1.000000
    266        -17.682420   1.000000
    267        -17.682149   1.000000
    268        -17.680298   1.000000
    269        -17.678011   1.000000
    270        -17.676966   1.000000
    271        -17.673638   1.000000
    272        -17.672246   1.000000
    273        -17.670549   1.000000
    274        -17.669828   1.000000
    275        -17.669401   1.000000
    276        -17.664642   1.000000
    277        -17.661479   1.000000
    278        -17.660520   1.000000
    279        -17.658714   1.000000
    280        -17.654201   1.000000
    281        -17.652276   1.000000
    282        -17.650804   1.000000
    283        -17.649580   1.000000
    284        -17.647351   1.000000
    285        -17.646191   1.000000
    286        -17.641795   1.000000
    287        -17.641665   1.000000
    288        -17.640553   1.000000
    289        -17.640466   1.000000
    290        -17.637639   1.000000
    291        -17.634903   1.000000
    292        -17.634514   1.000000
    293        -17.634254   1.000000
    294        -17.632243   1.000000
    295        -17.632062   1.000000
    296        -17.630607   1.000000
    297        -17.629015   1.000000
    298        -17.627587   1.000000
    299        -17.627220   1.000000
    300        -17.625594   1.000000
    301        -17.623107   1.000000
    302        -17.622186   1.000000
    303        -17.621840   1.000000
    304        -17.620009   1.000000
    305        -17.619223   1.000000
    306        -17.617230   1.000000
    307        -17.616637   1.000000
    308        -17.615524   1.000000
    309        -17.615086   1.000000
    310        -17.614598   1.000000
    311        -17.613409   1.000000
    312        -17.608515   1.000000
    313        -17.605566   1.000000
    314        -17.604251   1.000000
    315        -17.602515   1.000000
    316        -17.602215   1.000000
    317        -17.597489   1.000000
    318        -17.596647   1.000000
    319        -17.596057   1.000000
    320        -17.593193   1.000000
    321        -17.593188   1.000000
    322        -17.590530   1.000000
    323        -17.586208   1.000000
    324        -17.583318   1.000000
    325        -17.582601   1.000000
    326        -17.580839   1.000000
    327        -17.579461   1.000000
    328        -17.578239   1.000000
    329        -17.577540   1.000000
    330        -17.576461   1.000000
    331        -17.576063   1.000000
    332        -17.574279   1.000000
    333        -17.570146   1.000000
    334        -17.569519   1.000000
    335        -17.567925   1.000000
    336        -17.565647   1.000000
    337        -17.565321   1.000000
    338        -17.564456   1.000000
    339        -17.562624   1.000000
    340        -17.561469   1.000000
    341        -17.560823   1.000000
    342        -17.559428   1.000000
    343        -17.558082   1.000000
    344        -17.554298   1.000000
    345        -17.553878   1.000000
    346        -17.549643   1.000000
    347        -17.549087   1.000000
    348        -17.547370   1.000000
    349        -17.546146   1.000000
    350        -17.544542   1.000000
    351        -17.544532   1.000000
    352        -17.541611   1.000000
    353        -17.540418   1.000000
    354        -17.535469   1.000000
    355        -17.534294   1.000000
    356        -17.528299   1.000000
    357        -17.521980   1.000000
    358        -17.520303   1.000000
    359        -17.517768   1.000000
    360        -17.516609   1.000000
    361        -17.513005   1.000000
    362        -17.511948   1.000000
    363        -17.510355   1.000000
    364        -17.505046   1.000000
    365        -17.502978   1.000000
    366        -17.501950   1.000000
    367        -17.500448   1.000000
    368        -17.497175   1.000000
    369        -17.495836   1.000000
    370        -17.493899   1.000000
    371        -17.492668   1.000000
    372        -17.488261   1.000000
    373        -17.487391   1.000000
    374        -17.481205   1.000000
    375        -17.479575   1.000000
    376        -17.476367   1.000000
    377        -17.474436   1.000000
    378        -17.473953   1.000000
    379        -17.466044   1.000000
    380        -17.452703   1.000000
    381        -17.446414   1.000000
    382        -17.437154   1.000000
    383        -17.434536   1.000000
    384        -17.425058   1.000000
    385          2.472961   1.000000
    386          3.566583   1.000000
    387          3.862829   1.000000
    388          4.329611   1.000000
    389          4.568552   1.000000
    390          4.652712   1.000000
    391          4.700818   1.000000
    392          4.825668   1.000000
    393          4.877600   1.000000
    394          4.953405   1.000000
    395          5.252338   1.000000
    396          5.280409   1.000000
    397          5.368700   1.000000
    398          5.403908   1.000000
    399          5.422352   1.000000
    400          5.456499   1.000000
    401          5.512062   1.000000
    402          5.587756   1.000000
    403          5.690943   1.000000
    404          5.729751   1.000000
    405          5.960795   1.000000
    406          5.971829   1.000000
    407          5.982118   1.000000
    408          5.990431   1.000000
    409          6.004909   1.000000
    410          6.010859   1.000000
    411          6.017378   1.000000
    412          6.033473   1.000000
    413          6.043425   1.000000
    414          6.062025   1.000000
    415          6.076504   1.000000
    416          6.097457   1.000000
    417          6.146864   1.000000
    418          6.202955   1.000000
    419          6.221257   1.000000
    420          6.232628   1.000000
    421          6.251323   1.000000
    422          6.266106   1.000000
    423          6.290954   1.000000
    424          6.291753   1.000000
    425          6.309053   1.000000
    426          6.320311   1.000000
    427          6.328731   1.000000
    428          6.346623   1.000000
    429          6.378891   1.000000
    430          6.391286   1.000000
    431          6.427494   1.000000
    432          6.516489   1.000000
    433          6.521091   1.000000
    434          6.524394   1.000000
    435          6.528572   1.000000
    436          6.531894   1.000000
    437          6.536159   1.000000
    438          6.540262   1.000000
    439          6.562972   1.000000
    440          6.584737   1.000000
    441          6.586915   1.000000
    442          6.592011   1.000000
    443          6.604188   1.000000
    444          6.649844   1.000000
    445          6.656350   1.000000
    446          6.676083   1.000000
    447          6.702589   1.000000
    448          6.703373   1.000000
    449          6.750894   1.000000
    450          6.770206   1.000000
    451          6.775893   1.000000
    452          6.857496   1.000000
    453          6.861897   1.000000
    454          6.889969   1.000000
    455          6.891756   1.000000
    456          6.921119   1.000000
    457          6.922816   1.000000
    458          6.926550   1.000000
    459          6.927933   1.000000
    460          6.929124   1.000000
    461          6.930644   1.000000
    462          6.937112   1.000000
    463          7.016359   1.000000
    464          7.051232   1.000000
    465          7.057002   1.000000
    466          7.062101   1.000000
    467          7.072402   1.000000
    468          7.072645   1.000000
    469          7.075420   1.000000
    470          7.080003   1.000000
    471          7.120522   1.000000
    472          7.137897   1.000000
    473          7.149434   1.000000
    474          7.165146   1.000000
    475          7.168366   1.000000
    476          7.180601   1.000000
    477          7.183580   1.000000
    478          7.185511   1.000000
    479          7.193629   1.000000
    480          7.212285   1.000000
    481          7.257645   1.000000
    482          7.263981   1.000000
    483          7.265240   1.000000
    484          7.290710   1.000000
    485          7.297173   1.000000
    486          7.369434   1.000000
    487          7.438169   1.000000
    488          7.448391   1.000000
    489          7.462040   1.000000
    490          7.475054   1.000000
    491          7.493051   1.000000
    492          7.508477   1.000000
    493          7.523598   1.000000
    494          7.532616   1.000000
    495          7.546858   1.000000
    496          7.557301   1.000000
    497          7.580324   1.000000
    498          7.602812   1.000000
    499          7.610334   1.000000
    500          7.616416   1.000000
    501          7.633447   1.000000
    502          7.661739   1.000000
    503          7.671004   1.000000
    504          7.673182   1.000000
    505          7.721543   1.000000
    506          7.808873   1.000000
    507          7.822994   1.000000
    508          7.834686   1.000000
    509          7.875920   1.000000
    510          7.879621   1.000000
    511          7.887687   1.000000
    512          7.891420   1.000000
    513          7.913900   1.000000
    514          7.923186   1.000000
    515          7.944004   1.000000
    516          7.946339   1.000000
    517          7.957725   1.000000
    518          7.969465   1.000000
    519          7.980111   1.000000
    520          7.999861   1.000000
    521          8.009984   1.000000
    522          8.028920   1.000000
    523          8.036669   1.000000
    524          8.037555   1.000000
    525          8.044018   1.000000
    526          8.045778   1.000000
    527          8.050652   1.000000
    528          8.058218   1.000000
    529          8.059217   1.000000
    530          8.061576   1.000000
    531          8.079691   1.000000
    532          8.091877   1.000000
    533          8.096307   1.000000
    534          8.101886   1.000000
    535          8.131621   1.000000
    536          8.140715   1.000000
    537          8.145430   1.000000
    538          8.150280   1.000000
    539          8.152797   1.000000
    540          8.159197   1.000000
    541          8.179350   1.000000
    542          8.210722   1.000001
    543          8.241120   1.000002
    544          8.278091   1.000009
    545          8.281567   1.000010
    546          8.295323   1.000015
    547          8.317223   1.000029
    548          8.333430   1.000047
    549          8.334317   1.000048
    550          8.350427   1.000076
    551          8.354053   1.000084
    552          8.362685   1.000108
    553          8.382890   1.000186
    554          8.397300   1.000271
    555          8.408039   1.000356
    556          8.422962   1.000516
    557          8.424355   1.000533
    558          8.436642   1.000716
    559          8.437573   1.000731
    560          8.440714   1.000787
    561          8.442788   1.000826
    562          8.449620   1.000967
    563          8.450826   1.000994
    564          8.461958   1.001275
    565          8.489576   1.002294
    566          8.541339   1.006092
    567          8.545910   1.006586
    568          8.556305   1.007826
    569          8.684233   1.032910
    570          8.732761   1.033683
    571          8.770398   1.017165
    572          8.770548   1.017055
    573          8.797093   0.990720
    574          8.899344   0.735370
    575          8.912510   0.685605
    576          8.935607   0.592531
    577          8.938380   0.581002
    578          8.964494   0.470940
    579          8.986377   0.379709
    580          9.002684   0.314588
    581          9.046481   0.162011
    582          9.050129   0.151168
    583          9.063658   0.113779
    584          9.076302   0.082968
    585          9.105223   0.027554
    586          9.111554   0.018127
    587          9.148850  -0.019957
    588          9.153976  -0.023131
    589          9.162840  -0.027627
    590          9.167707  -0.029600
    591          9.175750  -0.032157
    592          9.180278  -0.033241
    593          9.183245  -0.033823
    594          9.185823  -0.034250
    595          9.194199  -0.035172
    596          9.198481  -0.035392
    597          9.199749  -0.035427
    598          9.200843  -0.035446
    599          9.205922  -0.035416
    600          9.208042  -0.035347
    601          9.214960  -0.034915
    602          9.235952  -0.032073
    603          9.243521  -0.030645
    604          9.245574  -0.030233
    605          9.254920  -0.028250
    606          9.303132  -0.017363
    607          9.351100  -0.008870
    608          9.392707  -0.004356
    609          9.398383  -0.003919
    610          9.405152  -0.003446
    611          9.415757  -0.002802
    612          9.431752  -0.002024
    613          9.446615  -0.001475
    614          9.457016  -0.001174
    615          9.467247  -0.000931
    616          9.471591  -0.000843
    617          9.475253  -0.000774
    618          9.482482  -0.000653
    619          9.484084  -0.000628
    620          9.488117  -0.000570
    621          9.495666  -0.000475
    622          9.500460  -0.000422
    623          9.504210  -0.000384
    624          9.508105  -0.000348
    625          9.510881  -0.000325
    626          9.549044  -0.000118
    627          9.568529  -0.000069
    628          9.572721  -0.000061
    629          9.598537  -0.000028
    630          9.599594  -0.000028
    631          9.616239  -0.000017
    632          9.617672  -0.000016
    633          9.624573  -0.000013
    634          9.630614  -0.000011
    635          9.634748  -0.000009
    636          9.647687  -0.000006
    637          9.662235  -0.000004
    638          9.675386  -0.000002
    639          9.680955  -0.000002
    640          9.690272  -0.000001
    641          9.738482  -0.000000
    642          9.745599  -0.000000
    643          9.780979  -0.000000
    644          9.799784  -0.000000
    645          9.842766  -0.000000
    646          9.868116  -0.000000
    647          9.872270  -0.000000
    648          9.876026  -0.000000
    649          9.886783  -0.000000
    650          9.903151  -0.000000
    651          9.903378  -0.000000
    652          9.923608  -0.000000
    653          9.925032  -0.000000
    654          9.925404  -0.000000
    655          9.944724  -0.000000
    656          9.950328  -0.000000
    657          9.963820  -0.000000
    658          9.967534  -0.000000
    659          9.980065  -0.000000
    660          9.983658  -0.000000
    661          9.995082  -0.000000
    662         10.005708  -0.000000
    663         10.006633  -0.000000
    664         10.012424  -0.000000
    665         10.013099  -0.000000
    666         10.023955  -0.000000
    667         10.026057  -0.000000
    668         10.034929  -0.000000
    669         10.037716  -0.000000
    670         10.091934  -0.000000
    671         10.110903  -0.000000
    672         10.112519  -0.000000
    673         10.126247  -0.000000
    674         10.163301  -0.000000
    675         10.170079  -0.000000
    676         10.197497  -0.000000
    677         10.208427  -0.000000
    678         10.221888  -0.000000
    679         10.222694  -0.000000
    680         10.235132  -0.000000
    681         10.249243  -0.000000
    682         10.257080  -0.000000
    683         10.259818  -0.000000
    684         10.269486  -0.000000
    685         10.271218  -0.000000
    686         10.277903  -0.000000
    687         10.282989  -0.000000
    688         10.296929  -0.000000
    689         10.297650  -0.000000
    690         10.307753  -0.000000
    691         10.308901  -0.000000
 
 -0.1345275E-16 -0.2500000E+00  0.3333333E+00  0.4166667E-01
      1        -39.914744   1.000000
      2        -39.895891   1.000000
      3        -39.879397   1.000000
      4        -39.869756   1.000000
      5        -39.857173   1.000000
      6        -39.855204   1.000000
      7        -39.850857   1.000000
      8        -39.843410   1.000000
      9        -39.842379   1.000000
     10        -39.841399   1.000000
     11        -39.834424   1.000000
     12        -39.827117   1.000000
     13        -39.825032   1.000000
     14        -39.818709   1.000000
     15        -39.818200   1.000000
     16        -39.815013   1.000000
     17        -39.811416   1.000000
     18        -39.808114   1.000000
     19        -39.806336   1.000000
     20        -39.805422   1.000000
     21        -39.801300   1.000000
     22        -39.796801   1.000000
     23        -39.793890   1.000000
     24        -39.789222   1.000000
     25        -39.787335   1.000000
     26        -39.784658   1.000000
     27        -39.783197   1.000000
     28        -39.782367   1.000000
     29        -39.779182   1.000000
     30        -39.778356   1.000000
     31        -39.776435   1.000000
     32        -39.773617   1.000000
     33        -39.773446   1.000000
     34        -39.771777   1.000000
     35        -39.769772   1.000000
     36        -39.766632   1.000000
     37        -39.766482   1.000000
     38        -39.765396   1.000000
     39        -39.764702   1.000000
     40        -39.763889   1.000000
     41        -39.763715   1.000000
     42        -39.761485   1.000000
     43        -39.761194   1.000000
     44        -39.760563   1.000000
     45        -39.758714   1.000000
     46        -39.757853   1.000000
     47        -39.757316   1.000000
     48        -39.754025   1.000000
     49        -39.753781   1.000000
     50        -39.752496   1.000000
     51        -39.751328   1.000000
     52        -39.750977   1.000000
     53        -39.750145   1.000000
     54        -39.749505   1.000000
     55        -39.748336   1.000000
     56        -39.747753   1.000000
     57        -39.746957   1.000000
     58        -39.746479   1.000000
     59        -39.745144   1.000000
     60        -39.744852   1.000000
     61        -39.744549   1.000000
     62        -39.742691   1.000000
     63        -39.742065   1.000000
     64        -39.740702   1.000000
     65        -39.738899   1.000000
     66        -39.738133   1.000000
     67        -39.738053   1.000000
     68        -39.737456   1.000000
     69        -39.735917   1.000000
     70        -39.735861   1.000000
     71        -39.734760   1.000000
     72        -39.733167   1.000000
     73        -39.732863   1.000000
     74        -39.731783   1.000000
     75        -39.730538   1.000000
     76        -39.729853   1.000000
     77        -39.728478   1.000000
     78        -39.726912   1.000000
     79        -39.726262   1.000000
     80        -39.725242   1.000000
     81        -39.724880   1.000000
     82        -39.723892   1.000000
     83        -39.722963   1.000000
     84        -39.722615   1.000000
     85        -39.722196   1.000000
     86        -39.721407   1.000000
     87        -39.721260   1.000000
     88        -39.720720   1.000000
     89        -39.720009   1.000000
     90        -39.719308   1.000000
     91        -39.713773   1.000000
     92        -39.713359   1.000000
     93        -39.706093   1.000000
     94        -39.705968   1.000000
     95        -39.702771   1.000000
     96        -39.700531   1.000000
     97        -18.379033   1.000000
     98        -18.337512   1.000000
     99        -18.315656   1.000000
    100        -18.311367   1.000000
    101        -18.304426   1.000000
    102        -18.300590   1.000000
    103        -18.297521   1.000000
    104        -18.297163   1.000000
    105        -18.293042   1.000000
    106        -18.286248   1.000000
    107        -18.282455   1.000000
    108        -18.275293   1.000000
    109        -18.264069   1.000000
    110        -18.261659   1.000000
    111        -18.259561   1.000000
    112        -18.255990   1.000000
    113        -18.250896   1.000000
    114        -18.245230   1.000000
    115        -18.239405   1.000000
    116        -18.237013   1.000000
    117        -18.227762   1.000000
    118        -18.223435   1.000000
    119        -18.219943   1.000000
    120        -18.218894   1.000000
    121        -18.214118   1.000000
    122        -18.212265   1.000000
    123        -18.211085   1.000000
    124        -18.207172   1.000000
    125        -18.205739   1.000000
    126        -18.204734   1.000000
    127        -18.204123   1.000000
    128        -18.202361   1.000000
    129        -18.202052   1.000000
    130        -18.199431   1.000000
    131        -18.198660   1.000000
    132        -18.197156   1.000000
    133        -18.196579   1.000000
    134        -18.184854   1.000000
    135        -18.182727   1.000000
    136        -18.180312   1.000000
    137        -18.176100   1.000000
    138        -18.172451   1.000000
    139        -18.171075   1.000000
    140        -18.169072   1.000000
    141        -18.168624   1.000000
    142        -18.165531   1.000000
    143        -18.161569   1.000000
    144        -18.157075   1.000000
    145        -18.154402   1.000000
    146        -18.147244   1.000000
    147        -18.142464   1.000000
    148        -18.139934   1.000000
    149        -18.136621   1.000000
    150        -18.136069   1.000000
    151        -18.130203   1.000000
    152        -18.129521   1.000000
    153        -18.122799   1.000000
    154        -18.119080   1.000000
    155        -18.118884   1.000000
    156        -18.114235   1.000000
    157        -18.111962   1.000000
    158        -18.097605   1.000000
    159        -18.093905   1.000000
    160        -18.086080   1.000000
    161        -18.082704   1.000000
    162        -18.082590   1.000000
    163        -18.078466   1.000000
    164        -18.075985   1.000000
    165        -18.074231   1.000000
    166        -18.073734   1.000000
    167        -18.067082   1.000000
    168        -18.065445   1.000000
    169        -18.061359   1.000000
    170        -18.059588   1.000000
    171        -18.054156   1.000000
    172        -18.053942   1.000000
    173        -18.051711   1.000000
    174        -18.026399   1.000000
    175        -18.005490   1.000000
    176        -17.993919   1.000000
    177        -17.986816   1.000000
    178        -17.986091   1.000000
    179        -17.973780   1.000000
    180        -17.966433   1.000000
    181        -17.961283   1.000000
    182        -17.957378   1.000000
    183        -17.956557   1.000000
    184        -17.951387   1.000000
    185        -17.951189   1.000000
    186        -17.946155   1.000000
    187        -17.944307   1.000000
    188        -17.943192   1.000000
    189        -17.943081   1.000000
    190        -17.938140   1.000000
    191        -17.935275   1.000000
    192        -17.933323   1.000000
    193        -17.930859   1.000000
    194        -17.930780   1.000000
    195        -17.918505   1.000000
    196        -17.915412   1.000000
    197        -17.908095   1.000000
    198        -17.902138   1.000000
    199        -17.896191   1.000000
    200        -17.892855   1.000000
    201        -17.885457   1.000000
    202        -17.883888   1.000000
    203        -17.876691   1.000000
    204        -17.871851   1.000000
    205        -17.870228   1.000000
    206        -17.865883   1.000000
    207        -17.864407   1.000000
    208        -17.861768   1.000000
    209        -17.860377   1.000000
    210        -17.859231   1.000000
    211        -17.856329   1.000000
    212        -17.855579   1.000000
    213        -17.853001   1.000000
    214        -17.852586   1.000000
    215        -17.844359   1.000000
    216        -17.837862   1.000000
    217        -17.833684   1.000000
    218        -17.831218   1.000000
    219        -17.830329   1.000000
    220        -17.824841   1.000000
    221        -17.823860   1.000000
    222        -17.820577   1.000000
    223        -17.810547   1.000000
    224        -17.809506   1.000000
    225        -17.807189   1.000000
    226        -17.803002   1.000000
    227        -17.798571   1.000000
    228        -17.796569   1.000000
    229        -17.794960   1.000000
    230        -17.792663   1.000000
    231        -17.789570   1.000000
    232        -17.787763   1.000000
    233        -17.782886   1.000000
    234        -17.782573   1.000000
    235        -17.774374   1.000000
    236        -17.770901   1.000000
    237        -17.767079   1.000000
    238        -17.764718   1.000000
    239        -17.763714   1.000000
    240        -17.763530   1.000000
    241        -17.761870   1.000000
    242        -17.752769   1.000000
    243        -17.752637   1.000000
    244        -17.747457   1.000000
    245        -17.746280   1.000000
    246        -17.743193   1.000000
    247        -17.742260   1.000000
    248        -17.738613   1.000000
    249        -17.738170   1.000000
    250        -17.733751   1.000000
    251        -17.732554   1.000000
    252        -17.728629   1.000000
    253        -17.727294   1.000000
    254        -17.724286   1.000000
    255        -17.718426   1.000000
    256        -17.712083   1.000000
    257        -17.708788   1.000000
    258        -17.705212   1.000000
    259        -17.703179   1.000000
    260        -17.699930   1.000000
    261        -17.696275   1.000000
    262        -17.695088   1.000000
    263        -17.690004   1.000000
    264        -17.685734   1.000000
    265        -17.684673   1.000000
    266        -17.682007   1.000000
    267        -17.681782   1.000000
    268        -17.680540   1.000000
    269        -17.677573   1.000000
    270        -17.677018   1.000000
    271        -17.673344   1.000000
    272        -17.672715   1.000000
    273        -17.670294   1.000000
    274        -17.669944   1.000000
    275        -17.669347   1.000000
    276        -17.664621   1.000000
    277        -17.661300   1.000000
    278        -17.660364   1.000000
    279        -17.659019   1.000000
    280        -17.654370   1.000000
    281        -17.652976   1.000000
    282        -17.651334   1.000000
    283        -17.649594   1.000000
    284        -17.647618   1.000000
    285        -17.645978   1.000000
    286        -17.641996   1.000000
    287        -17.641595   1.000000
    288        -17.640765   1.000000
    289        -17.640455   1.000000
    290        -17.637913   1.000000
    291        -17.634573   1.000000
    292        -17.634174   1.000000
    293        -17.633786   1.000000
    294        -17.632208   1.000000
    295        -17.632131   1.000000
    296        -17.630413   1.000000
    297        -17.629049   1.000000
    298        -17.628059   1.000000
    299        -17.627156   1.000000
    300        -17.626037   1.000000
    301        -17.623038   1.000000
    302        -17.622108   1.000000
    303        -17.621222   1.000000
    304        -17.620010   1.000000
    305        -17.618923   1.000000
    306        -17.617358   1.000000
    307        -17.616765   1.000000
    308        -17.615469   1.000000
    309        -17.614932   1.000000
    310        -17.614649   1.000000
    311        -17.613634   1.000000
    312        -17.608468   1.000000
    313        -17.605443   1.000000
    314        -17.604196   1.000000
    315        -17.602627   1.000000
    316        -17.602097   1.000000
    317        -17.597595   1.000000
    318        -17.596298   1.000000
    319        -17.595727   1.000000
    320        -17.593365   1.000000
    321        -17.593108   1.000000
    322        -17.590594   1.000000
    323        -17.586460   1.000000
    324        -17.583275   1.000000
    325        -17.582690   1.000000
    326        -17.580802   1.000000
    327        -17.579453   1.000000
    328        -17.578110   1.000000
    329        -17.577581   1.000000
    330        -17.576382   1.000000
    331        -17.576185   1.000000
    332        -17.574699   1.000000
    333        -17.570135   1.000000
    334        -17.569664   1.000000
    335        -17.568129   1.000000
    336        -17.565474   1.000000
    337        -17.565380   1.000000
    338        -17.564369   1.000000
    339        -17.562645   1.000000
    340        -17.561887   1.000000
    341        -17.560672   1.000000
    342        -17.559353   1.000000
    343        -17.558029   1.000000
    344        -17.553937   1.000000
    345        -17.553770   1.000000
    346        -17.549929   1.000000
    347        -17.548831   1.000000
    348        -17.547128   1.000000
    349        -17.546093   1.000000
    350        -17.544648   1.000000
    351        -17.544515   1.000000
    352        -17.541608   1.000000
    353        -17.540415   1.000000
    354        -17.535494   1.000000
    355        -17.534474   1.000000
    356        -17.528365   1.000000
    357        -17.521982   1.000000
    358        -17.520549   1.000000
    359        -17.517630   1.000000
    360        -17.516478   1.000000
    361        -17.512835   1.000000
    362        -17.512034   1.000000
    363        -17.510447   1.000000
    364        -17.505057   1.000000
    365        -17.503186   1.000000
    366        -17.501755   1.000000
    367        -17.500440   1.000000
    368        -17.497095   1.000000
    369        -17.495821   1.000000
    370        -17.494041   1.000000
    371        -17.492876   1.000000
    372        -17.487935   1.000000
    373        -17.487382   1.000000
    374        -17.481271   1.000000
    375        -17.479539   1.000000
    376        -17.476349   1.000000
    377        -17.474404   1.000000
    378        -17.473856   1.000000
    379        -17.466293   1.000000
    380        -17.452660   1.000000
    381        -17.446435   1.000000
    382        -17.437137   1.000000
    383        -17.434547   1.000000
    384        -17.425021   1.000000
    385          2.472965   1.000000
    386          3.566586   1.000000
    387          3.862805   1.000000
    388          4.329498   1.000000
    389          4.568661   1.000000
    390          4.652853   1.000000
    391          4.701105   1.000000
    392          4.825673   1.000000
    393          4.877607   1.000000
    394          4.952867   1.000000
    395          5.252284   1.000000
    396          5.280046   1.000000
    397          5.368594   1.000000
    398          5.404207   1.000000
    399          5.422701   1.000000
    400          5.456381   1.000000
    401          5.512474   1.000000
    402          5.586978   1.000000
    403          5.691073   1.000000
    404          5.730388   1.000000
    405          5.961584   1.000000
    406          5.971876   1.000000
    407          5.982178   1.000000
    408          5.990166   1.000000
    409          6.004691   1.000000
    410          6.010865   1.000000
    411          6.017297   1.000000
    412          6.033023   1.000000
    413          6.043254   1.000000
    414          6.062223   1.000000
    415          6.076603   1.000000
    416          6.097448   1.000000
    417          6.146344   1.000000
    418          6.202973   1.000000
    419          6.220862   1.000000
    420          6.232675   1.000000
    421          6.251514   1.000000
    422          6.266486   1.000000
    423          6.290929   1.000000
    424          6.291809   1.000000
    425          6.309208   1.000000
    426          6.320179   1.000000
    427          6.328532   1.000000
    428          6.346592   1.000000
    429          6.378103   1.000000
    430          6.391551   1.000000
    431          6.428315   1.000000
    432          6.517095   1.000000
    433          6.521934   1.000000
    434          6.524456   1.000000
    435          6.529010   1.000000
    436          6.531912   1.000000
    437          6.535911   1.000000
    438          6.539770   1.000000
    439          6.561265   1.000000
    440          6.584840   1.000000
    441          6.586624   1.000000
    442          6.591418   1.000000
    443          6.604680   1.000000
    444          6.649307   1.000000
    445          6.656296   1.000000
    446          6.675949   1.000000
    447          6.702634   1.000000
    448          6.702987   1.000000
    449          6.754127   1.000000
    450          6.770672   1.000000
    451          6.773652   1.000000
    452          6.857330   1.000000
    453          6.862292   1.000000
    454          6.890063   1.000000
    455          6.891637   1.000000
    456          6.920959   1.000000
    457          6.922884   1.000000
    458          6.926585   1.000000
    459          6.928600   1.000000
    460          6.928961   1.000000
    461          6.930875   1.000000
    462          6.937020   1.000000
    463          7.015810   1.000000
    464          7.051568   1.000000
    465          7.056766   1.000000
    466          7.062356   1.000000
    467          7.073023   1.000000
    468          7.073468   1.000000
    469          7.075753   1.000000
    470          7.079737   1.000000
    471          7.122259   1.000000
    472          7.138689   1.000000
    473          7.143374   1.000000
    474          7.167148   1.000000
    475          7.167629   1.000000
    476          7.179294   1.000000
    477          7.183529   1.000000
    478          7.185934   1.000000
    479          7.193334   1.000000
    480          7.214059   1.000000
    481          7.257330   1.000000
    482          7.263780   1.000000
    483          7.265369   1.000000
    484          7.292508   1.000000
    485          7.297239   1.000000
    486          7.367332   1.000000
    487          7.438330   1.000000
    488          7.448397   1.000000
    489          7.462287   1.000000
    490          7.475552   1.000000
    491          7.489384   1.000000
    492          7.508684   1.000000
    493          7.523800   1.000000
    494          7.530787   1.000000
    495          7.546454   1.000000
    496          7.558049   1.000000
    497          7.584275   1.000000
    498          7.602676   1.000000
    499          7.610871   1.000000
    500          7.616513   1.000000
    501          7.638400   1.000000
    502          7.661433   1.000000
    503          7.670837   1.000000
    504          7.673525   1.000000
    505          7.715644   1.000000
    506          7.808760   1.000000
    507          7.822844   1.000000
    508          7.834904   1.000000
    509          7.875529   1.000000
    510          7.880628   1.000000
    511          7.888075   1.000000
    512          7.890559   1.000000
    513          7.913591   1.000000
    514          7.921477   1.000000
    515          7.943758   1.000000
    516          7.946851   1.000000
    517          7.960230   1.000000
    518          7.969900   1.000000
    519          7.980953   1.000000
    520          8.000136   1.000000
    521          8.010999   1.000000
    522          8.028189   1.000000
    523          8.035292   1.000000
    524          8.037261   1.000000
    525          8.043442   1.000000
    526          8.044154   1.000000
    527          8.051358   1.000000
    528          8.058211   1.000000
    529          8.059510   1.000000
    530          8.062131   1.000000
    531          8.078837   1.000000
    532          8.092670   1.000000
    533          8.095339   1.000000
    534          8.101944   1.000000
    535          8.132497   1.000000
    536          8.140878   1.000000
    537          8.146422   1.000000
    538          8.149777   1.000000
    539          8.152797   1.000000
    540          8.159922   1.000000
    541          8.178837   1.000000
    542          8.211298   1.000001
    543          8.240906   1.000002
    544          8.278798   1.000009
    545          8.281134   1.000009
    546          8.294293   1.000014
    547          8.317203   1.000029
    548          8.333339   1.000047
    549          8.335072   1.000049
    550          8.351107   1.000078
    551          8.353950   1.000084
    552          8.360468   1.000101
    553          8.385105   1.000197
    554          8.397067   1.000270
    555          8.408691   1.000362
    556          8.423140   1.000518
    557          8.424019   1.000529
    558          8.437049   1.000722
    559          8.437294   1.000727
    560          8.440644   1.000786
    561          8.442299   1.000817
    562          8.449816   1.000971
    563          8.451241   1.001003
    564          8.461086   1.001251
    565          8.489116   1.002273
    566          8.541617   1.006121
    567          8.544964   1.006481
    568          8.556763   1.007884
    569          8.684556   1.032961
    570          8.732904   1.033656
    571          8.770148   1.017347
    572          8.770565   1.017042
    573          8.797177   0.990614
    574          8.896740   0.744856
    575          8.912310   0.686383
    576          8.935930   0.591190
    577          8.937907   0.582974
    578          8.967024   0.460264
    579          8.986952   0.377362
    580          9.002533   0.315174
    581          9.047736   0.158246
    582          9.050562   0.149900
    583          9.064117   0.112589
    584          9.074174   0.087871
    585          9.105664   0.026868
    586          9.110832   0.019155
    587          9.149672  -0.020495
    588          9.150986  -0.021333
    589          9.165162  -0.028610
    590          9.166402  -0.029104
    591          9.176253  -0.032289
    592          9.177767  -0.032670
    593          9.183147  -0.033805
    594          9.186670  -0.034375
    595          9.195428  -0.035252
    596          9.198015  -0.035375
    597          9.199827  -0.035428
    598          9.201330  -0.035452
    599          9.206669  -0.035395
    600          9.208198  -0.035340
    601          9.215315  -0.034885
    602          9.236427  -0.031988
    603          9.244324  -0.030485
    604          9.244884  -0.030372
    605          9.253911  -0.028471
    606          9.303738  -0.017235
    607          9.352844  -0.008630
    608          9.393129  -0.004322
    609          9.399100  -0.003867
    610          9.405788  -0.003405
    611          9.412218  -0.003005
    612          9.432489  -0.001993
    613          9.446587  -0.001476
    614          9.455471  -0.001215
    615          9.466889  -0.000939
    616          9.472510  -0.000825
    617          9.473523  -0.000806
    618          9.483211  -0.000642
    619          9.485141  -0.000613
    620          9.490051  -0.000544
    621          9.496389  -0.000466
    622          9.498152  -0.000447
    623          9.503701  -0.000389
    624          9.508077  -0.000349
    625          9.511638  -0.000319
    626          9.547337  -0.000124
    627          9.568729  -0.000068
    628          9.572260  -0.000062
    629          9.598820  -0.000028
    630          9.599485  -0.000028
    631          9.615177  -0.000017
    632          9.618911  -0.000015
    633          9.624578  -0.000013
    634          9.631079  -0.000010
    635          9.635006  -0.000009
    636          9.647467  -0.000006
    637          9.662375  -0.000004
    638          9.675508  -0.000002
    639          9.680439  -0.000002
    640          9.691572  -0.000001
    641          9.738344  -0.000000
    642          9.745637  -0.000000
    643          9.780653  -0.000000
    644          9.799953  -0.000000
    645          9.842434  -0.000000
    646          9.867787  -0.000000
    647          9.872487  -0.000000
    648          9.877884  -0.000000
    649          9.884520  -0.000000
    650          9.902241  -0.000000
    651          9.903518  -0.000000
    652          9.921115  -0.000000
    653          9.926349  -0.000000
    654          9.930896  -0.000000
    655          9.941472  -0.000000
    656          9.951144  -0.000000
    657          9.962353  -0.000000
    658          9.967209  -0.000000
    659          9.980982  -0.000000
    660          9.982763  -0.000000
    661          9.995146  -0.000000
    662         10.006048  -0.000000
    663         10.006527  -0.000000
    664         10.013703  -0.000000
    665         10.013887  -0.000000
    666         10.023907  -0.000000
    667         10.026866  -0.000000
    668         10.034404  -0.000000
    669         10.037171  -0.000000
    670         10.092511  -0.000000
    671         10.110599  -0.000000
    672         10.111038  -0.000000
    673         10.126691  -0.000000
    674         10.163851  -0.000000
    675         10.169831  -0.000000
    676         10.198076  -0.000000
    677         10.206176  -0.000000
    678         10.222492  -0.000000
    679         10.222878  -0.000000
    680         10.234948  -0.000000
    681         10.248346  -0.000000
    682         10.257262  -0.000000
    683         10.258763  -0.000000
    684         10.269603  -0.000000
    685         10.272274  -0.000000
    686         10.278955  -0.000000
    687         10.282834  -0.000000
    688         10.297056  -0.000000
    689         10.297741  -0.000000
    690         10.309121  -0.000000
    691         10.311178  -0.000000
 
  0.2500000E+00 -0.2500000E+00  0.3333333E+00  0.4166667E-01
      1        -39.914744   1.000000
      2        -39.895887   1.000000
      3        -39.879469   1.000000
      4        -39.869539   1.000000
      5        -39.857422   1.000000
      6        -39.855210   1.000000
      7        -39.851207   1.000000
      8        -39.843198   1.000000
      9        -39.841543   1.000000
     10        -39.841342   1.000000
     11        -39.835024   1.000000
     12        -39.827320   1.000000
     13        -39.825053   1.000000
     14        -39.818747   1.000000
     15        -39.818056   1.000000
     16        -39.815376   1.000000
     17        -39.811155   1.000000
     18        -39.807908   1.000000
     19        -39.806555   1.000000
     20        -39.804633   1.000000
     21        -39.801584   1.000000
     22        -39.797111   1.000000
     23        -39.793945   1.000000
     24        -39.789389   1.000000
     25        -39.787286   1.000000
     26        -39.784416   1.000000
     27        -39.783231   1.000000
     28        -39.782460   1.000000
     29        -39.779282   1.000000
     30        -39.778415   1.000000
     31        -39.776431   1.000000
     32        -39.773496   1.000000
     33        -39.773169   1.000000
     34        -39.772129   1.000000
     35        -39.769457   1.000000
     36        -39.766483   1.000000
     37        -39.766362   1.000000
     38        -39.765373   1.000000
     39        -39.764769   1.000000
     40        -39.764056   1.000000
     41        -39.763836   1.000000
     42        -39.761673   1.000000
     43        -39.761200   1.000000
     44        -39.760533   1.000000
     45        -39.758736   1.000000
     46        -39.757733   1.000000
     47        -39.757639   1.000000
     48        -39.753754   1.000000
     49        -39.753504   1.000000
     50        -39.752732   1.000000
     51        -39.751459   1.000000
     52        -39.750925   1.000000
     53        -39.750086   1.000000
     54        -39.749352   1.000000
     55        -39.748405   1.000000
     56        -39.747790   1.000000
     57        -39.746856   1.000000
     58        -39.746543   1.000000
     59        -39.745249   1.000000
     60        -39.745006   1.000000
     61        -39.744227   1.000000
     62        -39.742609   1.000000
     63        -39.741822   1.000000
     64        -39.741309   1.000000
     65        -39.738867   1.000000
     66        -39.738434   1.000000
     67        -39.738012   1.000000
     68        -39.737424   1.000000
     69        -39.735957   1.000000
     70        -39.735708   1.000000
     71        -39.734766   1.000000
     72        -39.732837   1.000000
     73        -39.732416   1.000000
     74        -39.731971   1.000000
     75        -39.730462   1.000000
     76        -39.730163   1.000000
     77        -39.728704   1.000000
     78        -39.727024   1.000000
     79        -39.726051   1.000000
     80        -39.725275   1.000000
     81        -39.724901   1.000000
     82        -39.723862   1.000000
     83        -39.722936   1.000000
     84        -39.722627   1.000000
     85        -39.722232   1.000000
     86        -39.721363   1.000000
     87        -39.721296   1.000000
     88        -39.720719   1.000000
     89        -39.719942   1.000000
     90        -39.719341   1.000000
     91        -39.713772   1.000000
     92        -39.713364   1.000000
     93        -39.706095   1.000000
     94        -39.705966   1.000000
     95        -39.702771   1.000000
     96        -39.700531   1.000000
     97        -18.379031   1.000000
     98        -18.337520   1.000000
     99        -18.315678   1.000000
    100        -18.311227   1.000000
    101        -18.304654   1.000000
    102        -18.300561   1.000000
    103        -18.297516   1.000000
    104        -18.297106   1.000000
    105        -18.292990   1.000000
    106        -18.286256   1.000000
    107        -18.282480   1.000000
    108        -18.275277   1.000000
    109        -18.264199   1.000000
    110        -18.261583   1.000000
    111        -18.259471   1.000000
    112        -18.256139   1.000000
    113        -18.250665   1.000000
    114        -18.245568   1.000000
    115        -18.239317   1.000000
    116        -18.236973   1.000000
    117        -18.227917   1.000000
    118        -18.223326   1.000000
    119        -18.219775   1.000000
    120        -18.218919   1.000000
    121        -18.214216   1.000000
    122        -18.211760   1.000000
    123        -18.211044   1.000000
    124        -18.207105   1.000000
    125        -18.205804   1.000000
    126        -18.204644   1.000000
    127        -18.204397   1.000000
    128        -18.202245   1.000000
    129        -18.202139   1.000000
    130        -18.199402   1.000000
    131        -18.198830   1.000000
    132        -18.197310   1.000000
    133        -18.196371   1.000000
    134        -18.184674   1.000000
    135        -18.182954   1.000000
    136        -18.180356   1.000000
    137        -18.176138   1.000000
    138        -18.172389   1.000000
    139        -18.171189   1.000000
    140        -18.168996   1.000000
    141        -18.168680   1.000000
    142        -18.165549   1.000000
    143        -18.161983   1.000000
    144        -18.157090   1.000000
    145        -18.154138   1.000000
    146        -18.147452   1.000000
    147        -18.142323   1.000000
    148        -18.139767   1.000000
    149        -18.136889   1.000000
    150        -18.136125   1.000000
    151        -18.130109   1.000000
    152        -18.129464   1.000000
    153        -18.123114   1.000000
    154        -18.118917   1.000000
    155        -18.118370   1.000000
    156        -18.114445   1.000000
    157        -18.112233   1.000000
    158        -18.097655   1.000000
    159        -18.093636   1.000000
    160        -18.086395   1.000000
    161        -18.082629   1.000000
    162        -18.082227   1.000000
    163        -18.078231   1.000000
    164        -18.075725   1.000000
    165        -18.074346   1.000000
    166        -18.073803   1.000000
    167        -18.066553   1.000000
    168        -18.065326   1.000000
    169        -18.061565   1.000000
    170        -18.059579   1.000000
    171        -18.054449   1.000000
    172        -18.054294   1.000000
    173        -18.051730   1.000000
    174        -18.026394   1.000000
    175        -18.006045   1.000000
    176        -17.993139   1.000000
    177        -17.986878   1.000000
    178        -17.986516   1.000000
    179        -17.974013   1.000000
    180        -17.966317   1.000000
    181        -17.961950   1.000000
    182        -17.956838   1.000000
    183        -17.955937   1.000000
    184        -17.951206   1.000000
    185        -17.950910   1.000000
    186        -17.946440   1.000000
    187        -17.944946   1.000000
    188        -17.943246   1.000000
    189        -17.943165   1.000000
    190        -17.938155   1.000000
    191        -17.935121   1.000000
    192        -17.933879   1.000000
    193        -17.930504   1.000000
    194        -17.930443   1.000000
    195        -17.918641   1.000000
    196        -17.915328   1.000000
    197        -17.908646   1.000000
    198        -17.901425   1.000000
    199        -17.895098   1.000000
    200        -17.893058   1.000000
    201        -17.885685   1.000000
    202        -17.883890   1.000000
    203        -17.876648   1.000000
    204        -17.872197   1.000000
    205        -17.870218   1.000000
    206        -17.866320   1.000000
    207        -17.864722   1.000000
    208        -17.861864   1.000000
    209        -17.860648   1.000000
    210        -17.859072   1.000000
    211        -17.856358   1.000000
    212        -17.855638   1.000000
    213        -17.853298   1.000000
    214        -17.852692   1.000000
    215        -17.844034   1.000000
    216        -17.837732   1.000000
    217        -17.833480   1.000000
    218        -17.831355   1.000000
    219        -17.830169   1.000000
    220        -17.825120   1.000000
    221        -17.823077   1.000000
    222        -17.820036   1.000000
    223        -17.810883   1.000000
    224        -17.808818   1.000000
    225        -17.807137   1.000000
    226        -17.803367   1.000000
    227        -17.798519   1.000000
    228        -17.796670   1.000000
    229        -17.794850   1.000000
    230        -17.792642   1.000000
    231        -17.789555   1.000000
    232        -17.787639   1.000000
    233        -17.783366   1.000000
    234        -17.782494   1.000000
    235        -17.774906   1.000000
    236        -17.770959   1.000000
    237        -17.767546   1.000000
    238        -17.765129   1.000000
    239        -17.763669   1.000000
    240        -17.763293   1.000000
    241        -17.761745   1.000000
    242        -17.753456   1.000000
    243        -17.751974   1.000000
    244        -17.747666   1.000000
    245        -17.745822   1.000000
    246        -17.743383   1.000000
    247        -17.741935   1.000000
    248        -17.738944   1.000000
    249        -17.737614   1.000000
    250        -17.734693   1.000000
    251        -17.732404   1.000000
    252        -17.728475   1.000000
    253        -17.727107   1.000000
    254        -17.724463   1.000000
    255        -17.717510   1.000000
    256        -17.711920   1.000000
    257        -17.708912   1.000000
    258        -17.705176   1.000000
    259        -17.702840   1.000000
    260        -17.700241   1.000000
    261        -17.696452   1.000000
    262        -17.695102   1.000000
    263        -17.690024   1.000000
    264        -17.685998   1.000000
    265        -17.684475   1.000000
    266        -17.682413   1.000000
    267        -17.682029   1.000000
    268        -17.680263   1.000000
    269        -17.678016   1.000000
    270        -17.676947   1.000000
    271        -17.673603   1.000000
    272        -17.672296   1.000000
    273        -17.670567   1.000000
    274        -17.669851   1.000000
    275        -17.669450   1.000000
    276        -17.664647   1.000000
    277        -17.661495   1.000000
    278        -17.660301   1.000000
    279        -17.658748   1.000000
    280        -17.654367   1.000000
    281        -17.652177   1.000000
    282        -17.650924   1.000000
    283        -17.649556   1.000000
    284        -17.647398   1.000000
    285        -17.646181   1.000000
    286        -17.641831   1.000000
    287        -17.641664   1.000000
    288        -17.640582   1.000000
    289        -17.640412   1.000000
    290        -17.637660   1.000000
    291        -17.634866   1.000000
    292        -17.634528   1.000000
    293        -17.634190   1.000000
    294        -17.632251   1.000000
    295        -17.632165   1.000000
    296        -17.630546   1.000000
    297        -17.629114   1.000000
    298        -17.627591   1.000000
    299        -17.627236   1.000000
    300        -17.625630   1.000000
    301        -17.623129   1.000000
    302        -17.622195   1.000000
    303        -17.621776   1.000000
    304        -17.619966   1.000000
    305        -17.619200   1.000000
    306        -17.617372   1.000000
    307        -17.616691   1.000000
    308        -17.615404   1.000000
    309        -17.614972   1.000000
    310        -17.614608   1.000000
    311        -17.613397   1.000000
    312        -17.608451   1.000000
    313        -17.605630   1.000000
    314        -17.604305   1.000000
    315        -17.602552   1.000000
    316        -17.602213   1.000000
    317        -17.597408   1.000000
    318        -17.596549   1.000000
    319        -17.595873   1.000000
    320        -17.593326   1.000000
    321        -17.593241   1.000000
    322        -17.590546   1.000000
    323        -17.586159   1.000000
    324        -17.583325   1.000000
    325        -17.582612   1.000000
    326        -17.580871   1.000000
    327        -17.579431   1.000000
    328        -17.578259   1.000000
    329        -17.577603   1.000000
    330        -17.576449   1.000000
    331        -17.576073   1.000000
    332        -17.574345   1.000000
    333        -17.570095   1.000000
    334        -17.569629   1.000000
    335        -17.567825   1.000000
    336        -17.565529   1.000000
    337        -17.565368   1.000000
    338        -17.564521   1.000000
    339        -17.562553   1.000000
    340        -17.561547   1.000000
    341        -17.560754   1.000000
    342        -17.559414   1.000000
    343        -17.558100   1.000000
    344        -17.554269   1.000000
    345        -17.553959   1.000000
    346        -17.549719   1.000000
    347        -17.549065   1.000000
    348        -17.547426   1.000000
    349        -17.546112   1.000000
    350        -17.544580   1.000000
    351        -17.544432   1.000000
    352        -17.541529   1.000000
    353        -17.540443   1.000000
    354        -17.535433   1.000000
    355        -17.534432   1.000000
    356        -17.528320   1.000000
    357        -17.521965   1.000000
    358        -17.520340   1.000000
    359        -17.517814   1.000000
    360        -17.516516   1.000000
    361        -17.512912   1.000000
    362        -17.511939   1.000000
    363        -17.510444   1.000000
    364        -17.505041   1.000000
    365        -17.502930   1.000000
    366        -17.501872   1.000000
    367        -17.500454   1.000000
    368        -17.497099   1.000000
    369        -17.495888   1.000000
    370        -17.493995   1.000000
    371        -17.492665   1.000000
    372        -17.488224   1.000000
    373        -17.487423   1.000000
    374        -17.481346   1.000000
    375        -17.479589   1.000000
    376        -17.476222   1.000000
    377        -17.474378   1.000000
    378        -17.474010   1.000000
    379        -17.466070   1.000000
    380        -17.452722   1.000000
    381        -17.446437   1.000000
    382        -17.437127   1.000000
    383        -17.434554   1.000000
    384        -17.425022   1.000000
    385          2.472965   1.000000
    386          3.566578   1.000000
    387          3.862818   1.000000
    388          4.329622   1.000000
    389          4.568556   1.000000
    390          4.652809   1.000000
    391          4.700739   1.000000
    392          4.825672   1.000000
    393          4.877686   1.000000
    394          4.953261   1.000000
    395          5.252407   1.000000
    396          5.280387   1.000000
    397          5.368669   1.000000
    398          5.403980   1.000000
    399          5.422235   1.000000
    400          5.456572   1.000000
    401          5.512038   1.000000
    402          5.587777   1.000000
    403          5.690991   1.000000
    404          5.729653   1.000000
    405          5.960808   1.000000
    406          5.971822   1.000000
    407          5.982033   1.000000
    408          5.990499   1.000000
    409          6.004851   1.000000
    410          6.010963   1.000000
    411          6.017292   1.000000
    412          6.033555   1.000000
    413          6.043401   1.000000
    414          6.062116   1.000000
    415          6.076468   1.000000
    416          6.097354   1.000000
    417          6.146844   1.000000
    418          6.203008   1.000000
    419          6.221267   1.000000
    420          6.232569   1.000000
    421          6.251310   1.000000
    422          6.266214   1.000000
    423          6.290922   1.000000
    424          6.291820   1.000000
    425          6.309093   1.000000
    426          6.320226   1.000000
    427          6.328826   1.000000
    428          6.346581   1.000000
    429          6.378824   1.000000
    430          6.391344   1.000000
    431          6.427581   1.000000
    432          6.516356   1.000000
    433          6.521298   1.000000
    434          6.524305   1.000000
    435          6.528544   1.000000
    436          6.531790   1.000000
    437          6.536169   1.000000
    438          6.540210   1.000000
    439          6.563052   1.000000
    440          6.584705   1.000000
    441          6.586914   1.000000
    442          6.592001   1.000000
    443          6.604161   1.000000
    444          6.649822   1.000000
    445          6.656343   1.000000
    446          6.676032   1.000000
    447          6.702421   1.000000
    448          6.703510   1.000000
    449          6.750898   1.000000
    450          6.770187   1.000000
    451          6.775885   1.000000
    452          6.857611   1.000000
    453          6.861888   1.000000
    454          6.889883   1.000000
    455          6.891978   1.000000
    456          6.921007   1.000000
    457          6.923001   1.000000
    458          6.926555   1.000000
    459          6.928123   1.000000
    460          6.928898   1.000000
    461          6.931036   1.000000
    462          6.936761   1.000000
    463          7.016052   1.000000
    464          7.051706   1.000000
    465          7.056711   1.000000
    466          7.062321   1.000000
    467          7.072344   1.000000
    468          7.072790   1.000000
    469          7.075378   1.000000
    470          7.079923   1.000000
    471          7.120649   1.000000
    472          7.137892   1.000000
    473          7.149432   1.000000
    474          7.165124   1.000000
    475          7.168317   1.000000
    476          7.180324   1.000000
    477          7.183807   1.000000
    478          7.185838   1.000000
    479          7.193357   1.000000
    480          7.212056   1.000000
    481          7.257595   1.000000
    482          7.264044   1.000000
    483          7.265234   1.000000
    484          7.290678   1.000000
    485          7.297348   1.000000
    486          7.369475   1.000000
    487          7.438177   1.000000
    488          7.448352   1.000000
    489          7.462151   1.000000
    490          7.474971   1.000000
    491          7.493154   1.000000
    492          7.508024   1.000000
    493          7.523673   1.000000
    494          7.532619   1.000000
    495          7.546987   1.000000
    496          7.557426   1.000000
    497          7.579907   1.000000
    498          7.602860   1.000000
    499          7.610190   1.000000
    500          7.616494   1.000000
    501          7.633436   1.000000
    502          7.661710   1.000000
    503          7.671108   1.000000
    504          7.673282   1.000000
    505          7.721493   1.000000
    506          7.808774   1.000000
    507          7.822978   1.000000
    508          7.834651   1.000000
    509          7.875902   1.000000
    510          7.879537   1.000000
    511          7.887896   1.000000
    512          7.891530   1.000000
    513          7.913771   1.000000
    514          7.923179   1.000000
    515          7.943978   1.000000
    516          7.946412   1.000000
    517          7.957927   1.000000
    518          7.969530   1.000000
    519          7.979899   1.000000
    520          7.999974   1.000000
    521          8.010028   1.000000
    522          8.029108   1.000000
    523          8.036475   1.000000
    524          8.037512   1.000000
    525          8.043962   1.000000
    526          8.045467   1.000000
    527          8.050642   1.000000
    528          8.058143   1.000000
    529          8.059384   1.000000
    530          8.061694   1.000000
    531          8.079432   1.000000
    532          8.091971   1.000000
    533          8.096055   1.000000
    534          8.102227   1.000000
    535          8.131852   1.000000
    536          8.141033   1.000000
    537          8.145209   1.000000
    538          8.150254   1.000000
    539          8.152902   1.000000
    540          8.159061   1.000000
    541          8.179288   1.000000
    542          8.210709   1.000001
    543          8.241006   1.000002
    544          8.278526   1.000009
    545          8.281446   1.000009
    546          8.294747   1.000014
    547          8.317470   1.000029
    548          8.333671   1.000047
    549          8.334594   1.000048
    550          8.349954   1.000075
    551          8.354094   1.000085
    552          8.362744   1.000108
    553          8.382955   1.000186
    554          8.397064   1.000270
    555          8.408130   1.000357
    556          8.423057   1.000517
    557          8.424391   1.000534
    558          8.437310   1.000727
    559          8.437448   1.000729
    560          8.440534   1.000784
    561          8.442703   1.000824
    562          8.449933   1.000974
    563          8.450572   1.000988
    564          8.461669   1.001267
    565          8.489499   1.002291
    566          8.541734   1.006133
    567          8.545835   1.006578
    568          8.555900   1.007775
    569          8.684319   1.032923
    570          8.732866   1.033663
    571          8.770226   1.017290
    572          8.770646   1.016982
    573          8.797152   0.990645
    574          8.899036   0.736498
    575          8.912710   0.684829
    576          8.935707   0.592114
    577          8.938227   0.581640
    578          8.964676   0.470170
    579          8.986520   0.379124
    580          9.002546   0.315122
    581          9.046085   0.163209
    582          9.050734   0.149398
    583          9.064201   0.112372
    584          9.075773   0.084177
    585          9.105619   0.026937
    586          9.111106   0.018763
    587          9.148850  -0.019957
    588          9.153708  -0.022975
    589          9.163230  -0.027798
    590          9.167832  -0.029646
    591          9.176035  -0.032232
    592          9.180272  -0.033240
    593          9.182690  -0.033721
    594          9.186408  -0.034337
    595          9.193890  -0.035150
    596          9.198555  -0.035394
    597          9.199420  -0.035419
    598          9.201182  -0.035450
    599          9.205955  -0.035415
    600          9.207804  -0.035356
    601          9.214600  -0.034945
    602          9.236284  -0.032014
    603          9.243339  -0.030681
    604          9.245874  -0.030171
    605          9.254449  -0.028353
    606          9.302968  -0.017398
    607          9.351252  -0.008849
    608          9.393033  -0.004330
    609          9.397864  -0.003958
    610          9.405756  -0.003407
    611          9.415567  -0.002812
    612          9.431496  -0.002035
    613          9.446924  -0.001466
    614          9.456453  -0.001189
    615          9.467046  -0.000936
    616          9.471859  -0.000838
    617          9.475072  -0.000777
    618          9.482636  -0.000650
    619          9.484090  -0.000628
    620          9.488196  -0.000569
    621          9.495767  -0.000474
    622          9.500223  -0.000424
    623          9.504202  -0.000384
    624          9.508209  -0.000348
    625          9.511341  -0.000321
    626          9.548819  -0.000119
    627          9.568499  -0.000069
    628          9.572617  -0.000061
    629          9.599090  -0.000028
    630          9.599669  -0.000027
    631          9.615833  -0.000017
    632          9.617758  -0.000016
    633          9.624781  -0.000013
    634          9.630560  -0.000011
    635          9.635208  -0.000009
    636          9.647020  -0.000006
    637          9.662382  -0.000004
    638          9.675151  -0.000002
    639          9.681164  -0.000002
    640          9.689955  -0.000001
    641          9.738444  -0.000000
    642          9.745573  -0.000000
    643          9.781163  -0.000000
    644          9.799882  -0.000000
    645          9.842681  -0.000000
    646          9.868248  -0.000000
    647          9.872330  -0.000000
    648          9.876620  -0.000000
    649          9.886605  -0.000000
    650          9.902616  -0.000000
    651          9.903495  -0.000000
    652          9.923778  -0.000000
    653          9.924908  -0.000000
    654          9.925556  -0.000000
    655          9.944528  -0.000000
    656          9.950547  -0.000000
    657          9.963303  -0.000000
    658          9.967343  -0.000000
    659          9.979689  -0.000000
    660          9.983620  -0.000000
    661          9.995160  -0.000000
    662         10.005932  -0.000000
    663         10.006716  -0.000000
    664         10.012408  -0.000000
    665         10.013472  -0.000000
    666         10.023602  -0.000000
    667         10.026346  -0.000000
    668         10.034826  -0.000000
    669         10.037457  -0.000000
    670         10.091708  -0.000000
    671         10.110943  -0.000000
    672         10.112362  -0.000000
    673         10.126644  -0.000000
    674         10.163633  -0.000000
    675         10.169749  -0.000000
    676         10.197330  -0.000000
    677         10.208294  -0.000000
    678         10.222298  -0.000000
    679         10.222818  -0.000000
    680         10.234851  -0.000000
    681         10.249209  -0.000000
    682         10.256729  -0.000000
    683         10.259942  -0.000000
    684         10.269516  -0.000000
    685         10.271169  -0.000000
    686         10.278051  -0.000000
    687         10.283011  -0.000000
    688         10.296799  -0.000000
    689         10.297514  -0.000000
    690         10.307687  -0.000000
    691         10.309639  -0.000000
 
  0.5000000E+00 -0.1797743E-16  0.3333333E+00  0.4166667E-01
      1        -39.913045   1.000000
      2        -39.892461   1.000000
      3        -39.880795   1.000000
      4        -39.869171   1.000000
      5        -39.866458   1.000000
      6        -39.857107   1.000000
      7        -39.856633   1.000000
      8        -39.843931   1.000000
      9        -39.843918   1.000000
     10        -39.840906   1.000000
     11        -39.834526   1.000000
     12        -39.824229   1.000000
     13        -39.821599   1.000000
     14        -39.818885   1.000000
     15        -39.812583   1.000000
     16        -39.808453   1.000000
     17        -39.803244   1.000000
     18        -39.802788   1.000000
     19        -39.802759   1.000000
     20        -39.800892   1.000000
     21        -39.799102   1.000000
     22        -39.796685   1.000000
     23        -39.796576   1.000000
     24        -39.793414   1.000000
     25        -39.789093   1.000000
     26        -39.787851   1.000000
     27        -39.786807   1.000000
     28        -39.785893   1.000000
     29        -39.783216   1.000000
     30        -39.782840   1.000000
     31        -39.781345   1.000000
     32        -39.777774   1.000000
     33        -39.771549   1.000000
     34        -39.770723   1.000000
     35        -39.767892   1.000000
     36        -39.767783   1.000000
     37        -39.766221   1.000000
     38        -39.766061   1.000000
     39        -39.764854   1.000000
     40        -39.763776   1.000000
     41        -39.763465   1.000000
     42        -39.761466   1.000000
     43        -39.761339   1.000000
     44        -39.760942   1.000000
     45        -39.759573   1.000000
     46        -39.758905   1.000000
     47        -39.758048   1.000000
     48        -39.755457   1.000000
     49        -39.755074   1.000000
     50        -39.753427   1.000000
     51        -39.751063   1.000000
     52        -39.750292   1.000000
     53        -39.749787   1.000000
     54        -39.748015   1.000000
     55        -39.747599   1.000000
     56        -39.746578   1.000000
     57        -39.746398   1.000000
     58        -39.744822   1.000000
     59        -39.744529   1.000000
     60        -39.743477   1.000000
     61        -39.743100   1.000000
     62        -39.742687   1.000000
     63        -39.742304   1.000000
     64        -39.740930   1.000000
     65        -39.739799   1.000000
     66        -39.738068   1.000000
     67        -39.737214   1.000000
     68        -39.736703   1.000000
     69        -39.736188   1.000000
     70        -39.735239   1.000000
     71        -39.734782   1.000000
     72        -39.731666   1.000000
     73        -39.731291   1.000000
     74        -39.730257   1.000000
     75        -39.729233   1.000000
     76        -39.728056   1.000000
     77        -39.727777   1.000000
     78        -39.726973   1.000000
     79        -39.726786   1.000000
     80        -39.726379   1.000000
     81        -39.725988   1.000000
     82        -39.724858   1.000000
     83        -39.723959   1.000000
     84        -39.723219   1.000000
     85        -39.723088   1.000000
     86        -39.721732   1.000000
     87        -39.721728   1.000000
     88        -39.720893   1.000000
     89        -39.720041   1.000000
     90        -39.719407   1.000000
     91        -39.713561   1.000000
     92        -39.712952   1.000000
     93        -39.706192   1.000000
     94        -39.706014   1.000000
     95        -39.703088   1.000000
     96        -39.700732   1.000000
     97        -18.351620   1.000000
     98        -18.343452   1.000000
     99        -18.316703   1.000000
    100        -18.284096   1.000000
    101        -18.282717   1.000000
    102        -18.278868   1.000000
    103        -18.277871   1.000000
    104        -18.274539   1.000000
    105        -18.272853   1.000000
    106        -18.269652   1.000000
    107        -18.268719   1.000000
    108        -18.261685   1.000000
    109        -18.259204   1.000000
    110        -18.255999   1.000000
    111        -18.255390   1.000000
    112        -18.252772   1.000000
    113        -18.251411   1.000000
    114        -18.250927   1.000000
    115        -18.249106   1.000000
    116        -18.247800   1.000000
    117        -18.246180   1.000000
    118        -18.241889   1.000000
    119        -18.229532   1.000000
    120        -18.225774   1.000000
    121        -18.224376   1.000000
    122        -18.220943   1.000000
    123        -18.220807   1.000000
    124        -18.218523   1.000000
    125        -18.217708   1.000000
    126        -18.214168   1.000000
    127        -18.214129   1.000000
    128        -18.209420   1.000000
    129        -18.202157   1.000000
    130        -18.201699   1.000000
    131        -18.200690   1.000000
    132        -18.195196   1.000000
    133        -18.191292   1.000000
    134        -18.191106   1.000000
    135        -18.189820   1.000000
    136        -18.188813   1.000000
    137        -18.178539   1.000000
    138        -18.177470   1.000000
    139        -18.174108   1.000000
    140        -18.172816   1.000000
    141        -18.171486   1.000000
    142        -18.171291   1.000000
    143        -18.165190   1.000000
    144        -18.162955   1.000000
    145        -18.162840   1.000000
    146        -18.160836   1.000000
    147        -18.151885   1.000000
    148        -18.149705   1.000000
    149        -18.138056   1.000000
    150        -18.131363   1.000000
    151        -18.130419   1.000000
    152        -18.129447   1.000000
    153        -18.127582   1.000000
    154        -18.126827   1.000000
    155        -18.125579   1.000000
    156        -18.124625   1.000000
    157        -18.100896   1.000000
    158        -18.091209   1.000000
    159        -18.084859   1.000000
    160        -18.082511   1.000000
    161        -18.076956   1.000000
    162        -18.071485   1.000000
    163        -18.068969   1.000000
    164        -18.066903   1.000000
    165        -18.065315   1.000000
    166        -18.065138   1.000000
    167        -18.045942   1.000000
    168        -18.043667   1.000000
    169        -18.035732   1.000000
    170        -18.028920   1.000000
    171        -18.026403   1.000000
    172        -18.024640   1.000000
    173        -18.020734   1.000000
    174        -18.018289   1.000000
    175        -18.014195   1.000000
    176        -18.013743   1.000000
    177        -18.009482   1.000000
    178        -18.002552   1.000000
    179        -18.000948   1.000000
    180        -18.000817   1.000000
    181        -17.999096   1.000000
    182        -17.997446   1.000000
    183        -17.990420   1.000000
    184        -17.985979   1.000000
    185        -17.984263   1.000000
    186        -17.979752   1.000000
    187        -17.971496   1.000000
    188        -17.968674   1.000000
    189        -17.960534   1.000000
    190        -17.954106   1.000000
    191        -17.952846   1.000000
    192        -17.949266   1.000000
    193        -17.943060   1.000000
    194        -17.939020   1.000000
    195        -17.931638   1.000000
    196        -17.927135   1.000000
    197        -17.926414   1.000000
    198        -17.926155   1.000000
    199        -17.908340   1.000000
    200        -17.905652   1.000000
    201        -17.898485   1.000000
    202        -17.895504   1.000000
    203        -17.892122   1.000000
    204        -17.889311   1.000000
    205        -17.887982   1.000000
    206        -17.885905   1.000000
    207        -17.885555   1.000000
    208        -17.881820   1.000000
    209        -17.873337   1.000000
    210        -17.870296   1.000000
    211        -17.869618   1.000000
    212        -17.869520   1.000000
    213        -17.824183   1.000000
    214        -17.824152   1.000000
    215        -17.821799   1.000000
    216        -17.818048   1.000000
    217        -17.805045   1.000000
    218        -17.800911   1.000000
    219        -17.796552   1.000000
    220        -17.796531   1.000000
    221        -17.794952   1.000000
    222        -17.793882   1.000000
    223        -17.792165   1.000000
    224        -17.791911   1.000000
    225        -17.786354   1.000000
    226        -17.784418   1.000000
    227        -17.783483   1.000000
    228        -17.781983   1.000000
    229        -17.778969   1.000000
    230        -17.777088   1.000000
    231        -17.769552   1.000000
    232        -17.767948   1.000000
    233        -17.761217   1.000000
    234        -17.760540   1.000000
    235        -17.758905   1.000000
    236        -17.756000   1.000000
    237        -17.755986   1.000000
    238        -17.752898   1.000000
    239        -17.751433   1.000000
    240        -17.743760   1.000000
    241        -17.742484   1.000000
    242        -17.740283   1.000000
    243        -17.738584   1.000000
    244        -17.735989   1.000000
    245        -17.732157   1.000000
    246        -17.731220   1.000000
    247        -17.730650   1.000000
    248        -17.729764   1.000000
    249        -17.728581   1.000000
    250        -17.727622   1.000000
    251        -17.726339   1.000000
    252        -17.724451   1.000000
    253        -17.724256   1.000000
    254        -17.722170   1.000000
    255        -17.721806   1.000000
    256        -17.721728   1.000000
    257        -17.720372   1.000000
    258        -17.718004   1.000000
    259        -17.716107   1.000000
    260        -17.710525   1.000000
    261        -17.710377   1.000000
    262        -17.707285   1.000000
    263        -17.706170   1.000000
    264        -17.703528   1.000000
    265        -17.703186   1.000000
    266        -17.700149   1.000000
    267        -17.699397   1.000000
    268        -17.696985   1.000000
    269        -17.680812   1.000000
    270        -17.677563   1.000000
    271        -17.669001   1.000000
    272        -17.666800   1.000000
    273        -17.662403   1.000000
    274        -17.661852   1.000000
    275        -17.659483   1.000000
    276        -17.658403   1.000000
    277        -17.657874   1.000000
    278        -17.655760   1.000000
    279        -17.654282   1.000000
    280        -17.653573   1.000000
    281        -17.648220   1.000000
    282        -17.647957   1.000000
    283        -17.645658   1.000000
    284        -17.642575   1.000000
    285        -17.642286   1.000000
    286        -17.641877   1.000000
    287        -17.639728   1.000000
    288        -17.639683   1.000000
    289        -17.634708   1.000000
    290        -17.632278   1.000000
    291        -17.630309   1.000000
    292        -17.629536   1.000000
    293        -17.628521   1.000000
    294        -17.627113   1.000000
    295        -17.626445   1.000000
    296        -17.624679   1.000000
    297        -17.623213   1.000000
    298        -17.619642   1.000000
    299        -17.615244   1.000000
    300        -17.613342   1.000000
    301        -17.612927   1.000000
    302        -17.612317   1.000000
    303        -17.610547   1.000000
    304        -17.609630   1.000000
    305        -17.607287   1.000000
    306        -17.604476   1.000000
    307        -17.602909   1.000000
    308        -17.602769   1.000000
    309        -17.602608   1.000000
    310        -17.600500   1.000000
    311        -17.597637   1.000000
    312        -17.595877   1.000000
    313        -17.594041   1.000000
    314        -17.592693   1.000000
    315        -17.590779   1.000000
    316        -17.590579   1.000000
    317        -17.589271   1.000000
    318        -17.587824   1.000000
    319        -17.587261   1.000000
    320        -17.585785   1.000000
    321        -17.585683   1.000000
    322        -17.584684   1.000000
    323        -17.584496   1.000000
    324        -17.583461   1.000000
    325        -17.582358   1.000000
    326        -17.581548   1.000000
    327        -17.581087   1.000000
    328        -17.581072   1.000000
    329        -17.579853   1.000000
    330        -17.579527   1.000000
    331        -17.578966   1.000000
    332        -17.577323   1.000000
    333        -17.576690   1.000000
    334        -17.576347   1.000000
    335        -17.574919   1.000000
    336        -17.574269   1.000000
    337        -17.574139   1.000000
    338        -17.572405   1.000000
    339        -17.568932   1.000000
    340        -17.568711   1.000000
    341        -17.568280   1.000000
    342        -17.568125   1.000000
    343        -17.566515   1.000000
    344        -17.566340   1.000000
    345        -17.558855   1.000000
    346        -17.553304   1.000000
    347        -17.551851   1.000000
    348        -17.548538   1.000000
    349        -17.546690   1.000000
    350        -17.545575   1.000000
    351        -17.545425   1.000000
    352        -17.542314   1.000000
    353        -17.540885   1.000000
    354        -17.540552   1.000000
    355        -17.539613   1.000000
    356        -17.538489   1.000000
    357        -17.537703   1.000000
    358        -17.537092   1.000000
    359        -17.536495   1.000000
    360        -17.536073   1.000000
    361        -17.532230   1.000000
    362        -17.529209   1.000000
    363        -17.526361   1.000000
    364        -17.522041   1.000000
    365        -17.516309   1.000000
    366        -17.513187   1.000000
    367        -17.503870   1.000000
    368        -17.501330   1.000000
    369        -17.500149   1.000000
    370        -17.497761   1.000000
    371        -17.496105   1.000000
    372        -17.493444   1.000000
    373        -17.492340   1.000000
    374        -17.487480   1.000000
    375        -17.487355   1.000000
    376        -17.480352   1.000000
    377        -17.474999   1.000000
    378        -17.471759   1.000000
    379        -17.455429   1.000000
    380        -17.453822   1.000000
    381        -17.452273   1.000000
    382        -17.447614   1.000000
    383        -17.438163   1.000000
    384        -17.433017   1.000000
    385          2.481871   1.000000
    386          3.819408   1.000000
    387          3.894091   1.000000
    388          4.099185   1.000000
    389          4.198572   1.000000
    390          4.576008   1.000000
    391          4.634317   1.000000
    392          4.810334   1.000000
    393          4.869287   1.000000
    394          5.072578   1.000000
    395          5.135095   1.000000
    396          5.624495   1.000000
    397          5.634286   1.000000
    398          5.655032   1.000000
    399          5.680546   1.000000
    400          5.742151   1.000000
    401          5.744390   1.000000
    402          5.746537   1.000000
    403          5.779472   1.000000
    404          5.833026   1.000000
    405          5.835665   1.000000
    406          5.836901   1.000000
    407          5.853581   1.000000
    408          5.864806   1.000000
    409          5.887073   1.000000
    410          5.910080   1.000000
    411          5.979895   1.000000
    412          6.052944   1.000000
    413          6.058596   1.000000
    414          6.183512   1.000000
    415          6.193150   1.000000
    416          6.226406   1.000000
    417          6.232414   1.000000
    418          6.232482   1.000000
    419          6.235740   1.000000
    420          6.240326   1.000000
    421          6.242398   1.000000
    422          6.243801   1.000000
    423          6.249734   1.000000
    424          6.259316   1.000000
    425          6.279483   1.000000
    426          6.286865   1.000000
    427          6.292406   1.000000
    428          6.293426   1.000000
    429          6.295586   1.000000
    430          6.299242   1.000000
    431          6.302958   1.000000
    432          6.304694   1.000000
    433          6.373206   1.000000
    434          6.407208   1.000000
    435          6.407800   1.000000
    436          6.410742   1.000000
    437          6.477188   1.000000
    438          6.512380   1.000000
    439          6.513499   1.000000
    440          6.514020   1.000000
    441          6.533335   1.000000
    442          6.546532   1.000000
    443          6.550654   1.000000
    444          6.552822   1.000000
    445          6.601152   1.000000
    446          6.712569   1.000000
    447          6.714146   1.000000
    448          6.715799   1.000000
    449          6.741440   1.000000
    450          6.822339   1.000000
    451          6.823725   1.000000
    452          6.828447   1.000000
    453          6.831699   1.000000
    454          6.835800   1.000000
    455          6.839376   1.000000
    456          6.852534   1.000000
    457          6.857638   1.000000
    458          6.871054   1.000000
    459          6.873340   1.000000
    460          6.876293   1.000000
    461          6.885278   1.000000
    462          6.921381   1.000000
    463          6.927771   1.000000
    464          6.928713   1.000000
    465          6.972254   1.000000
    466          6.978523   1.000000
    467          7.068818   1.000000
    468          7.165151   1.000000
    469          7.165928   1.000000
    470          7.175783   1.000000
    471          7.179450   1.000000
    472          7.183746   1.000000
    473          7.188501   1.000000
    474          7.213797   1.000000
    475          7.219609   1.000000
    476          7.224823   1.000000
    477          7.232990   1.000000
    478          7.244983   1.000000
    479          7.249547   1.000000
    480          7.251581   1.000000
    481          7.253530   1.000000
    482          7.259796   1.000000
    483          7.323410   1.000000
    484          7.403557   1.000000
    485          7.404728   1.000000
    486          7.416985   1.000000
    487          7.417984   1.000000
    488          7.421042   1.000000
    489          7.424907   1.000000
    490          7.443042   1.000000
    491          7.444558   1.000000
    492          7.448524   1.000000
    493          7.452183   1.000000
    494          7.452582   1.000000
    495          7.464128   1.000000
    496          7.471028   1.000000
    497          7.527955   1.000000
    498          7.552375   1.000000
    499          7.558396   1.000000
    500          7.563768   1.000000
    501          7.577403   1.000000
    502          7.578559   1.000000
    503          7.631582   1.000000
    504          7.651205   1.000000
    505          7.708148   1.000000
    506          7.736148   1.000000
    507          7.772435   1.000000
    508          7.868012   1.000000
    509          7.879189   1.000000
    510          7.928474   1.000000
    511          7.930564   1.000000
    512          7.930710   1.000000
    513          7.933593   1.000000
    514          7.934114   1.000000
    515          7.940491   1.000000
    516          7.947102   1.000000
    517          7.969110   1.000000
    518          8.012886   1.000000
    519          8.020495   1.000000
    520          8.032917   1.000000
    521          8.036835   1.000000
    522          8.044040   1.000000
    523          8.059887   1.000000
    524          8.070876   1.000000
    525          8.071890   1.000000
    526          8.071936   1.000000
    527          8.096362   1.000000
    528          8.116323   1.000000
    529          8.120686   1.000000
    530          8.122466   1.000000
    531          8.125443   1.000000
    532          8.129361   1.000000
    533          8.131261   1.000000
    534          8.135375   1.000000
    535          8.136067   1.000000
    536          8.137448   1.000000
    537          8.186769   1.000000
    538          8.227015   1.000002
    539          8.227872   1.000002
    540          8.233156   1.000002
    541          8.237278   1.000002
    542          8.237617   1.000002
    543          8.241121   1.000002
    544          8.241615   1.000003
    545          8.244979   1.000003
    546          8.245873   1.000003
    547          8.248657   1.000003
    548          8.252066   1.000004
    549          8.260078   1.000005
    550          8.260427   1.000005
    551          8.265273   1.000006
    552          8.267155   1.000006
    553          8.319434   1.000031
    554          8.333020   1.000046
    555          8.335150   1.000049
    556          8.343320   1.000062
    557          8.374721   1.000149
    558          8.389764   1.000223
    559          8.407871   1.000355
    560          8.430669   1.000621
    561          8.462785   1.001299
    562          8.464499   1.001348
    563          8.499866   1.002823
    564          8.506088   1.003190
    565          8.513043   1.003647
    566          8.529988   1.004989
    567          8.698098   1.034718
    568          8.707053   1.035341
    569          8.763952   1.021523
    570          8.780607   1.008726
    571          8.795031   0.993288
    572          8.825584   0.945199
    573          8.940699   0.571323
    574          8.982913   0.393928
    575          9.011169   0.282175
    576          9.014444   0.269987
    577          9.043698   0.170499
    578          9.063229   0.114893
    579          9.068012   0.102713
    580          9.068475   0.101564
    581          9.073914   0.088479
    582          9.084638   0.064864
    583          9.091654   0.050978
    584          9.099075   0.037616
    585          9.106318   0.025857
    586          9.114708   0.013774
    587          9.133096  -0.007280
    588          9.143343  -0.016044
    589          9.154402  -0.023375
    590          9.162897  -0.027652
    591          9.201582  -0.035454
    592          9.204186  -0.035448
    593          9.204438  -0.035445
    594          9.209947  -0.035259
    595          9.247986  -0.029736
    596          9.249121  -0.029498
    597          9.268677  -0.025135
    598          9.270393  -0.024739
    599          9.272074  -0.024350
    600          9.274715  -0.023738
    601          9.279058  -0.022734
    602          9.285640  -0.021223
    603          9.294241  -0.019290
    604          9.299585  -0.018122
    605          9.323691  -0.013292
    606          9.323703  -0.013290
    607          9.333036  -0.011650
    608          9.336962  -0.011001
    609          9.342348  -0.010151
    610          9.345977  -0.009605
    611          9.349249  -0.009131
    612          9.350626  -0.008937
    613          9.350967  -0.008889
    614          9.360071  -0.007683
    615          9.370326  -0.006476
    616          9.373208  -0.006165
    617          9.375177  -0.005959
    618          9.381823  -0.005304
    619          9.440746  -0.001674
    620          9.455950  -0.001202
    621          9.462573  -0.001036
    622          9.476257  -0.000756
    623          9.484150  -0.000627
    624          9.490605  -0.000537
    625          9.638994  -0.000008
    626          9.646563  -0.000006
    627          9.689135  -0.000001
    628          9.704692  -0.000001
    629          9.724757  -0.000000
    630          9.736254  -0.000000
    631          9.740829  -0.000000
    632          9.744428  -0.000000
    633          9.748454  -0.000000
    634          9.753833  -0.000000
    635          9.761906  -0.000000
    636          9.762214  -0.000000
    637          9.782595  -0.000000
    638          9.783273  -0.000000
    639          9.791615  -0.000000
    640          9.794913  -0.000000
    641          9.795082  -0.000000
    642          9.799148  -0.000000
    643          9.800570  -0.000000
    644          9.805763  -0.000000
    645          9.808567  -0.000000
    646          9.812515  -0.000000
    647          9.814754  -0.000000
    648          9.822232  -0.000000
    649          9.822788  -0.000000
    650          9.838697  -0.000000
    651          9.847905  -0.000000
    652          9.871886  -0.000000
    653          9.882089  -0.000000
    654          9.884591  -0.000000
    655          9.887206  -0.000000
    656          9.898419  -0.000000
    657          9.922310  -0.000000
    658          9.924498  -0.000000
    659          9.937408  -0.000000
    660          9.940301  -0.000000
    661          9.945382  -0.000000
    662          9.945776  -0.000000
    663          9.957642  -0.000000
    664          9.966310  -0.000000
    665          9.967358  -0.000000
    666          9.971116  -0.000000
    667          9.973293  -0.000000
    668          9.980877  -0.000000
    669         10.004607  -0.000000
    670         10.005848  -0.000000
    671         10.010283  -0.000000
    672         10.021080  -0.000000
    673         10.047936  -0.000000
    674         10.056155  -0.000000
    675         10.067275  -0.000000
    676         10.091583  -0.000000
    677         10.099869  -0.000000
    678         10.101326  -0.000000
    679         10.104386  -0.000000
    680         10.105883  -0.000000
    681         10.109981  -0.000000
    682         10.111182  -0.000000
    683         10.125924  -0.000000
    684         10.129358  -0.000000
    685         10.133818  -0.000000
    686         10.145235  -0.000000
    687         10.199319  -0.000000
    688         10.216141  -0.000000
    689         10.230128  -0.000000
    690         10.235825  -0.000000
    691         10.285509  -0.000000
 
  0.2690550E-16  0.5000000E+00  0.3333333E+00  0.4166667E-01
      1        -39.913054   1.000000
      2        -39.892475   1.000000
      3        -39.880666   1.000000
      4        -39.869039   1.000000
      5        -39.866594   1.000000
      6        -39.857374   1.000000
      7        -39.856779   1.000000
      8        -39.844052   1.000000
      9        -39.843654   1.000000
     10        -39.840789   1.000000
     11        -39.834291   1.000000
     12        -39.824166   1.000000
     13        -39.821893   1.000000
     14        -39.818616   1.000000
     15        -39.812673   1.000000
     16        -39.808768   1.000000
     17        -39.803061   1.000000
     18        -39.802932   1.000000
     19        -39.802688   1.000000
     20        -39.800920   1.000000
     21        -39.799005   1.000000
     22        -39.796811   1.000000
     23        -39.796306   1.000000
     24        -39.793458   1.000000
     25        -39.788990   1.000000
     26        -39.787801   1.000000
     27        -39.787012   1.000000
     28        -39.785948   1.000000
     29        -39.783269   1.000000
     30        -39.782841   1.000000
     31        -39.781555   1.000000
     32        -39.777479   1.000000
     33        -39.771683   1.000000
     34        -39.770745   1.000000
     35        -39.767967   1.000000
     36        -39.767845   1.000000
     37        -39.766129   1.000000
     38        -39.766083   1.000000
     39        -39.764795   1.000000
     40        -39.763831   1.000000
     41        -39.763307   1.000000
     42        -39.761445   1.000000
     43        -39.761269   1.000000
     44        -39.760964   1.000000
     45        -39.759359   1.000000
     46        -39.759160   1.000000
     47        -39.757956   1.000000
     48        -39.755594   1.000000
     49        -39.755098   1.000000
     50        -39.753459   1.000000
     51        -39.750911   1.000000
     52        -39.750120   1.000000
     53        -39.749702   1.000000
     54        -39.747965   1.000000
     55        -39.747563   1.000000
     56        -39.746634   1.000000
     57        -39.746554   1.000000
     58        -39.744803   1.000000
     59        -39.744640   1.000000
     60        -39.743751   1.000000
     61        -39.743048   1.000000
     62        -39.742564   1.000000
     63        -39.742200   1.000000
     64        -39.740972   1.000000
     65        -39.739795   1.000000
     66        -39.738203   1.000000
     67        -39.737211   1.000000
     68        -39.736541   1.000000
     69        -39.736267   1.000000
     70        -39.735259   1.000000
     71        -39.734659   1.000000
     72        -39.731732   1.000000
     73        -39.731356   1.000000
     74        -39.730184   1.000000
     75        -39.729439   1.000000
     76        -39.728132   1.000000
     77        -39.727726   1.000000
     78        -39.726923   1.000000
     79        -39.726784   1.000000
     80        -39.726276   1.000000
     81        -39.726035   1.000000
     82        -39.724874   1.000000
     83        -39.724011   1.000000
     84        -39.723151   1.000000
     85        -39.723071   1.000000
     86        -39.721608   1.000000
     87        -39.721524   1.000000
     88        -39.720894   1.000000
     89        -39.720263   1.000000
     90        -39.719374   1.000000
     91        -39.713735   1.000000
     92        -39.712860   1.000000
     93        -39.706202   1.000000
     94        -39.706002   1.000000
     95        -39.703087   1.000000
     96        -39.700719   1.000000
     97        -18.351634   1.000000
     98        -18.343426   1.000000
     99        -18.316662   1.000000
    100        -18.284062   1.000000
    101        -18.282877   1.000000
    102        -18.278856   1.000000
    103        -18.277914   1.000000
    104        -18.274525   1.000000
    105        -18.272851   1.000000
    106        -18.269624   1.000000
    107        -18.268703   1.000000
    108        -18.261708   1.000000
    109        -18.259245   1.000000
    110        -18.255999   1.000000
    111        -18.255364   1.000000
    112        -18.252754   1.000000
    113        -18.251506   1.000000
    114        -18.250823   1.000000
    115        -18.249075   1.000000
    116        -18.247751   1.000000
    117        -18.246204   1.000000
    118        -18.241792   1.000000
    119        -18.229657   1.000000
    120        -18.225743   1.000000
    121        -18.224396   1.000000
    122        -18.220971   1.000000
    123        -18.220858   1.000000
    124        -18.218568   1.000000
    125        -18.217848   1.000000
    126        -18.214154   1.000000
    127        -18.214061   1.000000
    128        -18.209369   1.000000
    129        -18.202104   1.000000
    130        -18.201694   1.000000
    131        -18.200631   1.000000
    132        -18.195118   1.000000
    133        -18.191327   1.000000
    134        -18.191087   1.000000
    135        -18.189900   1.000000
    136        -18.188752   1.000000
    137        -18.178518   1.000000
    138        -18.177407   1.000000
    139        -18.174224   1.000000
    140        -18.172846   1.000000
    141        -18.171482   1.000000
    142        -18.171189   1.000000
    143        -18.165158   1.000000
    144        -18.163055   1.000000
    145        -18.162852   1.000000
    146        -18.160782   1.000000
    147        -18.151860   1.000000
    148        -18.149724   1.000000
    149        -18.138051   1.000000
    150        -18.131398   1.000000
    151        -18.130457   1.000000
    152        -18.129450   1.000000
    153        -18.127583   1.000000
    154        -18.126855   1.000000
    155        -18.125478   1.000000
    156        -18.124643   1.000000
    157        -18.100959   1.000000
    158        -18.091131   1.000000
    159        -18.084927   1.000000
    160        -18.082472   1.000000
    161        -18.076914   1.000000
    162        -18.071457   1.000000
    163        -18.069021   1.000000
    164        -18.066893   1.000000
    165        -18.065283   1.000000
    166        -18.065104   1.000000
    167        -18.045997   1.000000
    168        -18.043676   1.000000
    169        -18.035849   1.000000
    170        -18.028863   1.000000
    171        -18.026484   1.000000
    172        -18.024606   1.000000
    173        -18.020637   1.000000
    174        -18.018205   1.000000
    175        -18.014265   1.000000
    176        -18.013723   1.000000
    177        -18.009434   1.000000
    178        -18.002601   1.000000
    179        -18.000937   1.000000
    180        -18.000821   1.000000
    181        -17.999110   1.000000
    182        -17.997521   1.000000
    183        -17.990529   1.000000
    184        -17.985899   1.000000
    185        -17.984133   1.000000
    186        -17.979878   1.000000
    187        -17.971292   1.000000
    188        -17.968695   1.000000
    189        -17.960594   1.000000
    190        -17.954411   1.000000
    191        -17.952739   1.000000
    192        -17.949090   1.000000
    193        -17.943040   1.000000
    194        -17.939051   1.000000
    195        -17.931600   1.000000
    196        -17.927007   1.000000
    197        -17.926534   1.000000
    198        -17.926240   1.000000
    199        -17.908389   1.000000
    200        -17.905608   1.000000
    201        -17.898536   1.000000
    202        -17.895340   1.000000
    203        -17.892154   1.000000
    204        -17.889349   1.000000
    205        -17.888058   1.000000
    206        -17.885872   1.000000
    207        -17.885621   1.000000
    208        -17.881773   1.000000
    209        -17.873467   1.000000
    210        -17.870493   1.000000
    211        -17.869527   1.000000
    212        -17.869298   1.000000
    213        -17.824295   1.000000
    214        -17.824130   1.000000
    215        -17.821838   1.000000
    216        -17.818020   1.000000
    217        -17.805047   1.000000
    218        -17.801007   1.000000
    219        -17.796574   1.000000
    220        -17.796370   1.000000
    221        -17.794990   1.000000
    222        -17.793576   1.000000
    223        -17.792104   1.000000
    224        -17.791842   1.000000
    225        -17.786315   1.000000
    226        -17.784558   1.000000
    227        -17.783667   1.000000
    228        -17.782138   1.000000
    229        -17.779057   1.000000
    230        -17.777025   1.000000
    231        -17.769548   1.000000
    232        -17.768194   1.000000
    233        -17.761275   1.000000
    234        -17.760523   1.000000
    235        -17.758677   1.000000
    236        -17.756144   1.000000
    237        -17.756013   1.000000
    238        -17.752944   1.000000
    239        -17.751192   1.000000
    240        -17.743868   1.000000
    241        -17.742771   1.000000
    242        -17.740202   1.000000
    243        -17.738318   1.000000
    244        -17.735967   1.000000
    245        -17.732207   1.000000
    246        -17.731172   1.000000
    247        -17.730440   1.000000
    248        -17.729939   1.000000
    249        -17.728650   1.000000
    250        -17.727519   1.000000
    251        -17.726227   1.000000
    252        -17.724345   1.000000
    253        -17.724067   1.000000
    254        -17.722103   1.000000
    255        -17.721873   1.000000
    256        -17.721614   1.000000
    257        -17.720277   1.000000
    258        -17.718129   1.000000
    259        -17.716162   1.000000
    260        -17.710578   1.000000
    261        -17.710347   1.000000
    262        -17.707253   1.000000
    263        -17.706066   1.000000
    264        -17.703535   1.000000
    265        -17.703316   1.000000
    266        -17.700215   1.000000
    267        -17.699453   1.000000
    268        -17.697020   1.000000
    269        -17.680924   1.000000
    270        -17.677334   1.000000
    271        -17.668938   1.000000
    272        -17.666934   1.000000
    273        -17.662681   1.000000
    274        -17.661880   1.000000
    275        -17.659553   1.000000
    276        -17.658267   1.000000
    277        -17.657874   1.000000
    278        -17.655793   1.000000
    279        -17.654247   1.000000
    280        -17.653657   1.000000
    281        -17.648039   1.000000
    282        -17.647860   1.000000
    283        -17.645751   1.000000
    284        -17.642553   1.000000
    285        -17.642198   1.000000
    286        -17.641907   1.000000
    287        -17.639718   1.000000
    288        -17.639577   1.000000
    289        -17.634709   1.000000
    290        -17.632478   1.000000
    291        -17.630477   1.000000
    292        -17.629515   1.000000
    293        -17.628524   1.000000
    294        -17.627216   1.000000
    295        -17.626435   1.000000
    296        -17.624610   1.000000
    297        -17.623232   1.000000
    298        -17.619632   1.000000
    299        -17.615099   1.000000
    300        -17.613241   1.000000
    301        -17.612960   1.000000
    302        -17.612317   1.000000
    303        -17.610477   1.000000
    304        -17.609575   1.000000
    305        -17.607346   1.000000
    306        -17.604500   1.000000
    307        -17.602865   1.000000
    308        -17.602707   1.000000
    309        -17.602643   1.000000
    310        -17.600534   1.000000
    311        -17.597615   1.000000
    312        -17.595807   1.000000
    313        -17.594022   1.000000
    314        -17.592777   1.000000
    315        -17.590769   1.000000
    316        -17.590598   1.000000
    317        -17.589353   1.000000
    318        -17.587897   1.000000
    319        -17.587197   1.000000
    320        -17.585918   1.000000
    321        -17.585613   1.000000
    322        -17.584610   1.000000
    323        -17.584464   1.000000
    324        -17.583537   1.000000
    325        -17.582346   1.000000
    326        -17.581458   1.000000
    327        -17.581070   1.000000
    328        -17.580958   1.000000
    329        -17.579848   1.000000
    330        -17.579545   1.000000
    331        -17.578985   1.000000
    332        -17.577371   1.000000
    333        -17.576666   1.000000
    334        -17.576352   1.000000
    335        -17.574994   1.000000
    336        -17.574265   1.000000
    337        -17.574169   1.000000
    338        -17.572531   1.000000
    339        -17.568821   1.000000
    340        -17.568789   1.000000
    341        -17.568333   1.000000
    342        -17.568000   1.000000
    343        -17.566398   1.000000
    344        -17.566301   1.000000
    345        -17.558947   1.000000
    346        -17.553223   1.000000
    347        -17.551938   1.000000
    348        -17.548450   1.000000
    349        -17.546799   1.000000
    350        -17.545488   1.000000
    351        -17.545391   1.000000
    352        -17.542220   1.000000
    353        -17.540989   1.000000
    354        -17.540660   1.000000
    355        -17.539594   1.000000
    356        -17.538450   1.000000
    357        -17.537744   1.000000
    358        -17.537209   1.000000
    359        -17.536654   1.000000
    360        -17.536066   1.000000
    361        -17.532262   1.000000
    362        -17.529131   1.000000
    363        -17.526429   1.000000
    364        -17.521936   1.000000
    365        -17.516376   1.000000
    366        -17.513199   1.000000
    367        -17.503707   1.000000
    368        -17.501330   1.000000
    369        -17.500022   1.000000
    370        -17.497865   1.000000
    371        -17.496221   1.000000
    372        -17.493325   1.000000
    373        -17.492218   1.000000
    374        -17.487465   1.000000
    375        -17.487359   1.000000
    376        -17.480492   1.000000
    377        -17.475039   1.000000
    378        -17.471777   1.000000
    379        -17.455482   1.000000
    380        -17.453776   1.000000
    381        -17.452398   1.000000
    382        -17.447485   1.000000
    383        -17.438255   1.000000
    384        -17.432894   1.000000
    385          2.481880   1.000000
    386          3.819294   1.000000
    387          3.894198   1.000000
    388          4.099079   1.000000
    389          4.198689   1.000000
    390          4.576111   1.000000
    391          4.634235   1.000000
    392          4.810422   1.000000
    393          4.869189   1.000000
    394          5.072485   1.000000
    395          5.135148   1.000000
    396          5.624388   1.000000
    397          5.634412   1.000000
    398          5.655079   1.000000
    399          5.680423   1.000000
    400          5.742161   1.000000
    401          5.744329   1.000000
    402          5.746611   1.000000
    403          5.779459   1.000000
    404          5.833092   1.000000
    405          5.835469   1.000000
    406          5.836989   1.000000
    407          5.853554   1.000000
    408          5.864824   1.000000
    409          5.886986   1.000000
    410          5.910092   1.000000
    411          5.980034   1.000000
    412          6.052861   1.000000
    413          6.058761   1.000000
    414          6.183555   1.000000
    415          6.192972   1.000000
    416          6.226530   1.000000
    417          6.232305   1.000000
    418          6.232473   1.000000
    419          6.235738   1.000000
    420          6.240415   1.000000
    421          6.242478   1.000000
    422          6.243716   1.000000
    423          6.249807   1.000000
    424          6.259163   1.000000
    425          6.279821   1.000000
    426          6.286882   1.000000
    427          6.292296   1.000000
    428          6.293361   1.000000
    429          6.295627   1.000000
    430          6.299251   1.000000
    431          6.302812   1.000000
    432          6.304611   1.000000
    433          6.373482   1.000000
    434          6.407061   1.000000
    435          6.407786   1.000000
    436          6.410771   1.000000
    437          6.477346   1.000000
    438          6.512186   1.000000
    439          6.513651   1.000000
    440          6.513872   1.000000
    441          6.533286   1.000000
    442          6.546696   1.000000
    443          6.550676   1.000000
    444          6.552734   1.000000
    445          6.601115   1.000000
    446          6.712387   1.000000
    447          6.714170   1.000000
    448          6.715641   1.000000
    449          6.740922   1.000000
    450          6.822432   1.000000
    451          6.823516   1.000000
    452          6.828422   1.000000
    453          6.831841   1.000000
    454          6.835891   1.000000
    455          6.839661   1.000000
    456          6.852506   1.000000
    457          6.857886   1.000000
    458          6.871172   1.000000
    459          6.873217   1.000000
    460          6.876183   1.000000
    461          6.885547   1.000000
    462          6.921492   1.000000
    463          6.927675   1.000000
    464          6.928971   1.000000
    465          6.972594   1.000000
    466          6.978189   1.000000
    467          7.068930   1.000000
    468          7.165558   1.000000
    469          7.166020   1.000000
    470          7.175751   1.000000
    471          7.179496   1.000000
    472          7.183615   1.000000
    473          7.187992   1.000000
    474          7.213596   1.000000
    475          7.219314   1.000000
    476          7.225277   1.000000
    477          7.233234   1.000000
    478          7.245283   1.000000
    479          7.249236   1.000000
    480          7.251494   1.000000
    481          7.253480   1.000000
    482          7.260058   1.000000
    483          7.323146   1.000000
    484          7.403536   1.000000
    485          7.404868   1.000000
    486          7.416972   1.000000
    487          7.417827   1.000000
    488          7.420965   1.000000
    489          7.424756   1.000000
    490          7.443390   1.000000
    491          7.444332   1.000000
    492          7.448438   1.000000
    493          7.452065   1.000000
    494          7.452511   1.000000
    495          7.464254   1.000000
    496          7.471059   1.000000
    497          7.528207   1.000000
    498          7.552197   1.000000
    499          7.558102   1.000000
    500          7.563769   1.000000
    501          7.576988   1.000000
    502          7.578869   1.000000
    503          7.631539   1.000000
    504          7.651227   1.000000
    505          7.708268   1.000000
    506          7.736434   1.000000
    507          7.772437   1.000000
    508          7.867879   1.000000
    509          7.878877   1.000000
    510          7.928579   1.000000
    511          7.930346   1.000000
    512          7.930474   1.000000
    513          7.933586   1.000000
    514          7.934257   1.000000
    515          7.940570   1.000000
    516          7.947142   1.000000
    517          7.969479   1.000000
    518          8.013040   1.000000
    519          8.020154   1.000000
    520          8.033359   1.000000
    521          8.036895   1.000000
    522          8.043843   1.000000
    523          8.059288   1.000000
    524          8.070847   1.000000
    525          8.071766   1.000000
    526          8.072402   1.000000
    527          8.096402   1.000000
    528          8.116755   1.000000
    529          8.121069   1.000000
    530          8.122266   1.000000
    531          8.125041   1.000000
    532          8.129442   1.000000
    533          8.130899   1.000000
    534          8.135296   1.000000
    535          8.135968   1.000000
    536          8.137622   1.000000
    537          8.186725   1.000000
    538          8.226630   1.000002
    539          8.227748   1.000002
    540          8.233047   1.000002
    541          8.237317   1.000002
    542          8.237486   1.000002
    543          8.241096   1.000002
    544          8.241930   1.000003
    545          8.244919   1.000003
    546          8.245796   1.000003
    547          8.248604   1.000003
    548          8.252178   1.000004
    549          8.259550   1.000005
    550          8.261003   1.000005
    551          8.265553   1.000006
    552          8.267123   1.000006
    553          8.319500   1.000031
    554          8.333464   1.000047
    555          8.335478   1.000050
    556          8.343319   1.000062
    557          8.374295   1.000148
    558          8.390150   1.000225
    559          8.408400   1.000360
    560          8.430221   1.000614
    561          8.463104   1.001308
    562          8.463888   1.001330
    563          8.499964   1.002828
    564          8.505927   1.003180
    565          8.513536   1.003681
    566          8.529482   1.004943
    567          8.698042   1.034713
    568          8.707078   1.035342
    569          8.764506   1.021177
    570          8.780360   1.008954
    571          8.794957   0.993378
    572          8.825409   0.945539
    573          8.940909   0.570444
    574          8.982641   0.395047
    575          9.011794   0.279836
    576          9.014094   0.271279
    577          9.043876   0.169949
    578          9.063556   0.114044
    579          9.067809   0.103218
    580          9.069090   0.100047
    581          9.073699   0.088982
    582          9.084607   0.064929
    583          9.091738   0.050820
    584          9.099426   0.037016
    585          9.106404   0.025724
    586          9.114244   0.014400
    587          9.132537  -0.006744
    588          9.143678  -0.016298
    589          9.154598  -0.023486
    590          9.162928  -0.027666
    591          9.201953  -0.035456
    592          9.203846  -0.035452
    593          9.204622  -0.035442
    594          9.209567  -0.035278
    595          9.247088  -0.029922
    596          9.248553  -0.029617
    597          9.268504  -0.025175
    598          9.270728  -0.024661
    599          9.272903  -0.024158
    600          9.275395  -0.023581
    601          9.278589  -0.022842
    602          9.285988  -0.021144
    603          9.294117  -0.019317
    604          9.299239  -0.018196
    605          9.322082  -0.013589
    606          9.324024  -0.013232
    607          9.333327  -0.011601
    608          9.337562  -0.010904
    609          9.340925  -0.010371
    610          9.345804  -0.009631
    611          9.350437  -0.008963
    612          9.350534  -0.008949
    613          9.352455  -0.008683
    614          9.359961  -0.007697
    615          9.370250  -0.006485
    616          9.373322  -0.006153
    617          9.375135  -0.005963
    618          9.381395  -0.005344
    619          9.441186  -0.001659
    620          9.455627  -0.001211
    621          9.462025  -0.001049
    622          9.476582  -0.000750
    623          9.483707  -0.000634
    624          9.490927  -0.000533
    625          9.639365  -0.000008
    626          9.646284  -0.000006
    627          9.688941  -0.000001
    628          9.704145  -0.000001
    629          9.725280  -0.000000
    630          9.736013  -0.000000
    631          9.740894  -0.000000
    632          9.744297  -0.000000
    633          9.748703  -0.000000
    634          9.754293  -0.000000
    635          9.761973  -0.000000
    636          9.762429  -0.000000
    637          9.782167  -0.000000
    638          9.783536  -0.000000
    639          9.791969  -0.000000
    640          9.794791  -0.000000
    641          9.795275  -0.000000
    642          9.798486  -0.000000
    643          9.799756  -0.000000
    644          9.805086  -0.000000
    645          9.809194  -0.000000
    646          9.812783  -0.000000
    647          9.815143  -0.000000
    648          9.822266  -0.000000
    649          9.823671  -0.000000
    650          9.838298  -0.000000
    651          9.847259  -0.000000
    652          9.872051  -0.000000
    653          9.882691  -0.000000
    654          9.884404  -0.000000
    655          9.887762  -0.000000
    656          9.897754  -0.000000
    657          9.922015  -0.000000
    658          9.924364  -0.000000
    659          9.937657  -0.000000
    660          9.939542  -0.000000
    661          9.945089  -0.000000
    662          9.945858  -0.000000
    663          9.957794  -0.000000
    664          9.966423  -0.000000
    665          9.967515  -0.000000
    666          9.970756  -0.000000
    667          9.972500  -0.000000
    668          9.981669  -0.000000
    669         10.004453  -0.000000
    670         10.005878  -0.000000
    671         10.010806  -0.000000
    672         10.020270  -0.000000
    673         10.047745  -0.000000
    674         10.056049  -0.000000
    675         10.067199  -0.000000
    676         10.091582  -0.000000
    677         10.099957  -0.000000
    678         10.101835  -0.000000
    679         10.104377  -0.000000
    680         10.106274  -0.000000
    681         10.109800  -0.000000
    682         10.111349  -0.000000
    683         10.126030  -0.000000
    684         10.129959  -0.000000
    685         10.133468  -0.000000
    686         10.144756  -0.000000
    687         10.199086  -0.000000
    688         10.215981  -0.000000
    689         10.230546  -0.000000
    690         10.236020  -0.000000
    691         10.286950  -0.000000
 
  0.5000000E+00  0.5000000E+00  0.3333333E+00  0.4166667E-01
      1        -39.913054   1.000000
      2        -39.892475   1.000000
      3        -39.880666   1.000000
      4        -39.869039   1.000000
      5        -39.866594   1.000000
      6        -39.857374   1.000000
      7        -39.856779   1.000000
      8        -39.844052   1.000000
      9        -39.843654   1.000000
     10        -39.840789   1.000000
     11        -39.834291   1.000000
     12        -39.824166   1.000000
     13        -39.821893   1.000000
     14        -39.818616   1.000000
     15        -39.812673   1.000000
     16        -39.808768   1.000000
     17        -39.803061   1.000000
     18        -39.802932   1.000000
     19        -39.802688   1.000000
     20        -39.800920   1.000000
     21        -39.799005   1.000000
     22        -39.796811   1.000000
     23        -39.796306   1.000000
     24        -39.793458   1.000000
     25        -39.788990   1.000000
     26        -39.787801   1.000000
     27        -39.787012   1.000000
     28        -39.785948   1.000000
     29        -39.783269   1.000000
     30        -39.782841   1.000000
     31        -39.781555   1.000000
     32        -39.777479   1.000000
     33        -39.771683   1.000000
     34        -39.770745   1.000000
     35        -39.767967   1.000000
     36        -39.767844   1.000000
     37        -39.766129   1.000000
     38        -39.766083   1.000000
     39        -39.764795   1.000000
     40        -39.763831   1.000000
     41        -39.763307   1.000000
     42        -39.761446   1.000000
     43        -39.761269   1.000000
     44        -39.760964   1.000000
     45        -39.759359   1.000000
     46        -39.759160   1.000000
     47        -39.757956   1.000000
     48        -39.755594   1.000000
     49        -39.755098   1.000000
     50        -39.753459   1.000000
     51        -39.750911   1.000000
     52        -39.750120   1.000000
     53        -39.749702   1.000000
     54        -39.747965   1.000000
     55        -39.747563   1.000000
     56        -39.746634   1.000000
     57        -39.746554   1.000000
     58        -39.744803   1.000000
     59        -39.744640   1.000000
     60        -39.743751   1.000000
     61        -39.743048   1.000000
     62        -39.742564   1.000000
     63        -39.742200   1.000000
     64        -39.740972   1.000000
     65        -39.739795   1.000000
     66        -39.738203   1.000000
     67        -39.737211   1.000000
     68        -39.736541   1.000000
     69        -39.736267   1.000000
     70        -39.735259   1.000000
     71        -39.734659   1.000000
     72        -39.731732   1.000000
     73        -39.731356   1.000000
     74        -39.730184   1.000000
     75        -39.729439   1.000000
     76        -39.728132   1.000000
     77        -39.727726   1.000000
     78        -39.726923   1.000000
     79        -39.726784   1.000000
     80        -39.726276   1.000000
     81        -39.726035   1.000000
     82        -39.724874   1.000000
     83        -39.724011   1.000000
     84        -39.723150   1.000000
     85        -39.723071   1.000000
     86        -39.721608   1.000000
     87        -39.721523   1.000000
     88        -39.720894   1.000000
     89        -39.720263   1.000000
     90        -39.719374   1.000000
     91        -39.713735   1.000000
     92        -39.712860   1.000000
     93        -39.706202   1.000000
     94        -39.706002   1.000000
     95        -39.703087   1.000000
     96        -39.700719   1.000000
     97        -18.351634   1.000000
     98        -18.343426   1.000000
     99        -18.316662   1.000000
    100        -18.284062   1.000000
    101        -18.282877   1.000000
    102        -18.278856   1.000000
    103        -18.277914   1.000000
    104        -18.274525   1.000000
    105        -18.272851   1.000000
    106        -18.269624   1.000000
    107        -18.268703   1.000000
    108        -18.261708   1.000000
    109        -18.259245   1.000000
    110        -18.255999   1.000000
    111        -18.255363   1.000000
    112        -18.252754   1.000000
    113        -18.251506   1.000000
    114        -18.250823   1.000000
    115        -18.249074   1.000000
    116        -18.247751   1.000000
    117        -18.246204   1.000000
    118        -18.241792   1.000000
    119        -18.229657   1.000000
    120        -18.225743   1.000000
    121        -18.224396   1.000000
    122        -18.220971   1.000000
    123        -18.220858   1.000000
    124        -18.218568   1.000000
    125        -18.217848   1.000000
    126        -18.214154   1.000000
    127        -18.214061   1.000000
    128        -18.209369   1.000000
    129        -18.202104   1.000000
    130        -18.201694   1.000000
    131        -18.200631   1.000000
    132        -18.195118   1.000000
    133        -18.191327   1.000000
    134        -18.191087   1.000000
    135        -18.189900   1.000000
    136        -18.188752   1.000000
    137        -18.178518   1.000000
    138        -18.177407   1.000000
    139        -18.174224   1.000000
    140        -18.172846   1.000000
    141        -18.171482   1.000000
    142        -18.171189   1.000000
    143        -18.165158   1.000000
    144        -18.163055   1.000000
    145        -18.162852   1.000000
    146        -18.160782   1.000000
    147        -18.151860   1.000000
    148        -18.149724   1.000000
    149        -18.138051   1.000000
    150        -18.131398   1.000000
    151        -18.130457   1.000000
    152        -18.129450   1.000000
    153        -18.127583   1.000000
    154        -18.126855   1.000000
    155        -18.125478   1.000000
    156        -18.124643   1.000000
    157        -18.100959   1.000000
    158        -18.091131   1.000000
    159        -18.084927   1.000000
    160        -18.082472   1.000000
    161        -18.076914   1.000000
    162        -18.071457   1.000000
    163        -18.069021   1.000000
    164        -18.066893   1.000000
    165        -18.065283   1.000000
    166        -18.065104   1.000000
    167        -18.045997   1.000000
    168        -18.043676   1.000000
    169        -18.035849   1.000000
    170        -18.028863   1.000000
    171        -18.026484   1.000000
    172        -18.024607   1.000000
    173        -18.020637   1.000000
    174        -18.018205   1.000000
    175        -18.014265   1.000000
    176        -18.013723   1.000000
    177        -18.009434   1.000000
    178        -18.002601   1.000000
    179        -18.000937   1.000000
    180        -18.000821   1.000000
    181        -17.999110   1.000000
    182        -17.997521   1.000000
    183        -17.990529   1.000000
    184        -17.985899   1.000000
    185        -17.984133   1.000000
    186        -17.979878   1.000000
    187        -17.971292   1.000000
    188        -17.968695   1.000000
    189        -17.960594   1.000000
    190        -17.954411   1.000000
    191        -17.952739   1.000000
    192        -17.949090   1.000000
    193        -17.943040   1.000000
    194        -17.939051   1.000000
    195        -17.931600   1.000000
    196        -17.927007   1.000000
    197        -17.926534   1.000000
    198        -17.926240   1.000000
    199        -17.908389   1.000000
    200        -17.905608   1.000000
    201        -17.898536   1.000000
    202        -17.895340   1.000000
    203        -17.892154   1.000000
    204        -17.889349   1.000000
    205        -17.888058   1.000000
    206        -17.885872   1.000000
    207        -17.885621   1.000000
    208        -17.881773   1.000000
    209        -17.873467   1.000000
    210        -17.870493   1.000000
    211        -17.869527   1.000000
    212        -17.869298   1.000000
    213        -17.824295   1.000000
    214        -17.824130   1.000000
    215        -17.821838   1.000000
    216        -17.818020   1.000000
    217        -17.805047   1.000000
    218        -17.801007   1.000000
    219        -17.796574   1.000000
    220        -17.796370   1.000000
    221        -17.794990   1.000000
    222        -17.793576   1.000000
    223        -17.792104   1.000000
    224        -17.791842   1.000000
    225        -17.786315   1.000000
    226        -17.784558   1.000000
    227        -17.783667   1.000000
    228        -17.782138   1.000000
    229        -17.779057   1.000000
    230        -17.777025   1.000000
    231        -17.769548   1.000000
    232        -17.768194   1.000000
    233        -17.761275   1.000000
    234        -17.760523   1.000000
    235        -17.758677   1.000000
    236        -17.756144   1.000000
    237        -17.756013   1.000000
    238        -17.752944   1.000000
    239        -17.751192   1.000000
    240        -17.743868   1.000000
    241        -17.742771   1.000000
    242        -17.740202   1.000000
    243        -17.738318   1.000000
    244        -17.735967   1.000000
    245        -17.732207   1.000000
    246        -17.731172   1.000000
    247        -17.730440   1.000000
    248        -17.729939   1.000000
    249        -17.728650   1.000000
    250        -17.727520   1.000000
    251        -17.726227   1.000000
    252        -17.724345   1.000000
    253        -17.724067   1.000000
    254        -17.722103   1.000000
    255        -17.721873   1.000000
    256        -17.721614   1.000000
    257        -17.720277   1.000000
    258        -17.718129   1.000000
    259        -17.716162   1.000000
    260        -17.710578   1.000000
    261        -17.710347   1.000000
    262        -17.707253   1.000000
    263        -17.706066   1.000000
    264        -17.703535   1.000000
    265        -17.703316   1.000000
    266        -17.700215   1.000000
    267        -17.699453   1.000000
    268        -17.697020   1.000000
    269        -17.680924   1.000000
    270        -17.677334   1.000000
    271        -17.668938   1.000000
    272        -17.666934   1.000000
    273        -17.662681   1.000000
    274        -17.661880   1.000000
    275        -17.659553   1.000000
    276        -17.658267   1.000000
    277        -17.657874   1.000000
    278        -17.655793   1.000000
    279        -17.654247   1.000000
    280        -17.653657   1.000000
    281        -17.648039   1.000000
    282        -17.647860   1.000000
    283        -17.645751   1.000000
    284        -17.642553   1.000000
    285        -17.642198   1.000000
    286        -17.641907   1.000000
    287        -17.639717   1.000000
    288        -17.639577   1.000000
    289        -17.634709   1.000000
    290        -17.632478   1.000000
    291        -17.630477   1.000000
    292        -17.629515   1.000000
    293        -17.628524   1.000000
    294        -17.627216   1.000000
    295        -17.626434   1.000000
    296        -17.624610   1.000000
    297        -17.623233   1.000000
    298        -17.619632   1.000000
    299        -17.615099   1.000000
    300        -17.613241   1.000000
    301        -17.612960   1.000000
    302        -17.612317   1.000000
    303        -17.610477   1.000000
    304        -17.609575   1.000000
    305        -17.607346   1.000000
    306        -17.604500   1.000000
    307        -17.602865   1.000000
    308        -17.602707   1.000000
    309        -17.602643   1.000000
    310        -17.600534   1.000000
    311        -17.597615   1.000000
    312        -17.595807   1.000000
    313        -17.594022   1.000000
    314        -17.592777   1.000000
    315        -17.590769   1.000000
    316        -17.590598   1.000000
    317        -17.589353   1.000000
    318        -17.587897   1.000000
    319        -17.587197   1.000000
    320        -17.585918   1.000000
    321        -17.585613   1.000000
    322        -17.584610   1.000000
    323        -17.584464   1.000000
    324        -17.583537   1.000000
    325        -17.582346   1.000000
    326        -17.581458   1.000000
    327        -17.581070   1.000000
    328        -17.580958   1.000000
    329        -17.579848   1.000000
    330        -17.579545   1.000000
    331        -17.578985   1.000000
    332        -17.577371   1.000000
    333        -17.576666   1.000000
    334        -17.576352   1.000000
    335        -17.574994   1.000000
    336        -17.574265   1.000000
    337        -17.574169   1.000000
    338        -17.572531   1.000000
    339        -17.568821   1.000000
    340        -17.568789   1.000000
    341        -17.568333   1.000000
    342        -17.568000   1.000000
    343        -17.566398   1.000000
    344        -17.566301   1.000000
    345        -17.558947   1.000000
    346        -17.553223   1.000000
    347        -17.551938   1.000000
    348        -17.548450   1.000000
    349        -17.546799   1.000000
    350        -17.545488   1.000000
    351        -17.545391   1.000000
    352        -17.542220   1.000000
    353        -17.540989   1.000000
    354        -17.540660   1.000000
    355        -17.539594   1.000000
    356        -17.538450   1.000000
    357        -17.537744   1.000000
    358        -17.537209   1.000000
    359        -17.536654   1.000000
    360        -17.536066   1.000000
    361        -17.532262   1.000000
    362        -17.529131   1.000000
    363        -17.526429   1.000000
    364        -17.521936   1.000000
    365        -17.516376   1.000000
    366        -17.513199   1.000000
    367        -17.503707   1.000000
    368        -17.501330   1.000000
    369        -17.500022   1.000000
    370        -17.497865   1.000000
    371        -17.496221   1.000000
    372        -17.493325   1.000000
    373        -17.492218   1.000000
    374        -17.487465   1.000000
    375        -17.487359   1.000000
    376        -17.480492   1.000000
    377        -17.475039   1.000000
    378        -17.471777   1.000000
    379        -17.455482   1.000000
    380        -17.453776   1.000000
    381        -17.452399   1.000000
    382        -17.447485   1.000000
    383        -17.438255   1.000000
    384        -17.432894   1.000000
    385          2.481880   1.000000
    386          3.819294   1.000000
    387          3.894198   1.000000
    388          4.099079   1.000000
    389          4.198689   1.000000
    390          4.576111   1.000000
    391          4.634235   1.000000
    392          4.810422   1.000000
    393          4.869189   1.000000
    394          5.072485   1.000000
    395          5.135148   1.000000
    396          5.624388   1.000000
    397          5.634412   1.000000
    398          5.655079   1.000000
    399          5.680423   1.000000
    400          5.742161   1.000000
    401          5.744329   1.000000
    402          5.746611   1.000000
    403          5.779459   1.000000
    404          5.833092   1.000000
    405          5.835469   1.000000
    406          5.836989   1.000000
    407          5.853554   1.000000
    408          5.864824   1.000000
    409          5.886985   1.000000
    410          5.910092   1.000000
    411          5.980034   1.000000
    412          6.052861   1.000000
    413          6.058761   1.000000
    414          6.183555   1.000000
    415          6.192972   1.000000
    416          6.226530   1.000000
    417          6.232305   1.000000
    418          6.232473   1.000000
    419          6.235738   1.000000
    420          6.240415   1.000000
    421          6.242478   1.000000
    422          6.243716   1.000000
    423          6.249807   1.000000
    424          6.259163   1.000000
    425          6.279821   1.000000
    426          6.286882   1.000000
    427          6.292296   1.000000
    428          6.293361   1.000000
    429          6.295627   1.000000
    430          6.299251   1.000000
    431          6.302812   1.000000
    432          6.304611   1.000000
    433          6.373482   1.000000
    434          6.407061   1.000000
    435          6.407786   1.000000
    436          6.410771   1.000000
    437          6.477346   1.000000
    438          6.512186   1.000000
    439          6.513651   1.000000
    440          6.513872   1.000000
    441          6.533286   1.000000
    442          6.546696   1.000000
    443          6.550676   1.000000
    444          6.552734   1.000000
    445          6.601115   1.000000
    446          6.712387   1.000000
    447          6.714170   1.000000
    448          6.715641   1.000000
    449          6.740922   1.000000
    450          6.822432   1.000000
    451          6.823516   1.000000
    452          6.828422   1.000000
    453          6.831841   1.000000
    454          6.835891   1.000000
    455          6.839661   1.000000
    456          6.852506   1.000000
    457          6.857886   1.000000
    458          6.871171   1.000000
    459          6.873218   1.000000
    460          6.876183   1.000000
    461          6.885547   1.000000
    462          6.921492   1.000000
    463          6.927675   1.000000
    464          6.928971   1.000000
    465          6.972594   1.000000
    466          6.978189   1.000000
    467          7.068930   1.000000
    468          7.165558   1.000000
    469          7.166020   1.000000
    470          7.175751   1.000000
    471          7.179496   1.000000
    472          7.183615   1.000000
    473          7.187992   1.000000
    474          7.213596   1.000000
    475          7.219315   1.000000
    476          7.225277   1.000000
    477          7.233234   1.000000
    478          7.245283   1.000000
    479          7.249236   1.000000
    480          7.251494   1.000000
    481          7.253480   1.000000
    482          7.260058   1.000000
    483          7.323146   1.000000
    484          7.403536   1.000000
    485          7.404868   1.000000
    486          7.416972   1.000000
    487          7.417827   1.000000
    488          7.420965   1.000000
    489          7.424756   1.000000
    490          7.443390   1.000000
    491          7.444332   1.000000
    492          7.448438   1.000000
    493          7.452065   1.000000
    494          7.452511   1.000000
    495          7.464254   1.000000
    496          7.471059   1.000000
    497          7.528207   1.000000
    498          7.552197   1.000000
    499          7.558102   1.000000
    500          7.563769   1.000000
    501          7.576988   1.000000
    502          7.578869   1.000000
    503          7.631539   1.000000
    504          7.651227   1.000000
    505          7.708268   1.000000
    506          7.736434   1.000000
    507          7.772437   1.000000
    508          7.867879   1.000000
    509          7.878877   1.000000
    510          7.928579   1.000000
    511          7.930346   1.000000
    512          7.930474   1.000000
    513          7.933586   1.000000
    514          7.934257   1.000000
    515          7.940570   1.000000
    516          7.947142   1.000000
    517          7.969479   1.000000
    518          8.013040   1.000000
    519          8.020154   1.000000
    520          8.033359   1.000000
    521          8.036895   1.000000
    522          8.043843   1.000000
    523          8.059288   1.000000
    524          8.070847   1.000000
    525          8.071766   1.000000
    526          8.072402   1.000000
    527          8.096402   1.000000
    528          8.116755   1.000000
    529          8.121069   1.000000
    530          8.122266   1.000000
    531          8.125041   1.000000
    532          8.129442   1.000000
    533          8.130899   1.000000
    534          8.135296   1.000000
    535          8.135968   1.000000
    536          8.137622   1.000000
    537          8.186725   1.000000
    538          8.226630   1.000002
    539          8.227748   1.000002
    540          8.233047   1.000002
    541          8.237317   1.000002
    542          8.237486   1.000002
    543          8.241096   1.000002
    544          8.241930   1.000003
    545          8.244919   1.000003
    546          8.245796   1.000003
    547          8.248604   1.000003
    548          8.252178   1.000004
    549          8.259550   1.000005
    550          8.261003   1.000005
    551          8.265553   1.000006
    552          8.267123   1.000006
    553          8.319500   1.000031
    554          8.333464   1.000047
    555          8.335478   1.000050
    556          8.343319   1.000062
    557          8.374295   1.000148
    558          8.390150   1.000225
    559          8.408400   1.000360
    560          8.430221   1.000614
    561          8.463104   1.001308
    562          8.463888   1.001330
    563          8.499964   1.002828
    564          8.505927   1.003180
    565          8.513536   1.003681
    566          8.529482   1.004943
    567          8.698041   1.034713
    568          8.707078   1.035342
    569          8.764506   1.021177
    570          8.780360   1.008954
    571          8.794957   0.993378
    572          8.825409   0.945539
    573          8.940909   0.570444
    574          8.982641   0.395047
    575          9.011794   0.279836
    576          9.014094   0.271279
    577          9.043876   0.169949
    578          9.063556   0.114044
    579          9.067809   0.103218
    580          9.069090   0.100047
    581          9.073699   0.088982
    582          9.084607   0.064929
    583          9.091738   0.050820
    584          9.099426   0.037016
    585          9.106404   0.025724
    586          9.114244   0.014400
    587          9.132537  -0.006744
    588          9.143678  -0.016298
    589          9.154598  -0.023486
    590          9.162928  -0.027666
    591          9.201953  -0.035456
    592          9.203846  -0.035452
    593          9.204622  -0.035442
    594          9.209567  -0.035278
    595          9.247088  -0.029922
    596          9.248553  -0.029617
    597          9.268504  -0.025175
    598          9.270727  -0.024661
    599          9.272903  -0.024158
    600          9.275395  -0.023581
    601          9.278589  -0.022842
    602          9.285988  -0.021144
    603          9.294117  -0.019317
    604          9.299239  -0.018196
    605          9.322082  -0.013589
    606          9.324024  -0.013232
    607          9.333327  -0.011601
    608          9.337562  -0.010904
    609          9.340925  -0.010371
    610          9.345804  -0.009631
    611          9.350437  -0.008963
    612          9.350534  -0.008949
    613          9.352455  -0.008683
    614          9.359961  -0.007697
    615          9.370250  -0.006485
    616          9.373322  -0.006153
    617          9.375135  -0.005963
    618          9.381395  -0.005344
    619          9.441186  -0.001659
    620          9.455627  -0.001211
    621          9.462025  -0.001049
    622          9.476582  -0.000750
    623          9.483707  -0.000634
    624          9.490927  -0.000533
    625          9.639365  -0.000008
    626          9.646284  -0.000006
    627          9.688941  -0.000001
    628          9.704145  -0.000001
    629          9.725280  -0.000000
    630          9.736013  -0.000000
    631          9.740894  -0.000000
    632          9.744297  -0.000000
    633          9.748703  -0.000000
    634          9.754293  -0.000000
    635          9.761973  -0.000000
    636          9.762429  -0.000000
    637          9.782167  -0.000000
    638          9.783536  -0.000000
    639          9.791969  -0.000000
    640          9.794791  -0.000000
    641          9.795275  -0.000000
    642          9.798486  -0.000000
    643          9.799756  -0.000000
    644          9.805086  -0.000000
    645          9.809194  -0.000000
    646          9.812783  -0.000000
    647          9.815142  -0.000000
    648          9.822266  -0.000000
    649          9.823671  -0.000000
    650          9.838298  -0.000000
    651          9.847259  -0.000000
    652          9.872051  -0.000000
    653          9.882691  -0.000000
    654          9.884404  -0.000000
    655          9.887762  -0.000000
    656          9.897754  -0.000000
    657          9.922014  -0.000000
    658          9.924364  -0.000000
    659          9.937657  -0.000000
    660          9.939542  -0.000000
    661          9.945089  -0.000000
    662          9.945859  -0.000000
    663          9.957795  -0.000000
    664          9.966423  -0.000000
    665          9.967515  -0.000000
    666          9.970756  -0.000000
    667          9.972500  -0.000000
    668          9.981669  -0.000000
    669         10.004453  -0.000000
    670         10.005878  -0.000000
    671         10.010806  -0.000000
    672         10.020270  -0.000000
    673         10.047745  -0.000000
    674         10.056049  -0.000000
    675         10.067199  -0.000000
    676         10.091582  -0.000000
    677         10.099957  -0.000000
    678         10.101835  -0.000000
    679         10.104377  -0.000000
    680         10.106274  -0.000000
    681         10.109800  -0.000000
    682         10.111349  -0.000000
    683         10.126030  -0.000000
    684         10.129959  -0.000000
    685         10.133468  -0.000000
    686         10.144756  -0.000000
    687         10.199086  -0.000000
    688         10.215981  -0.000000
    689         10.230546  -0.000000
    690         10.236020  -0.000000
    691         10.285353  -0.000000
 
  0.2500000E+00  0.2500000E+00  0.3333333E+00  0.4166667E-01
      1        -39.913087   1.000000
      2        -39.892701   1.000000
      3        -39.878827   1.000000
      4        -39.869542   1.000000
      5        -39.868338   1.000000
      6        -39.858455   1.000000
      7        -39.855910   1.000000
      8        -39.849786   1.000000
      9        -39.840268   1.000000
     10        -39.836345   1.000000
     11        -39.826413   1.000000
     12        -39.825415   1.000000
     13        -39.824395   1.000000
     14        -39.820396   1.000000
     15        -39.816068   1.000000
     16        -39.814394   1.000000
     17        -39.806459   1.000000
     18        -39.803995   1.000000
     19        -39.801789   1.000000
     20        -39.798827   1.000000
     21        -39.797398   1.000000
     22        -39.795089   1.000000
     23        -39.794008   1.000000
     24        -39.793345   1.000000
     25        -39.789686   1.000000
     26        -39.787730   1.000000
     27        -39.784714   1.000000
     28        -39.782665   1.000000
     29        -39.781475   1.000000
     30        -39.780980   1.000000
     31        -39.778155   1.000000
     32        -39.776867   1.000000
     33        -39.774886   1.000000
     34        -39.774500   1.000000
     35        -39.773027   1.000000
     36        -39.770249   1.000000
     37        -39.769310   1.000000
     38        -39.768330   1.000000
     39        -39.766809   1.000000
     40        -39.762794   1.000000
     41        -39.762200   1.000000
     42        -39.761285   1.000000
     43        -39.759723   1.000000
     44        -39.758333   1.000000
     45        -39.757263   1.000000
     46        -39.755953   1.000000
     47        -39.755436   1.000000
     48        -39.754860   1.000000
     49        -39.753415   1.000000
     50        -39.753111   1.000000
     51        -39.752424   1.000000
     52        -39.751704   1.000000
     53        -39.750701   1.000000
     54        -39.750122   1.000000
     55        -39.748812   1.000000
     56        -39.748290   1.000000
     57        -39.747215   1.000000
     58        -39.745636   1.000000
     59        -39.744518   1.000000
     60        -39.744286   1.000000
     61        -39.743262   1.000000
     62        -39.741673   1.000000
     63        -39.740524   1.000000
     64        -39.739251   1.000000
     65        -39.738526   1.000000
     66        -39.737848   1.000000
     67        -39.737375   1.000000
     68        -39.736433   1.000000
     69        -39.735521   1.000000
     70        -39.734563   1.000000
     71        -39.734246   1.000000
     72        -39.733379   1.000000
     73        -39.732041   1.000000
     74        -39.730645   1.000000
     75        -39.729688   1.000000
     76        -39.728519   1.000000
     77        -39.728180   1.000000
     78        -39.727561   1.000000
     79        -39.726947   1.000000
     80        -39.726222   1.000000
     81        -39.724639   1.000000
     82        -39.724478   1.000000
     83        -39.724130   1.000000
     84        -39.723097   1.000000
     85        -39.722474   1.000000
     86        -39.721900   1.000000
     87        -39.721687   1.000000
     88        -39.721178   1.000000
     89        -39.720603   1.000000
     90        -39.719128   1.000000
     91        -39.713437   1.000000
     92        -39.713089   1.000000
     93        -39.706161   1.000000
     94        -39.706005   1.000000
     95        -39.703095   1.000000
     96        -39.700726   1.000000
     97        -18.358326   1.000000
     98        -18.323222   1.000000
     99        -18.315410   1.000000
    100        -18.313356   1.000000
    101        -18.293208   1.000000
    102        -18.284819   1.000000
    103        -18.278720   1.000000
    104        -18.276014   1.000000
    105        -18.270976   1.000000
    106        -18.267253   1.000000
    107        -18.264614   1.000000
    108        -18.260183   1.000000
    109        -18.257504   1.000000
    110        -18.256475   1.000000
    111        -18.252086   1.000000
    112        -18.250930   1.000000
    113        -18.244439   1.000000
    114        -18.239719   1.000000
    115        -18.237196   1.000000
    116        -18.235469   1.000000
    117        -18.233146   1.000000
    118        -18.231024   1.000000
    119        -18.230273   1.000000
    120        -18.228863   1.000000
    121        -18.224348   1.000000
    122        -18.221909   1.000000
    123        -18.219092   1.000000
    124        -18.218394   1.000000
    125        -18.216638   1.000000
    126        -18.214918   1.000000
    127        -18.213200   1.000000
    128        -18.212501   1.000000
    129        -18.210300   1.000000
    130        -18.208583   1.000000
    131        -18.203534   1.000000
    132        -18.199705   1.000000
    133        -18.197365   1.000000
    134        -18.195495   1.000000
    135        -18.194877   1.000000
    136        -18.193618   1.000000
    137        -18.190064   1.000000
    138        -18.187522   1.000000
    139        -18.180969   1.000000
    140        -18.175992   1.000000
    141        -18.173467   1.000000
    142        -18.172564   1.000000
    143        -18.168364   1.000000
    144        -18.167171   1.000000
    145        -18.165600   1.000000
    146        -18.161186   1.000000
    147        -18.156383   1.000000
    148        -18.144900   1.000000
    149        -18.126687   1.000000
    150        -18.121787   1.000000
    151        -18.120010   1.000000
    152        -18.115738   1.000000
    153        -18.113574   1.000000
    154        -18.113263   1.000000
    155        -18.112397   1.000000
    156        -18.110665   1.000000
    157        -18.109736   1.000000
    158        -18.108841   1.000000
    159        -18.092488   1.000000
    160        -18.086875   1.000000
    161        -18.080316   1.000000
    162        -18.066195   1.000000
    163        -18.061898   1.000000
    164        -18.056021   1.000000
    165        -18.053587   1.000000
    166        -18.052266   1.000000
    167        -18.049936   1.000000
    168        -18.048296   1.000000
    169        -18.046885   1.000000
    170        -18.044906   1.000000
    171        -18.042871   1.000000
    172        -18.041216   1.000000
    173        -18.039201   1.000000
    174        -18.036303   1.000000
    175        -18.034432   1.000000
    176        -18.031177   1.000000
    177        -18.029976   1.000000
    178        -18.027571   1.000000
    179        -18.008104   1.000000
    180        -17.988212   1.000000
    181        -17.987273   1.000000
    182        -17.982117   1.000000
    183        -17.981296   1.000000
    184        -17.973586   1.000000
    185        -17.968060   1.000000
    186        -17.966313   1.000000
    187        -17.960126   1.000000
    188        -17.953600   1.000000
    189        -17.944072   1.000000
    190        -17.942051   1.000000
    191        -17.941305   1.000000
    192        -17.935255   1.000000
    193        -17.934084   1.000000
    194        -17.929286   1.000000
    195        -17.925649   1.000000
    196        -17.917612   1.000000
    197        -17.913436   1.000000
    198        -17.911715   1.000000
    199        -17.910123   1.000000
    200        -17.905116   1.000000
    201        -17.900275   1.000000
    202        -17.898257   1.000000
    203        -17.893201   1.000000
    204        -17.891509   1.000000
    205        -17.890392   1.000000
    206        -17.888200   1.000000
    207        -17.886576   1.000000
    208        -17.885195   1.000000
    209        -17.876450   1.000000
    210        -17.869997   1.000000
    211        -17.863507   1.000000
    212        -17.857904   1.000000
    213        -17.854582   1.000000
    214        -17.852095   1.000000
    215        -17.836983   1.000000
    216        -17.835180   1.000000
    217        -17.833558   1.000000
    218        -17.829332   1.000000
    219        -17.826696   1.000000
    220        -17.820795   1.000000
    221        -17.816725   1.000000
    222        -17.814183   1.000000
    223        -17.806988   1.000000
    224        -17.797013   1.000000
    225        -17.786731   1.000000
    226        -17.775720   1.000000
    227        -17.774656   1.000000
    228        -17.771205   1.000000
    229        -17.769051   1.000000
    230        -17.767040   1.000000
    231        -17.764106   1.000000
    232        -17.763053   1.000000
    233        -17.757784   1.000000
    234        -17.756769   1.000000
    235        -17.752323   1.000000
    236        -17.750662   1.000000
    237        -17.747883   1.000000
    238        -17.745059   1.000000
    239        -17.742441   1.000000
    240        -17.739915   1.000000
    241        -17.737912   1.000000
    242        -17.734521   1.000000
    243        -17.731820   1.000000
    244        -17.730585   1.000000
    245        -17.729403   1.000000
    246        -17.727483   1.000000
    247        -17.724792   1.000000
    248        -17.723168   1.000000
    249        -17.722675   1.000000
    250        -17.721667   1.000000
    251        -17.720439   1.000000
    252        -17.719338   1.000000
    253        -17.719042   1.000000
    254        -17.716351   1.000000
    255        -17.714913   1.000000
    256        -17.713462   1.000000
    257        -17.711987   1.000000
    258        -17.711002   1.000000
    259        -17.709807   1.000000
    260        -17.707837   1.000000
    261        -17.704290   1.000000
    262        -17.703214   1.000000
    263        -17.702182   1.000000
    264        -17.698182   1.000000
    265        -17.696153   1.000000
    266        -17.689959   1.000000
    267        -17.684809   1.000000
    268        -17.683720   1.000000
    269        -17.683299   1.000000
    270        -17.679346   1.000000
    271        -17.678684   1.000000
    272        -17.676587   1.000000
    273        -17.675544   1.000000
    274        -17.671889   1.000000
    275        -17.669783   1.000000
    276        -17.668511   1.000000
    277        -17.667500   1.000000
    278        -17.666149   1.000000
    279        -17.664055   1.000000
    280        -17.663016   1.000000
    281        -17.653762   1.000000
    282        -17.652222   1.000000
    283        -17.650226   1.000000
    284        -17.646116   1.000000
    285        -17.641584   1.000000
    286        -17.641233   1.000000
    287        -17.638180   1.000000
    288        -17.635015   1.000000
    289        -17.632674   1.000000
    290        -17.628281   1.000000
    291        -17.626431   1.000000
    292        -17.625090   1.000000
    293        -17.624350   1.000000
    294        -17.623203   1.000000
    295        -17.622377   1.000000
    296        -17.621197   1.000000
    297        -17.620296   1.000000
    298        -17.619423   1.000000
    299        -17.618235   1.000000
    300        -17.617000   1.000000
    301        -17.614608   1.000000
    302        -17.613036   1.000000
    303        -17.612206   1.000000
    304        -17.611349   1.000000
    305        -17.611154   1.000000
    306        -17.610280   1.000000
    307        -17.610134   1.000000
    308        -17.607339   1.000000
    309        -17.604735   1.000000
    310        -17.602265   1.000000
    311        -17.600989   1.000000
    312        -17.599256   1.000000
    313        -17.595555   1.000000
    314        -17.594289   1.000000
    315        -17.593356   1.000000
    316        -17.592701   1.000000
    317        -17.590984   1.000000
    318        -17.590518   1.000000
    319        -17.589464   1.000000
    320        -17.588265   1.000000
    321        -17.586875   1.000000
    322        -17.585439   1.000000
    323        -17.584621   1.000000
    324        -17.583850   1.000000
    325        -17.583138   1.000000
    326        -17.582256   1.000000
    327        -17.581110   1.000000
    328        -17.580812   1.000000
    329        -17.580546   1.000000
    330        -17.580219   1.000000
    331        -17.579353   1.000000
    332        -17.578737   1.000000
    333        -17.578065   1.000000
    334        -17.576739   1.000000
    335        -17.575083   1.000000
    336        -17.574140   1.000000
    337        -17.573098   1.000000
    338        -17.571281   1.000000
    339        -17.570567   1.000000
    340        -17.568047   1.000000
    341        -17.565973   1.000000
    342        -17.564415   1.000000
    343        -17.563656   1.000000
    344        -17.561262   1.000000
    345        -17.560424   1.000000
    346        -17.553757   1.000000
    347        -17.553379   1.000000
    348        -17.552065   1.000000
    349        -17.550582   1.000000
    350        -17.543875   1.000000
    351        -17.541944   1.000000
    352        -17.541047   1.000000
    353        -17.539440   1.000000
    354        -17.537636   1.000000
    355        -17.536156   1.000000
    356        -17.535033   1.000000
    357        -17.532974   1.000000
    358        -17.532507   1.000000
    359        -17.528913   1.000000
    360        -17.527224   1.000000
    361        -17.525701   1.000000
    362        -17.521321   1.000000
    363        -17.520033   1.000000
    364        -17.519182   1.000000
    365        -17.517593   1.000000
    366        -17.516015   1.000000
    367        -17.515406   1.000000
    368        -17.514966   1.000000
    369        -17.513104   1.000000
    370        -17.509630   1.000000
    371        -17.508706   1.000000
    372        -17.492130   1.000000
    373        -17.488074   1.000000
    374        -17.485869   1.000000
    375        -17.472713   1.000000
    376        -17.469446   1.000000
    377        -17.467070   1.000000
    378        -17.464952   1.000000
    379        -17.461702   1.000000
    380        -17.454471   1.000000
    381        -17.451924   1.000000
    382        -17.447146   1.000000
    383        -17.447020   1.000000
    384        -17.434550   1.000000
    385          2.481822   1.000000
    386          3.759369   1.000000
    387          4.026639   1.000000
    388          4.116054   1.000000
    389          4.199187   1.000000
    390          4.380265   1.000000
    391          4.480627   1.000000
    392          5.008187   1.000000
    393          5.151144   1.000000
    394          5.182522   1.000000
    395          5.312861   1.000000
    396          5.319463   1.000000
    397          5.333081   1.000000
    398          5.399593   1.000000
    399          5.563612   1.000000
    400          5.742845   1.000000
    401          5.790209   1.000000
    402          5.797919   1.000000
    403          5.818426   1.000000
    404          5.829452   1.000000
    405          5.857947   1.000000
    406          5.862799   1.000000
    407          5.910831   1.000000
    408          6.001175   1.000000
    409          6.005452   1.000000
    410          6.009012   1.000000
    411          6.035462   1.000000
    412          6.106536   1.000000
    413          6.107849   1.000000
    414          6.113867   1.000000
    415          6.116812   1.000000
    416          6.126804   1.000000
    417          6.133002   1.000000
    418          6.155846   1.000000
    419          6.159978   1.000000
    420          6.186288   1.000000
    421          6.208692   1.000000
    422          6.213215   1.000000
    423          6.229619   1.000000
    424          6.269737   1.000000
    425          6.290787   1.000000
    426          6.309357   1.000000
    427          6.312912   1.000000
    428          6.318724   1.000000
    429          6.336191   1.000000
    430          6.356107   1.000000
    431          6.396302   1.000000
    432          6.403538   1.000000
    433          6.440273   1.000000
    434          6.453533   1.000000
    435          6.468492   1.000000
    436          6.498207   1.000000
    437          6.516809   1.000000
    438          6.518656   1.000000
    439          6.528137   1.000000
    440          6.534254   1.000000
    441          6.542471   1.000000
    442          6.546517   1.000000
    443          6.560521   1.000000
    444          6.585528   1.000000
    445          6.594092   1.000000
    446          6.622046   1.000000
    447          6.640950   1.000000
    448          6.669730   1.000000
    449          6.674530   1.000000
    450          6.686776   1.000000
    451          6.696623   1.000000
    452          6.701228   1.000000
    453          6.745310   1.000000
    454          6.791102   1.000000
    455          6.809437   1.000000
    456          6.814712   1.000000
    457          6.841142   1.000000
    458          6.900881   1.000000
    459          6.906521   1.000000
    460          6.910416   1.000000
    461          6.924463   1.000000
    462          6.954524   1.000000
    463          7.003082   1.000000
    464          7.004331   1.000000
    465          7.016457   1.000000
    466          7.045808   1.000000
    467          7.059123   1.000000
    468          7.122495   1.000000
    469          7.136361   1.000000
    470          7.197904   1.000000
    471          7.200263   1.000000
    472          7.205546   1.000000
    473          7.207108   1.000000
    474          7.218129   1.000000
    475          7.225583   1.000000
    476          7.239780   1.000000
    477          7.254701   1.000000
    478          7.261155   1.000000
    479          7.271334   1.000000
    480          7.280294   1.000000
    481          7.295476   1.000000
    482          7.306891   1.000000
    483          7.308865   1.000000
    484          7.335120   1.000000
    485          7.337682   1.000000
    486          7.357062   1.000000
    487          7.363227   1.000000
    488          7.389572   1.000000
    489          7.406813   1.000000
    490          7.416111   1.000000
    491          7.428420   1.000000
    492          7.445551   1.000000
    493          7.460645   1.000000
    494          7.483188   1.000000
    495          7.489073   1.000000
    496          7.543935   1.000000
    497          7.587110   1.000000
    498          7.591426   1.000000
    499          7.618811   1.000000
    500          7.640124   1.000000
    501          7.659679   1.000000
    502          7.694250   1.000000
    503          7.724458   1.000000
    504          7.760902   1.000000
    505          7.785021   1.000000
    506          7.789412   1.000000
    507          7.793298   1.000000
    508          7.794409   1.000000
    509          7.804635   1.000000
    510          7.820739   1.000000
    511          7.835871   1.000000
    512          7.853494   1.000000
    513          7.865106   1.000000
    514          7.867670   1.000000
    515          7.885484   1.000000
    516          7.918644   1.000000
    517          7.925835   1.000000
    518          7.933868   1.000000
    519          7.945001   1.000000
    520          7.952012   1.000000
    521          7.966930   1.000000
    522          7.979435   1.000000
    523          8.004731   1.000000
    524          8.029292   1.000000
    525          8.036709   1.000000
    526          8.056676   1.000000
    527          8.080833   1.000000
    528          8.101016   1.000000
    529          8.109362   1.000000
    530          8.122059   1.000000
    531          8.129527   1.000000
    532          8.134130   1.000000
    533          8.137696   1.000000
    534          8.143331   1.000000
    535          8.163847   1.000000
    536          8.189356   1.000000
    537          8.201325   1.000001
    538          8.210250   1.000001
    539          8.212142   1.000001
    540          8.231402   1.000002
    541          8.237053   1.000002
    542          8.243342   1.000003
    543          8.244463   1.000003
    544          8.253553   1.000004
    545          8.261600   1.000005
    546          8.271409   1.000007
    547          8.288132   1.000012
    548          8.305264   1.000020
    549          8.306118   1.000021
    550          8.312132   1.000025
    551          8.319183   1.000031
    552          8.331524   1.000044
    553          8.336882   1.000052
    554          8.345155   1.000066
    555          8.347693   1.000071
    556          8.350467   1.000076
    557          8.353114   1.000082
    558          8.355112   1.000087
    559          8.359119   1.000097
    560          8.366121   1.000118
    561          8.390076   1.000225
    562          8.395313   1.000258
    563          8.586146   1.012325
    564          8.624006   1.019958
    565          8.632248   1.021828
    566          8.702443   1.035082
    567          8.710599   1.035442
    568          8.786007   1.003449
    569          8.790677   0.998406
    570          8.816337   0.962096
    571          8.842187   0.909508
    572          8.851061   0.887580
    573          8.864942   0.849337
    574          8.869799   0.834848
    575          8.872864   0.825419
    576          8.878980   0.805954
    577          8.927394   0.626296
    578          8.936939   0.586998
    579          9.015726   0.265265
    580          9.024441   0.233998
    581          9.029626   0.216112
    582          9.037970   0.188528
    583          9.042429   0.174426
    584          9.080367   0.073922
    585          9.095448   0.043979
    586          9.118179   0.009243
    587          9.163582  -0.027950
    588          9.171542  -0.030924
    589          9.189399  -0.034728
    590          9.204538  -0.035443
    591          9.222488  -0.034128
    592          9.235051  -0.032232
    593          9.240643  -0.031207
    594          9.247054  -0.029929
    595          9.259596  -0.027209
    596          9.276039  -0.023432
    597          9.282105  -0.022032
    598          9.295272  -0.019062
    599          9.297166  -0.018647
    600          9.299801  -0.018075
    601          9.309368  -0.016067
    602          9.311104  -0.015715
    603          9.316604  -0.014628
    604          9.318561  -0.014252
    605          9.322074  -0.013590
    606          9.327968  -0.012524
    607          9.332079  -0.011812
    608          9.342104  -0.010189
    609          9.345960  -0.009608
    610          9.353307  -0.008567
    611          9.376038  -0.005871
    612          9.416149  -0.002780
    613          9.419886  -0.002580
    614          9.461980  -0.001050
    615          9.480594  -0.000683
    616          9.485911  -0.000601
    617          9.501152  -0.000415
    618          9.507075  -0.000358
    619          9.508969  -0.000341
    620          9.517094  -0.000277
    621          9.527495  -0.000211
    622          9.531947  -0.000188
    623          9.551998  -0.000109
    624          9.558976  -0.000090
    625          9.571564  -0.000063
    626          9.577919  -0.000052
    627          9.585104  -0.000042
    628          9.588627  -0.000038
    629          9.598491  -0.000028
    630          9.608097  -0.000021
    631          9.616242  -0.000017
    632          9.619422  -0.000015
    633          9.623046  -0.000013
    634          9.636828  -0.000009
    635          9.663346  -0.000004
    636          9.686294  -0.000002
    637          9.698112  -0.000001
    638          9.712778  -0.000001
    639          9.724428  -0.000000
    640          9.739313  -0.000000
    641          9.750698  -0.000000
    642          9.759992  -0.000000
    643          9.765931  -0.000000
    644          9.786132  -0.000000
    645          9.796726  -0.000000
    646          9.806520  -0.000000
    647          9.813041  -0.000000
    648          9.830669  -0.000000
    649          9.841446  -0.000000
    650          9.856548  -0.000000
    651          9.877073  -0.000000
    652          9.880956  -0.000000
    653          9.883642  -0.000000
    654          9.898016  -0.000000
    655          9.900305  -0.000000
    656          9.908016  -0.000000
    657          9.919227  -0.000000
    658          9.924610  -0.000000
    659          9.943843  -0.000000
    660          9.953839  -0.000000
    661          9.963275  -0.000000
    662          9.994842  -0.000000
    663         10.005720  -0.000000
    664         10.021071  -0.000000
    665         10.031339  -0.000000
    666         10.040942  -0.000000
    667         10.046489  -0.000000
    668         10.063423  -0.000000
    669         10.067728  -0.000000
    670         10.070729  -0.000000
    671         10.077921  -0.000000
    672         10.082760  -0.000000
    673         10.086737  -0.000000
    674         10.098444  -0.000000
    675         10.102510  -0.000000
    676         10.113678  -0.000000
    677         10.118824  -0.000000
    678         10.123494  -0.000000
    679         10.130827  -0.000000
    680         10.136481  -0.000000
    681         10.139476  -0.000000
    682         10.147586  -0.000000
    683         10.161977  -0.000000
    684         10.168100  -0.000000
    685         10.169955  -0.000000
    686         10.175257  -0.000000
    687         10.178094  -0.000000
    688         10.189115  -0.000000
    689         10.191768  -0.000000
    690         10.196724  -0.000000
    691         10.206152  -0.000000
 
 -0.2500000E+00  0.5000000E+00  0.3333333E+00  0.4166667E-01
      1        -39.913092   1.000000
      2        -39.892707   1.000000
      3        -39.878724   1.000000
      4        -39.869660   1.000000
      5        -39.868280   1.000000
      6        -39.858628   1.000000
      7        -39.855834   1.000000
      8        -39.849835   1.000000
      9        -39.840141   1.000000
     10        -39.836394   1.000000
     11        -39.826240   1.000000
     12        -39.825382   1.000000
     13        -39.824469   1.000000
     14        -39.820338   1.000000
     15        -39.816059   1.000000
     16        -39.814572   1.000000
     17        -39.806403   1.000000
     18        -39.804004   1.000000
     19        -39.801801   1.000000
     20        -39.798657   1.000000
     21        -39.797454   1.000000
     22        -39.795401   1.000000
     23        -39.793936   1.000000
     24        -39.793263   1.000000
     25        -39.789712   1.000000
     26        -39.787742   1.000000
     27        -39.784712   1.000000
     28        -39.782694   1.000000
     29        -39.781511   1.000000
     30        -39.780973   1.000000
     31        -39.778062   1.000000
     32        -39.776928   1.000000
     33        -39.774832   1.000000
     34        -39.774427   1.000000
     35        -39.772963   1.000000
     36        -39.770184   1.000000
     37        -39.769300   1.000000
     38        -39.768603   1.000000
     39        -39.766832   1.000000
     40        -39.762845   1.000000
     41        -39.762153   1.000000
     42        -39.761234   1.000000
     43        -39.759623   1.000000
     44        -39.758324   1.000000
     45        -39.757180   1.000000
     46        -39.755981   1.000000
     47        -39.755485   1.000000
     48        -39.754878   1.000000
     49        -39.753560   1.000000
     50        -39.753037   1.000000
     51        -39.752461   1.000000
     52        -39.751686   1.000000
     53        -39.750618   1.000000
     54        -39.750128   1.000000
     55        -39.748720   1.000000
     56        -39.748323   1.000000
     57        -39.747101   1.000000
     58        -39.745714   1.000000
     59        -39.744524   1.000000
     60        -39.744310   1.000000
     61        -39.743429   1.000000
     62        -39.741578   1.000000
     63        -39.740528   1.000000
     64        -39.739307   1.000000
     65        -39.738505   1.000000
     66        -39.737768   1.000000
     67        -39.737392   1.000000
     68        -39.736422   1.000000
     69        -39.735522   1.000000
     70        -39.734541   1.000000
     71        -39.734252   1.000000
     72        -39.733466   1.000000
     73        -39.732040   1.000000
     74        -39.730586   1.000000
     75        -39.729734   1.000000
     76        -39.728502   1.000000
     77        -39.728289   1.000000
     78        -39.727526   1.000000
     79        -39.726919   1.000000
     80        -39.726262   1.000000
     81        -39.724746   1.000000
     82        -39.724420   1.000000
     83        -39.724065   1.000000
     84        -39.723029   1.000000
     85        -39.722423   1.000000
     86        -39.721955   1.000000
     87        -39.721612   1.000000
     88        -39.721117   1.000000
     89        -39.720689   1.000000
     90        -39.719143   1.000000
     91        -39.713535   1.000000
     92        -39.713033   1.000000
     93        -39.706171   1.000000
     94        -39.705993   1.000000
     95        -39.703094   1.000000
     96        -39.700719   1.000000
     97        -18.358327   1.000000
     98        -18.323200   1.000000
     99        -18.315371   1.000000
    100        -18.313387   1.000000
    101        -18.293241   1.000000
    102        -18.284785   1.000000
    103        -18.278781   1.000000
    104        -18.276010   1.000000
    105        -18.270964   1.000000
    106        -18.267248   1.000000
    107        -18.264667   1.000000
    108        -18.260203   1.000000
    109        -18.257435   1.000000
    110        -18.256417   1.000000
    111        -18.252117   1.000000
    112        -18.250949   1.000000
    113        -18.244552   1.000000
    114        -18.239655   1.000000
    115        -18.237348   1.000000
    116        -18.235434   1.000000
    117        -18.233049   1.000000
    118        -18.230899   1.000000
    119        -18.230324   1.000000
    120        -18.228834   1.000000
    121        -18.224363   1.000000
    122        -18.221835   1.000000
    123        -18.219047   1.000000
    124        -18.218434   1.000000
    125        -18.216636   1.000000
    126        -18.214874   1.000000
    127        -18.213249   1.000000
    128        -18.212589   1.000000
    129        -18.210318   1.000000
    130        -18.208637   1.000000
    131        -18.203497   1.000000
    132        -18.199659   1.000000
    133        -18.197362   1.000000
    134        -18.195519   1.000000
    135        -18.194818   1.000000
    136        -18.193605   1.000000
    137        -18.190086   1.000000
    138        -18.187606   1.000000
    139        -18.180934   1.000000
    140        -18.176015   1.000000
    141        -18.173403   1.000000
    142        -18.172547   1.000000
    143        -18.168325   1.000000
    144        -18.167255   1.000000
    145        -18.165655   1.000000
    146        -18.161157   1.000000
    147        -18.156364   1.000000
    148        -18.144909   1.000000
    149        -18.126635   1.000000
    150        -18.121902   1.000000
    151        -18.119997   1.000000
    152        -18.115802   1.000000
    153        -18.113532   1.000000
    154        -18.113188   1.000000
    155        -18.112287   1.000000
    156        -18.110665   1.000000
    157        -18.109688   1.000000
    158        -18.108927   1.000000
    159        -18.092516   1.000000
    160        -18.086918   1.000000
    161        -18.080302   1.000000
    162        -18.066181   1.000000
    163        -18.061916   1.000000
    164        -18.056115   1.000000
    165        -18.053637   1.000000
    166        -18.052108   1.000000
    167        -18.049837   1.000000
    168        -18.048359   1.000000
    169        -18.046900   1.000000
    170        -18.044833   1.000000
    171        -18.042853   1.000000
    172        -18.041327   1.000000
    173        -18.039237   1.000000
    174        -18.036278   1.000000
    175        -18.034421   1.000000
    176        -18.031131   1.000000
    177        -18.029998   1.000000
    178        -18.027594   1.000000
    179        -18.008065   1.000000
    180        -17.988244   1.000000
    181        -17.987305   1.000000
    182        -17.982169   1.000000
    183        -17.981243   1.000000
    184        -17.973631   1.000000
    185        -17.967994   1.000000
    186        -17.966382   1.000000
    187        -17.960068   1.000000
    188        -17.953540   1.000000
    189        -17.944080   1.000000
    190        -17.942103   1.000000
    191        -17.941298   1.000000
    192        -17.935256   1.000000
    193        -17.934108   1.000000
    194        -17.929359   1.000000
    195        -17.925582   1.000000
    196        -17.917558   1.000000
    197        -17.913421   1.000000
    198        -17.911754   1.000000
    199        -17.910107   1.000000
    200        -17.905178   1.000000
    201        -17.900282   1.000000
    202        -17.898375   1.000000
    203        -17.893142   1.000000
    204        -17.891497   1.000000
    205        -17.890377   1.000000
    206        -17.888163   1.000000
    207        -17.886426   1.000000
    208        -17.885289   1.000000
    209        -17.876460   1.000000
    210        -17.869992   1.000000
    211        -17.863541   1.000000
    212        -17.857893   1.000000
    213        -17.854518   1.000000
    214        -17.852233   1.000000
    215        -17.836961   1.000000
    216        -17.835163   1.000000
    217        -17.833557   1.000000
    218        -17.829337   1.000000
    219        -17.826608   1.000000
    220        -17.820818   1.000000
    221        -17.816745   1.000000
    222        -17.814199   1.000000
    223        -17.807083   1.000000
    224        -17.796971   1.000000
    225        -17.786711   1.000000
    226        -17.775571   1.000000
    227        -17.774634   1.000000
    228        -17.771232   1.000000
    229        -17.769044   1.000000
    230        -17.767046   1.000000
    231        -17.764171   1.000000
    232        -17.763178   1.000000
    233        -17.757842   1.000000
    234        -17.756734   1.000000
    235        -17.752263   1.000000
    236        -17.750680   1.000000
    237        -17.747830   1.000000
    238        -17.744987   1.000000
    239        -17.742437   1.000000
    240        -17.739863   1.000000
    241        -17.737897   1.000000
    242        -17.734555   1.000000
    243        -17.731849   1.000000
    244        -17.730592   1.000000
    245        -17.729355   1.000000
    246        -17.727577   1.000000
    247        -17.724795   1.000000
    248        -17.723313   1.000000
    249        -17.722819   1.000000
    250        -17.721626   1.000000
    251        -17.720432   1.000000
    252        -17.719363   1.000000
    253        -17.719080   1.000000
    254        -17.716256   1.000000
    255        -17.714806   1.000000
    256        -17.713476   1.000000
    257        -17.712047   1.000000
    258        -17.710897   1.000000
    259        -17.709782   1.000000
    260        -17.707877   1.000000
    261        -17.704414   1.000000
    262        -17.703128   1.000000
    263        -17.702189   1.000000
    264        -17.698179   1.000000
    265        -17.696094   1.000000
    266        -17.689797   1.000000
    267        -17.684800   1.000000
    268        -17.683762   1.000000
    269        -17.683206   1.000000
    270        -17.679354   1.000000
    271        -17.678747   1.000000
    272        -17.676639   1.000000
    273        -17.675508   1.000000
    274        -17.671851   1.000000
    275        -17.669797   1.000000
    276        -17.668516   1.000000
    277        -17.667544   1.000000
    278        -17.666061   1.000000
    279        -17.664059   1.000000
    280        -17.663038   1.000000
    281        -17.653788   1.000000
    282        -17.652307   1.000000
    283        -17.650158   1.000000
    284        -17.646105   1.000000
    285        -17.641575   1.000000
    286        -17.641309   1.000000
    287        -17.638202   1.000000
    288        -17.635021   1.000000
    289        -17.632595   1.000000
    290        -17.628397   1.000000
    291        -17.626495   1.000000
    292        -17.625094   1.000000
    293        -17.624367   1.000000
    294        -17.623192   1.000000
    295        -17.622355   1.000000
    296        -17.621125   1.000000
    297        -17.620306   1.000000
    298        -17.619325   1.000000
    299        -17.618280   1.000000
    300        -17.616977   1.000000
    301        -17.614541   1.000000
    302        -17.613047   1.000000
    303        -17.612233   1.000000
    304        -17.611344   1.000000
    305        -17.611157   1.000000
    306        -17.610387   1.000000
    307        -17.610071   1.000000
    308        -17.607292   1.000000
    309        -17.604736   1.000000
    310        -17.602330   1.000000
    311        -17.600836   1.000000
    312        -17.599346   1.000000
    313        -17.595655   1.000000
    314        -17.594334   1.000000
    315        -17.593254   1.000000
    316        -17.592717   1.000000
    317        -17.590956   1.000000
    318        -17.590584   1.000000
    319        -17.589408   1.000000
    320        -17.588250   1.000000
    321        -17.586954   1.000000
    322        -17.585560   1.000000
    323        -17.584514   1.000000
    324        -17.583843   1.000000
    325        -17.583033   1.000000
    326        -17.582261   1.000000
    327        -17.581094   1.000000
    328        -17.580841   1.000000
    329        -17.580524   1.000000
    330        -17.580227   1.000000
    331        -17.579373   1.000000
    332        -17.578642   1.000000
    333        -17.578058   1.000000
    334        -17.576708   1.000000
    335        -17.575175   1.000000
    336        -17.574107   1.000000
    337        -17.573100   1.000000
    338        -17.571157   1.000000
    339        -17.570546   1.000000
    340        -17.568040   1.000000
    341        -17.566005   1.000000
    342        -17.564437   1.000000
    343        -17.563724   1.000000
    344        -17.561286   1.000000
    345        -17.560538   1.000000
    346        -17.553769   1.000000
    347        -17.553384   1.000000
    348        -17.552081   1.000000
    349        -17.550609   1.000000
    350        -17.543766   1.000000
    351        -17.541920   1.000000
    352        -17.541044   1.000000
    353        -17.539562   1.000000
    354        -17.537652   1.000000
    355        -17.536109   1.000000
    356        -17.534980   1.000000
    357        -17.532937   1.000000
    358        -17.532537   1.000000
    359        -17.529014   1.000000
    360        -17.527203   1.000000
    361        -17.525612   1.000000
    362        -17.521347   1.000000
    363        -17.520091   1.000000
    364        -17.519165   1.000000
    365        -17.517573   1.000000
    366        -17.516051   1.000000
    367        -17.515321   1.000000
    368        -17.514986   1.000000
    369        -17.513131   1.000000
    370        -17.509599   1.000000
    371        -17.508773   1.000000
    372        -17.492092   1.000000
    373        -17.488005   1.000000
    374        -17.485910   1.000000
    375        -17.472648   1.000000
    376        -17.469432   1.000000
    377        -17.467235   1.000000
    378        -17.464981   1.000000
    379        -17.461656   1.000000
    380        -17.454423   1.000000
    381        -17.452047   1.000000
    382        -17.447068   1.000000
    383        -17.447008   1.000000
    384        -17.434524   1.000000
    385          2.481827   1.000000
    386          3.759348   1.000000
    387          4.026605   1.000000
    388          4.116159   1.000000
    389          4.199107   1.000000
    390          4.380362   1.000000
    391          4.480560   1.000000
    392          5.008182   1.000000
    393          5.151140   1.000000
    394          5.182516   1.000000
    395          5.312953   1.000000
    396          5.319459   1.000000
    397          5.333068   1.000000
    398          5.399555   1.000000
    399          5.563605   1.000000
    400          5.742699   1.000000
    401          5.790263   1.000000
    402          5.797859   1.000000
    403          5.818425   1.000000
    404          5.829311   1.000000
    405          5.857976   1.000000
    406          5.862879   1.000000
    407          5.910940   1.000000
    408          6.001108   1.000000
    409          6.005553   1.000000
    410          6.008971   1.000000
    411          6.035497   1.000000
    412          6.106522   1.000000
    413          6.107763   1.000000
    414          6.113881   1.000000
    415          6.116862   1.000000
    416          6.126847   1.000000
    417          6.133019   1.000000
    418          6.155903   1.000000
    419          6.159892   1.000000
    420          6.186517   1.000000
    421          6.208754   1.000000
    422          6.213063   1.000000
    423          6.229636   1.000000
    424          6.269977   1.000000
    425          6.290483   1.000000
    426          6.309282   1.000000
    427          6.312895   1.000000
    428          6.318713   1.000000
    429          6.336194   1.000000
    430          6.356081   1.000000
    431          6.396356   1.000000
    432          6.403609   1.000000
    433          6.440175   1.000000
    434          6.453569   1.000000
    435          6.468393   1.000000
    436          6.498277   1.000000
    437          6.516801   1.000000
    438          6.518615   1.000000
    439          6.528240   1.000000
    440          6.534150   1.000000
    441          6.542480   1.000000
    442          6.546394   1.000000
    443          6.560688   1.000000
    444          6.585573   1.000000
    445          6.594076   1.000000
    446          6.622213   1.000000
    447          6.640883   1.000000
    448          6.669630   1.000000
    449          6.674357   1.000000
    450          6.686742   1.000000
    451          6.696615   1.000000
    452          6.701280   1.000000
    453          6.745363   1.000000
    454          6.791024   1.000000
    455          6.809639   1.000000
    456          6.814618   1.000000
    457          6.841080   1.000000
    458          6.901035   1.000000
    459          6.906393   1.000000
    460          6.910464   1.000000
    461          6.924494   1.000000
    462          6.954582   1.000000
    463          7.003025   1.000000
    464          7.004306   1.000000
    465          7.016618   1.000000
    466          7.045795   1.000000
    467          7.059304   1.000000
    468          7.122460   1.000000
    469          7.136330   1.000000
    470          7.197878   1.000000
    471          7.200227   1.000000
    472          7.205617   1.000000
    473          7.206905   1.000000
    474          7.218313   1.000000
    475          7.225568   1.000000
    476          7.239816   1.000000
    477          7.254559   1.000000
    478          7.261091   1.000000
    479          7.271360   1.000000
    480          7.280279   1.000000
    481          7.295686   1.000000
    482          7.306835   1.000000
    483          7.308949   1.000000
    484          7.334949   1.000000
    485          7.337879   1.000000
    486          7.356811   1.000000
    487          7.363096   1.000000
    488          7.389633   1.000000
    489          7.407129   1.000000
    490          7.416256   1.000000
    491          7.428318   1.000000
    492          7.445311   1.000000
    493          7.460596   1.000000
    494          7.483204   1.000000
    495          7.489041   1.000000
    496          7.543784   1.000000
    497          7.586950   1.000000
    498          7.591569   1.000000
    499          7.618975   1.000000
    500          7.640051   1.000000
    501          7.659580   1.000000
    502          7.694054   1.000000
    503          7.724498   1.000000
    504          7.760719   1.000000
    505          7.785393   1.000000
    506          7.789664   1.000000
    507          7.793187   1.000000
    508          7.794386   1.000000
    509          7.804830   1.000000
    510          7.820625   1.000000
    511          7.835947   1.000000
    512          7.853495   1.000000
    513          7.865124   1.000000
    514          7.867535   1.000000
    515          7.885140   1.000000
    516          7.918861   1.000000
    517          7.925898   1.000000
    518          7.934016   1.000000
    519          7.944962   1.000000
    520          7.952081   1.000000
    521          7.966537   1.000000
    522          7.979500   1.000000
    523          8.005177   1.000000
    524          8.029441   1.000000
    525          8.036513   1.000000
    526          8.056523   1.000000
    527          8.080639   1.000000
    528          8.100882   1.000000
    529          8.109349   1.000000
    530          8.122067   1.000000
    531          8.129519   1.000000
    532          8.134166   1.000000
    533          8.137652   1.000000
    534          8.143404   1.000000
    535          8.163869   1.000000
    536          8.189269   1.000000
    537          8.201323   1.000001
    538          8.209983   1.000001
    539          8.212478   1.000001
    540          8.231567   1.000002
    541          8.236968   1.000002
    542          8.243121   1.000003
    543          8.244373   1.000003
    544          8.253527   1.000004
    545          8.261601   1.000005
    546          8.271585   1.000007
    547          8.288098   1.000012
    548          8.305712   1.000020
    549          8.306053   1.000021
    550          8.312286   1.000025
    551          8.319083   1.000031
    552          8.331627   1.000044
    553          8.336937   1.000052
    554          8.345204   1.000066
    555          8.348038   1.000071
    556          8.350200   1.000076
    557          8.353163   1.000082
    558          8.354905   1.000087
    559          8.358983   1.000097
    560          8.366004   1.000118
    561          8.389970   1.000224
    562          8.395450   1.000259
    563          8.586104   1.012318
    564          8.623717   1.019894
    565          8.632533   1.021893
    566          8.702371   1.035077
    567          8.710568   1.035441
    568          8.786384   1.003059
    569          8.790527   0.998574
    570          8.816662   0.961537
    571          8.842225   0.909420
    572          8.851058   0.887586
    573          8.864527   0.850549
    574          8.869938   0.834425
    575          8.872726   0.825848
    576          8.878691   0.806892
    577          8.927575   0.625561
    578          8.937023   0.586651
    579          9.015828   0.264891
    580          9.024555   0.233598
    581          9.029908   0.215155
    582          9.037786   0.189122
    583          9.042286   0.174871
    584          9.080658   0.073289
    585          9.095207   0.044413
    586          9.118175   0.009248
    587          9.164055  -0.028152
    588          9.171280  -0.030840
    589          9.189413  -0.034730
    590          9.204261  -0.035447
    591          9.222687  -0.034103
    592          9.235031  -0.032235
    593          9.240528  -0.031229
    594          9.247214  -0.029896
    595          9.259647  -0.027198
    596          9.276203  -0.023394
    597          9.281947  -0.022069
    598          9.294986  -0.019125
    599          9.297210  -0.018637
    600          9.299649  -0.018108
    601          9.309161  -0.016109
    602          9.311415  -0.015652
    603          9.315996  -0.014746
    604          9.318249  -0.014311
    605          9.322189  -0.013569
    606          9.328435  -0.012441
    607          9.331852  -0.011850
    608          9.342491  -0.010129
    609          9.345848  -0.009624
    610          9.353737  -0.008508
    611          9.375752  -0.005900
    612          9.416176  -0.002779
    613          9.420138  -0.002567
    614          9.462097  -0.001047
    615          9.480388  -0.000686
    616          9.485786  -0.000603
    617          9.501090  -0.000415
    618          9.506738  -0.000361
    619          9.508662  -0.000344
    620          9.517621  -0.000273
    621          9.527786  -0.000210
    622          9.531978  -0.000188
    623          9.551320  -0.000111
    624          9.559335  -0.000089
    625          9.571749  -0.000063
    626          9.577710  -0.000053
    627          9.585387  -0.000042
    628          9.588326  -0.000039
    629          9.598668  -0.000028
    630          9.607927  -0.000021
    631          9.616545  -0.000016
    632          9.619072  -0.000015
    633          9.623050  -0.000013
    634          9.637083  -0.000009
    635          9.663308  -0.000004
    636          9.686198  -0.000002
    637          9.698171  -0.000001
    638          9.713112  -0.000001
    639          9.724303  -0.000000
    640          9.739484  -0.000000
    641          9.750596  -0.000000
    642          9.759981  -0.000000
    643          9.766145  -0.000000
    644          9.786168  -0.000000
    645          9.797024  -0.000000
    646          9.806401  -0.000000
    647          9.812792  -0.000000
    648          9.830271  -0.000000
    649          9.841402  -0.000000
    650          9.856407  -0.000000
    651          9.877378  -0.000000
    652          9.880915  -0.000000
    653          9.883574  -0.000000
    654          9.897584  -0.000000
    655          9.900198  -0.000000
    656          9.907933  -0.000000
    657          9.919296  -0.000000
    658          9.925023  -0.000000
    659          9.944048  -0.000000
    660          9.953601  -0.000000
    661          9.963094  -0.000000
    662          9.995122  -0.000000
    663         10.005656  -0.000000
    664         10.021117  -0.000000
    665         10.031309  -0.000000
    666         10.040669  -0.000000
    667         10.046254  -0.000000
    668         10.063445  -0.000000
    669         10.067697  -0.000000
    670         10.070494  -0.000000
    671         10.078244  -0.000000
    672         10.082788  -0.000000
    673         10.086752  -0.000000
    674         10.098377  -0.000000
    675         10.102471  -0.000000
    676         10.114027  -0.000000
    677         10.118607  -0.000000
    678         10.123381  -0.000000
    679         10.130715  -0.000000
    680         10.136875  -0.000000
    681         10.139423  -0.000000
    682         10.147780  -0.000000
    683         10.161460  -0.000000
    684         10.168104  -0.000000
    685         10.169899  -0.000000
    686         10.175413  -0.000000
    687         10.178286  -0.000000
    688         10.189249  -0.000000
    689         10.191681  -0.000000
    690         10.196590  -0.000000
    691         10.209209  -0.000000
 
  0.5000000E+00  0.2500000E+00  0.3333333E+00  0.4166667E-01
      1        -39.913087   1.000000
      2        -39.892701   1.000000
      3        -39.878830   1.000000
      4        -39.869551   1.000000
      5        -39.868324   1.000000
      6        -39.858454   1.000000
      7        -39.855894   1.000000
      8        -39.849833   1.000000
      9        -39.840242   1.000000
     10        -39.836324   1.000000
     11        -39.826400   1.000000
     12        -39.825440   1.000000
     13        -39.824410   1.000000
     14        -39.820403   1.000000
     15        -39.816095   1.000000
     16        -39.814359   1.000000
     17        -39.806456   1.000000
     18        -39.803973   1.000000
     19        -39.801793   1.000000
     20        -39.798827   1.000000
     21        -39.797419   1.000000
     22        -39.795118   1.000000
     23        -39.793991   1.000000
     24        -39.793308   1.000000
     25        -39.789712   1.000000
     26        -39.787721   1.000000
     27        -39.784726   1.000000
     28        -39.782665   1.000000
     29        -39.781465   1.000000
     30        -39.780999   1.000000
     31        -39.778165   1.000000
     32        -39.776846   1.000000
     33        -39.774888   1.000000
     34        -39.774487   1.000000
     35        -39.773040   1.000000
     36        -39.770241   1.000000
     37        -39.769290   1.000000
     38        -39.768346   1.000000
     39        -39.766817   1.000000
     40        -39.762811   1.000000
     41        -39.762195   1.000000
     42        -39.761273   1.000000
     43        -39.759740   1.000000
     44        -39.758345   1.000000
     45        -39.757262   1.000000
     46        -39.755911   1.000000
     47        -39.755386   1.000000
     48        -39.754850   1.000000
     49        -39.753477   1.000000
     50        -39.753077   1.000000
     51        -39.752427   1.000000
     52        -39.751765   1.000000
     53        -39.750705   1.000000
     54        -39.750081   1.000000
     55        -39.748804   1.000000
     56        -39.748315   1.000000
     57        -39.747214   1.000000
     58        -39.745624   1.000000
     59        -39.744513   1.000000
     60        -39.744276   1.000000
     61        -39.743312   1.000000
     62        -39.741696   1.000000
     63        -39.740502   1.000000
     64        -39.739228   1.000000
     65        -39.738539   1.000000
     66        -39.737831   1.000000
     67        -39.737404   1.000000
     68        -39.736421   1.000000
     69        -39.735540   1.000000
     70        -39.734580   1.000000
     71        -39.734225   1.000000
     72        -39.733348   1.000000
     73        -39.732033   1.000000
     74        -39.730646   1.000000
     75        -39.729652   1.000000
     76        -39.728491   1.000000
     77        -39.728315   1.000000
     78        -39.727535   1.000000
     79        -39.726875   1.000000
     80        -39.726255   1.000000
     81        -39.724649   1.000000
     82        -39.724500   1.000000
     83        -39.724100   1.000000
     84        -39.723116   1.000000
     85        -39.722457   1.000000
     86        -39.721927   1.000000
     87        -39.721659   1.000000
     88        -39.721165   1.000000
     89        -39.720612   1.000000
     90        -39.719137   1.000000
     91        -39.713437   1.000000
     92        -39.713088   1.000000
     93        -39.706161   1.000000
     94        -39.706005   1.000000
     95        -39.703095   1.000000
     96        -39.700726   1.000000
     97        -18.358327   1.000000
     98        -18.323227   1.000000
     99        -18.315401   1.000000
    100        -18.313359   1.000000
    101        -18.293200   1.000000
    102        -18.284816   1.000000
    103        -18.278721   1.000000
    104        -18.276018   1.000000
    105        -18.270987   1.000000
    106        -18.267234   1.000000
    107        -18.264632   1.000000
    108        -18.260170   1.000000
    109        -18.257509   1.000000
    110        -18.256476   1.000000
    111        -18.252100   1.000000
    112        -18.250925   1.000000
    113        -18.244444   1.000000
    114        -18.239704   1.000000
    115        -18.237199   1.000000
    116        -18.235459   1.000000
    117        -18.233144   1.000000
    118        -18.231025   1.000000
    119        -18.230279   1.000000
    120        -18.228883   1.000000
    121        -18.224335   1.000000
    122        -18.221942   1.000000
    123        -18.219039   1.000000
    124        -18.218414   1.000000
    125        -18.216644   1.000000
    126        -18.214906   1.000000
    127        -18.213176   1.000000
    128        -18.212524   1.000000
    129        -18.210301   1.000000
    130        -18.208581   1.000000
    131        -18.203526   1.000000
    132        -18.199685   1.000000
    133        -18.197377   1.000000
    134        -18.195506   1.000000
    135        -18.194880   1.000000
    136        -18.193605   1.000000
    137        -18.190081   1.000000
    138        -18.187539   1.000000
    139        -18.180988   1.000000
    140        -18.175996   1.000000
    141        -18.173458   1.000000
    142        -18.172564   1.000000
    143        -18.168346   1.000000
    144        -18.167182   1.000000
    145        -18.165596   1.000000
    146        -18.161170   1.000000
    147        -18.156377   1.000000
    148        -18.144911   1.000000
    149        -18.126691   1.000000
    150        -18.121796   1.000000
    151        -18.119981   1.000000
    152        -18.115735   1.000000
    153        -18.113585   1.000000
    154        -18.113269   1.000000
    155        -18.112389   1.000000
    156        -18.110664   1.000000
    157        -18.109746   1.000000
    158        -18.108847   1.000000
    159        -18.092483   1.000000
    160        -18.086874   1.000000
    161        -18.080309   1.000000
    162        -18.066182   1.000000
    163        -18.061888   1.000000
    164        -18.056037   1.000000
    165        -18.053578   1.000000
    166        -18.052282   1.000000
    167        -18.049953   1.000000
    168        -18.048333   1.000000
    169        -18.046833   1.000000
    170        -18.044892   1.000000
    171        -18.042877   1.000000
    172        -18.041227   1.000000
    173        -18.039208   1.000000
    174        -18.036297   1.000000
    175        -18.034434   1.000000
    176        -18.031167   1.000000
    177        -18.030000   1.000000
    178        -18.027558   1.000000
    179        -18.008101   1.000000
    180        -17.988204   1.000000
    181        -17.987267   1.000000
    182        -17.982181   1.000000
    183        -17.981261   1.000000
    184        -17.973580   1.000000
    185        -17.968067   1.000000
    186        -17.966299   1.000000
    187        -17.960135   1.000000
    188        -17.953582   1.000000
    189        -17.944090   1.000000
    190        -17.942045   1.000000
    191        -17.941297   1.000000
    192        -17.935236   1.000000
    193        -17.934069   1.000000
    194        -17.929322   1.000000
    195        -17.925669   1.000000
    196        -17.917614   1.000000
    197        -17.913431   1.000000
    198        -17.911704   1.000000
    199        -17.910129   1.000000
    200        -17.905129   1.000000
    201        -17.900276   1.000000
    202        -17.898228   1.000000
    203        -17.893211   1.000000
    204        -17.891506   1.000000
    205        -17.890398   1.000000
    206        -17.888190   1.000000
    207        -17.886570   1.000000
    208        -17.885197   1.000000
    209        -17.876459   1.000000
    210        -17.870000   1.000000
    211        -17.863504   1.000000
    212        -17.857894   1.000000
    213        -17.854555   1.000000
    214        -17.852149   1.000000
    215        -17.836943   1.000000
    216        -17.835184   1.000000
    217        -17.833580   1.000000
    218        -17.829368   1.000000
    219        -17.826672   1.000000
    220        -17.820791   1.000000
    221        -17.816705   1.000000
    222        -17.814186   1.000000
    223        -17.806991   1.000000
    224        -17.797007   1.000000
    225        -17.786730   1.000000
    226        -17.775741   1.000000
    227        -17.774645   1.000000
    228        -17.771204   1.000000
    229        -17.769056   1.000000
    230        -17.767001   1.000000
    231        -17.764053   1.000000
    232        -17.763100   1.000000
    233        -17.757796   1.000000
    234        -17.756770   1.000000
    235        -17.752317   1.000000
    236        -17.750674   1.000000
    237        -17.747889   1.000000
    238        -17.745075   1.000000
    239        -17.742404   1.000000
    240        -17.739962   1.000000
    241        -17.737909   1.000000
    242        -17.734493   1.000000
    243        -17.731807   1.000000
    244        -17.730595   1.000000
    245        -17.729390   1.000000
    246        -17.727511   1.000000
    247        -17.724821   1.000000
    248        -17.723120   1.000000
    249        -17.722728   1.000000
    250        -17.721657   1.000000
    251        -17.720408   1.000000
    252        -17.719360   1.000000
    253        -17.719033   1.000000
    254        -17.716364   1.000000
    255        -17.714916   1.000000
    256        -17.713454   1.000000
    257        -17.711974   1.000000
    258        -17.710963   1.000000
    259        -17.709794   1.000000
    260        -17.707860   1.000000
    261        -17.704334   1.000000
    262        -17.703188   1.000000
    263        -17.702239   1.000000
    264        -17.698187   1.000000
    265        -17.696153   1.000000
    266        -17.689951   1.000000
    267        -17.684818   1.000000
    268        -17.683747   1.000000
    269        -17.683241   1.000000
    270        -17.679338   1.000000
    271        -17.678648   1.000000
    272        -17.676605   1.000000
    273        -17.675531   1.000000
    274        -17.671872   1.000000
    275        -17.669819   1.000000
    276        -17.668507   1.000000
    277        -17.667485   1.000000
    278        -17.666153   1.000000
    279        -17.664055   1.000000
    280        -17.663012   1.000000
    281        -17.653785   1.000000
    282        -17.652263   1.000000
    283        -17.650201   1.000000
    284        -17.646115   1.000000
    285        -17.641604   1.000000
    286        -17.641251   1.000000
    287        -17.638157   1.000000
    288        -17.635008   1.000000
    289        -17.632661   1.000000
    290        -17.628298   1.000000
    291        -17.626451   1.000000
    292        -17.625061   1.000000
    293        -17.624362   1.000000
    294        -17.623211   1.000000
    295        -17.622370   1.000000
    296        -17.621176   1.000000
    297        -17.620291   1.000000
    298        -17.619373   1.000000
    299        -17.618254   1.000000
    300        -17.617010   1.000000
    301        -17.614627   1.000000
    302        -17.613030   1.000000
    303        -17.612176   1.000000
    304        -17.611359   1.000000
    305        -17.611159   1.000000
    306        -17.610258   1.000000
    307        -17.610122   1.000000
    308        -17.607349   1.000000
    309        -17.604749   1.000000
    310        -17.602220   1.000000
    311        -17.600988   1.000000
    312        -17.599275   1.000000
    313        -17.595543   1.000000
    314        -17.594308   1.000000
    315        -17.593382   1.000000
    316        -17.592724   1.000000
    317        -17.591027   1.000000
    318        -17.590458   1.000000
    319        -17.589424   1.000000
    320        -17.588308   1.000000
    321        -17.586926   1.000000
    322        -17.585498   1.000000
    323        -17.584605   1.000000
    324        -17.583845   1.000000
    325        -17.583088   1.000000
    326        -17.582243   1.000000
    327        -17.581103   1.000000
    328        -17.580822   1.000000
    329        -17.580520   1.000000
    330        -17.580227   1.000000
    331        -17.579353   1.000000
    332        -17.578727   1.000000
    333        -17.578085   1.000000
    334        -17.576733   1.000000
    335        -17.575075   1.000000
    336        -17.574172   1.000000
    337        -17.573104   1.000000
    338        -17.571263   1.000000
    339        -17.570580   1.000000
    340        -17.568019   1.000000
    341        -17.565977   1.000000
    342        -17.564392   1.000000
    343        -17.563640   1.000000
    344        -17.561285   1.000000
    345        -17.560435   1.000000
    346        -17.553776   1.000000
    347        -17.553392   1.000000
    348        -17.552053   1.000000
    349        -17.550575   1.000000
    350        -17.543880   1.000000
    351        -17.541952   1.000000
    352        -17.541035   1.000000
    353        -17.539435   1.000000
    354        -17.537639   1.000000
    355        -17.536125   1.000000
    356        -17.535037   1.000000
    357        -17.532935   1.000000
    358        -17.532529   1.000000
    359        -17.528913   1.000000
    360        -17.527254   1.000000
    361        -17.525678   1.000000
    362        -17.521332   1.000000
    363        -17.520041   1.000000
    364        -17.519184   1.000000
    365        -17.517592   1.000000
    366        -17.516040   1.000000
    367        -17.515389   1.000000
    368        -17.514986   1.000000
    369        -17.513094   1.000000
    370        -17.509635   1.000000
    371        -17.508695   1.000000
    372        -17.492118   1.000000
    373        -17.488068   1.000000
    374        -17.485865   1.000000
    375        -17.472718   1.000000
    376        -17.469448   1.000000
    377        -17.467101   1.000000
    378        -17.464940   1.000000
    379        -17.461689   1.000000
    380        -17.454459   1.000000
    381        -17.451948   1.000000
    382        -17.447135   1.000000
    383        -17.447019   1.000000
    384        -17.434552   1.000000
    385          2.481822   1.000000
    386          3.759369   1.000000
    387          4.026639   1.000000
    388          4.116055   1.000000
    389          4.199186   1.000000
    390          4.380264   1.000000
    391          4.480626   1.000000
    392          5.008187   1.000000
    393          5.151144   1.000000
    394          5.182523   1.000000
    395          5.312861   1.000000
    396          5.319472   1.000000
    397          5.333079   1.000000
    398          5.399585   1.000000
    399          5.563605   1.000000
    400          5.742843   1.000000
    401          5.790209   1.000000
    402          5.797921   1.000000
    403          5.818425   1.000000
    404          5.829445   1.000000
    405          5.857943   1.000000
    406          5.862806   1.000000
    407          5.910834   1.000000
    408          6.001173   1.000000
    409          6.005466   1.000000
    410          6.009001   1.000000
    411          6.035484   1.000000
    412          6.106540   1.000000
    413          6.107850   1.000000
    414          6.113888   1.000000
    415          6.116807   1.000000
    416          6.126798   1.000000
    417          6.132995   1.000000
    418          6.155836   1.000000
    419          6.159993   1.000000
    420          6.186291   1.000000
    421          6.208726   1.000000
    422          6.213178   1.000000
    423          6.229612   1.000000
    424          6.269749   1.000000
    425          6.290780   1.000000
    426          6.309271   1.000000
    427          6.312917   1.000000
    428          6.318683   1.000000
    429          6.336195   1.000000
    430          6.356212   1.000000
    431          6.396291   1.000000
    432          6.403552   1.000000
    433          6.440252   1.000000
    434          6.453527   1.000000
    435          6.468472   1.000000
    436          6.498202   1.000000
    437          6.516839   1.000000
    438          6.518654   1.000000
    439          6.528135   1.000000
    440          6.534242   1.000000
    441          6.542463   1.000000
    442          6.546526   1.000000
    443          6.560526   1.000000
    444          6.585519   1.000000
    445          6.594102   1.000000
    446          6.622078   1.000000
    447          6.640970   1.000000
    448          6.669729   1.000000
    449          6.674476   1.000000
    450          6.686773   1.000000
    451          6.696639   1.000000
    452          6.701229   1.000000
    453          6.745310   1.000000
    454          6.791104   1.000000
    455          6.809450   1.000000
    456          6.814685   1.000000
    457          6.841171   1.000000
    458          6.900880   1.000000
    459          6.906527   1.000000
    460          6.910401   1.000000
    461          6.924495   1.000000
    462          6.954465   1.000000
    463          7.003104   1.000000
    464          7.004335   1.000000
    465          7.016466   1.000000
    466          7.045782   1.000000
    467          7.059128   1.000000
    468          7.122490   1.000000
    469          7.136324   1.000000
    470          7.197789   1.000000
    471          7.200355   1.000000
    472          7.205570   1.000000
    473          7.207097   1.000000
    474          7.218197   1.000000
    475          7.225607   1.000000
    476          7.239796   1.000000
    477          7.254695   1.000000
    478          7.261173   1.000000
    479          7.271303   1.000000
    480          7.280301   1.000000
    481          7.295473   1.000000
    482          7.306893   1.000000
    483          7.308913   1.000000
    484          7.334786   1.000000
    485          7.337913   1.000000
    486          7.357120   1.000000
    487          7.363186   1.000000
    488          7.389561   1.000000
    489          7.406869   1.000000
    490          7.416090   1.000000
    491          7.428384   1.000000
    492          7.445521   1.000000
    493          7.460681   1.000000
    494          7.483168   1.000000
    495          7.489078   1.000000
    496          7.543897   1.000000
    497          7.587096   1.000000
    498          7.591462   1.000000
    499          7.618849   1.000000
    500          7.640130   1.000000
    501          7.659673   1.000000
    502          7.694290   1.000000
    503          7.724457   1.000000
    504          7.760912   1.000000
    505          7.785080   1.000000
    506          7.789391   1.000000
    507          7.793218   1.000000
    508          7.794473   1.000000
    509          7.804658   1.000000
    510          7.820702   1.000000
    511          7.835837   1.000000
    512          7.853511   1.000000
    513          7.865097   1.000000
    514          7.867684   1.000000
    515          7.885474   1.000000
    516          7.918650   1.000000
    517          7.925830   1.000000
    518          7.933861   1.000000
    519          7.944939   1.000000
    520          7.952020   1.000000
    521          7.967014   1.000000
    522          7.979407   1.000000
    523          8.004684   1.000000
    524          8.029288   1.000000
    525          8.036705   1.000000
    526          8.056665   1.000000
    527          8.080800   1.000000
    528          8.101015   1.000000
    529          8.109397   1.000000
    530          8.122114   1.000000
    531          8.129560   1.000000
    532          8.134056   1.000000
    533          8.137727   1.000000
    534          8.143305   1.000000
    535          8.163809   1.000000
    536          8.189374   1.000000
    537          8.201387   1.000001
    538          8.210174   1.000001
    539          8.212243   1.000001
    540          8.231376   1.000002
    541          8.236989   1.000002
    542          8.243251   1.000003
    543          8.244637   1.000003
    544          8.253554   1.000004
    545          8.261531   1.000005
    546          8.271442   1.000007
    547          8.288115   1.000012
    548          8.305373   1.000020
    549          8.305982   1.000021
    550          8.312125   1.000025
    551          8.319138   1.000031
    552          8.331609   1.000044
    553          8.336989   1.000052
    554          8.345157   1.000066
    555          8.347670   1.000071
    556          8.350406   1.000076
    557          8.353297   1.000083
    558          8.354979   1.000087
    559          8.359135   1.000097
    560          8.366010   1.000118
    561          8.390059   1.000225
    562          8.395329   1.000258
    563          8.586139   1.012324
    564          8.623992   1.019955
    565          8.632256   1.021830
    566          8.702454   1.035083
    567          8.710617   1.035442
    568          8.786003   1.003453
    569          8.790675   0.998408
    570          8.816329   0.962109
    571          8.842258   0.909341
    572          8.851065   0.887570
    573          8.864937   0.849353
    574          8.869798   0.834850
    575          8.872766   0.825724
    576          8.879003   0.805881
    577          8.927477   0.625959
    578          8.936923   0.587067
    579          9.015733   0.265242
    580          9.024447   0.233978
    581          9.029559   0.216339
    582          9.037976   0.188511
    583          9.042508   0.174183
    584          9.080331   0.074000
    585          9.095423   0.044022
    586          9.118182   0.009239
    587          9.163622  -0.027967
    588          9.171492  -0.030908
    589          9.189466  -0.034736
    590          9.204650  -0.035441
    591          9.222360  -0.034144
    592          9.234934  -0.032252
    593          9.240672  -0.031201
    594          9.247050  -0.029930
    595          9.259647  -0.027198
    596          9.276135  -0.023410
    597          9.282163  -0.022019
    598          9.295201  -0.019078
    599          9.297156  -0.018649
    600          9.299696  -0.018098
    601          9.309254  -0.016090
    602          9.311095  -0.015717
    603          9.316586  -0.014631
    604          9.318564  -0.014251
    605          9.322126  -0.013581
    606          9.327922  -0.012532
    607          9.332039  -0.011818
    608          9.342150  -0.010182
    609          9.345998  -0.009602
    610          9.353310  -0.008566
    611          9.376086  -0.005866
    612          9.416156  -0.002780
    613          9.419950  -0.002577
    614          9.461978  -0.001050
    615          9.480457  -0.000685
    616          9.485964  -0.000601
    617          9.501143  -0.000415
    618          9.506956  -0.000359
    619          9.508955  -0.000341
    620          9.517233  -0.000276
    621          9.527508  -0.000211
    622          9.531970  -0.000188
    623          9.552036  -0.000109
    624          9.558916  -0.000090
    625          9.571513  -0.000063
    626          9.577919  -0.000052
    627          9.585113  -0.000042
    628          9.588644  -0.000038
    629          9.598600  -0.000028
    630          9.608022  -0.000021
    631          9.616387  -0.000016
    632          9.619364  -0.000015
    633          9.622984  -0.000013
    634          9.636814  -0.000009
    635          9.663333  -0.000004
    636          9.686330  -0.000002
    637          9.698119  -0.000001
    638          9.712774  -0.000001
    639          9.724431  -0.000000
    640          9.739338  -0.000000
    641          9.750629  -0.000000
    642          9.760087  -0.000000
    643          9.765712  -0.000000
    644          9.786214  -0.000000
    645          9.796976  -0.000000
    646          9.806445  -0.000000
    647          9.812989  -0.000000
    648          9.830621  -0.000000
    649          9.841411  -0.000000
    650          9.856595  -0.000000
    651          9.877215  -0.000000
    652          9.880990  -0.000000
    653          9.883601  -0.000000
    654          9.898003  -0.000000
    655          9.900290  -0.000000
    656          9.908024  -0.000000
    657          9.919254  -0.000000
    658          9.924600  -0.000000
    659          9.943819  -0.000000
    660          9.953775  -0.000000
    661          9.963321  -0.000000
    662          9.994771  -0.000000
    663         10.005747  -0.000000
    664         10.021113  -0.000000
    665         10.031343  -0.000000
    666         10.040883  -0.000000
    667         10.046473  -0.000000
    668         10.063294  -0.000000
    669         10.067559  -0.000000
    670         10.070729  -0.000000
    671         10.078110  -0.000000
    672         10.082691  -0.000000
    673         10.086749  -0.000000
    674         10.098482  -0.000000
    675         10.102573  -0.000000
    676         10.113773  -0.000000
    677         10.118922  -0.000000
    678         10.123488  -0.000000
    679         10.130677  -0.000000
    680         10.136588  -0.000000
    681         10.139434  -0.000000
    682         10.147666  -0.000000
    683         10.161961  -0.000000
    684         10.168071  -0.000000
    685         10.169910  -0.000000
    686         10.175225  -0.000000
    687         10.178111  -0.000000
    688         10.189128  -0.000000
    689         10.191801  -0.000000
    690         10.196649  -0.000000
    691         10.206516  -0.000000
 
 -0.2500000E+00 -0.2500000E+00  0.3333333E+00  0.4166667E-01
      1        -39.913087   1.000000
      2        -39.892701   1.000000
      3        -39.878830   1.000000
      4        -39.869551   1.000000
      5        -39.868324   1.000000
      6        -39.858454   1.000000
      7        -39.855894   1.000000
      8        -39.849833   1.000000
      9        -39.840242   1.000000
     10        -39.836324   1.000000
     11        -39.826400   1.000000
     12        -39.825440   1.000000
     13        -39.824410   1.000000
     14        -39.820403   1.000000
     15        -39.816095   1.000000
     16        -39.814359   1.000000
     17        -39.806456   1.000000
     18        -39.803973   1.000000
     19        -39.801793   1.000000
     20        -39.798827   1.000000
     21        -39.797419   1.000000
     22        -39.795118   1.000000
     23        -39.793991   1.000000
     24        -39.793308   1.000000
     25        -39.789712   1.000000
     26        -39.787721   1.000000
     27        -39.784726   1.000000
     28        -39.782665   1.000000
     29        -39.781465   1.000000
     30        -39.780999   1.000000
     31        -39.778165   1.000000
     32        -39.776846   1.000000
     33        -39.774888   1.000000
     34        -39.774487   1.000000
     35        -39.773040   1.000000
     36        -39.770241   1.000000
     37        -39.769290   1.000000
     38        -39.768346   1.000000
     39        -39.766817   1.000000
     40        -39.762811   1.000000
     41        -39.762195   1.000000
     42        -39.761273   1.000000
     43        -39.759740   1.000000
     44        -39.758345   1.000000
     45        -39.757262   1.000000
     46        -39.755911   1.000000
     47        -39.755386   1.000000
     48        -39.754850   1.000000
     49        -39.753477   1.000000
     50        -39.753077   1.000000
     51        -39.752427   1.000000
     52        -39.751765   1.000000
     53        -39.750705   1.000000
     54        -39.750081   1.000000
     55        -39.748804   1.000000
     56        -39.748315   1.000000
     57        -39.747214   1.000000
     58        -39.745624   1.000000
     59        -39.744513   1.000000
     60        -39.744276   1.000000
     61        -39.743312   1.000000
     62        -39.741696   1.000000
     63        -39.740502   1.000000
     64        -39.739228   1.000000
     65        -39.738539   1.000000
     66        -39.737831   1.000000
     67        -39.737404   1.000000
     68        -39.736421   1.000000
     69        -39.735540   1.000000
     70        -39.734580   1.000000
     71        -39.734225   1.000000
     72        -39.733348   1.000000
     73        -39.732033   1.000000
     74        -39.730646   1.000000
     75        -39.729652   1.000000
     76        -39.728491   1.000000
     77        -39.728315   1.000000
     78        -39.727535   1.000000
     79        -39.726875   1.000000
     80        -39.726255   1.000000
     81        -39.724649   1.000000
     82        -39.724500   1.000000
     83        -39.724100   1.000000
     84        -39.723116   1.000000
     85        -39.722457   1.000000
     86        -39.721927   1.000000
     87        -39.721659   1.000000
     88        -39.721165   1.000000
     89        -39.720612   1.000000
     90        -39.719137   1.000000
     91        -39.713437   1.000000
     92        -39.713088   1.000000
     93        -39.706161   1.000000
     94        -39.706005   1.000000
     95        -39.703095   1.000000
     96        -39.700726   1.000000
     97        -18.358327   1.000000
     98        -18.323227   1.000000
     99        -18.315401   1.000000
    100        -18.313359   1.000000
    101        -18.293200   1.000000
    102        -18.284816   1.000000
    103        -18.278721   1.000000
    104        -18.276018   1.000000
    105        -18.270987   1.000000
    106        -18.267234   1.000000
    107        -18.264632   1.000000
    108        -18.260170   1.000000
    109        -18.257509   1.000000
    110        -18.256476   1.000000
    111        -18.252100   1.000000
    112        -18.250925   1.000000
    113        -18.244444   1.000000
    114        -18.239704   1.000000
    115        -18.237199   1.000000
    116        -18.235459   1.000000
    117        -18.233144   1.000000
    118        -18.231025   1.000000
    119        -18.230279   1.000000
    120        -18.228883   1.000000
    121        -18.224335   1.000000
    122        -18.221942   1.000000
    123        -18.219039   1.000000
    124        -18.218414   1.000000
    125        -18.216644   1.000000
    126        -18.214906   1.000000
    127        -18.213176   1.000000
    128        -18.212524   1.000000
    129        -18.210301   1.000000
    130        -18.208581   1.000000
    131        -18.203526   1.000000
    132        -18.199685   1.000000
    133        -18.197377   1.000000
    134        -18.195506   1.000000
    135        -18.194880   1.000000
    136        -18.193605   1.000000
    137        -18.190081   1.000000
    138        -18.187539   1.000000
    139        -18.180988   1.000000
    140        -18.175996   1.000000
    141        -18.173458   1.000000
    142        -18.172564   1.000000
    143        -18.168346   1.000000
    144        -18.167182   1.000000
    145        -18.165596   1.000000
    146        -18.161170   1.000000
    147        -18.156377   1.000000
    148        -18.144911   1.000000
    149        -18.126691   1.000000
    150        -18.121796   1.000000
    151        -18.119981   1.000000
    152        -18.115735   1.000000
    153        -18.113585   1.000000
    154        -18.113269   1.000000
    155        -18.112389   1.000000
    156        -18.110664   1.000000
    157        -18.109746   1.000000
    158        -18.108847   1.000000
    159        -18.092483   1.000000
    160        -18.086874   1.000000
    161        -18.080309   1.000000
    162        -18.066182   1.000000
    163        -18.061888   1.000000
    164        -18.056037   1.000000
    165        -18.053578   1.000000
    166        -18.052282   1.000000
    167        -18.049953   1.000000
    168        -18.048333   1.000000
    169        -18.046833   1.000000
    170        -18.044892   1.000000
    171        -18.042877   1.000000
    172        -18.041227   1.000000
    173        -18.039208   1.000000
    174        -18.036297   1.000000
    175        -18.034434   1.000000
    176        -18.031167   1.000000
    177        -18.030000   1.000000
    178        -18.027558   1.000000
    179        -18.008101   1.000000
    180        -17.988204   1.000000
    181        -17.987267   1.000000
    182        -17.982181   1.000000
    183        -17.981261   1.000000
    184        -17.973580   1.000000
    185        -17.968067   1.000000
    186        -17.966299   1.000000
    187        -17.960135   1.000000
    188        -17.953582   1.000000
    189        -17.944090   1.000000
    190        -17.942045   1.000000
    191        -17.941297   1.000000
    192        -17.935236   1.000000
    193        -17.934069   1.000000
    194        -17.929322   1.000000
    195        -17.925669   1.000000
    196        -17.917614   1.000000
    197        -17.913431   1.000000
    198        -17.911704   1.000000
    199        -17.910129   1.000000
    200        -17.905129   1.000000
    201        -17.900276   1.000000
    202        -17.898228   1.000000
    203        -17.893211   1.000000
    204        -17.891506   1.000000
    205        -17.890398   1.000000
    206        -17.888190   1.000000
    207        -17.886570   1.000000
    208        -17.885197   1.000000
    209        -17.876459   1.000000
    210        -17.870000   1.000000
    211        -17.863504   1.000000
    212        -17.857894   1.000000
    213        -17.854555   1.000000
    214        -17.852149   1.000000
    215        -17.836943   1.000000
    216        -17.835184   1.000000
    217        -17.833580   1.000000
    218        -17.829368   1.000000
    219        -17.826672   1.000000
    220        -17.820791   1.000000
    221        -17.816705   1.000000
    222        -17.814186   1.000000
    223        -17.806991   1.000000
    224        -17.797007   1.000000
    225        -17.786730   1.000000
    226        -17.775741   1.000000
    227        -17.774645   1.000000
    228        -17.771204   1.000000
    229        -17.769056   1.000000
    230        -17.767001   1.000000
    231        -17.764053   1.000000
    232        -17.763100   1.000000
    233        -17.757796   1.000000
    234        -17.756770   1.000000
    235        -17.752317   1.000000
    236        -17.750674   1.000000
    237        -17.747889   1.000000
    238        -17.745075   1.000000
    239        -17.742404   1.000000
    240        -17.739962   1.000000
    241        -17.737909   1.000000
    242        -17.734493   1.000000
    243        -17.731807   1.000000
    244        -17.730595   1.000000
    245        -17.729390   1.000000
    246        -17.727511   1.000000
    247        -17.724821   1.000000
    248        -17.723120   1.000000
    249        -17.722728   1.000000
    250        -17.721657   1.000000
    251        -17.720408   1.000000
    252        -17.719360   1.000000
    253        -17.719033   1.000000
    254        -17.716363   1.000000
    255        -17.714916   1.000000
    256        -17.713454   1.000000
    257        -17.711974   1.000000
    258        -17.710963   1.000000
    259        -17.709794   1.000000
    260        -17.707860   1.000000
    261        -17.704334   1.000000
    262        -17.703188   1.000000
    263        -17.702239   1.000000
    264        -17.698187   1.000000
    265        -17.696153   1.000000
    266        -17.689951   1.000000
    267        -17.684818   1.000000
    268        -17.683747   1.000000
    269        -17.683241   1.000000
    270        -17.679338   1.000000
    271        -17.678648   1.000000
    272        -17.676605   1.000000
    273        -17.675531   1.000000
    274        -17.671872   1.000000
    275        -17.669819   1.000000
    276        -17.668507   1.000000
    277        -17.667485   1.000000
    278        -17.666153   1.000000
    279        -17.664055   1.000000
    280        -17.663012   1.000000
    281        -17.653785   1.000000
    282        -17.652263   1.000000
    283        -17.650201   1.000000
    284        -17.646115   1.000000
    285        -17.641604   1.000000
    286        -17.641251   1.000000
    287        -17.638157   1.000000
    288        -17.635008   1.000000
    289        -17.632661   1.000000
    290        -17.628298   1.000000
    291        -17.626451   1.000000
    292        -17.625061   1.000000
    293        -17.624362   1.000000
    294        -17.623211   1.000000
    295        -17.622370   1.000000
    296        -17.621176   1.000000
    297        -17.620291   1.000000
    298        -17.619373   1.000000
    299        -17.618254   1.000000
    300        -17.617010   1.000000
    301        -17.614627   1.000000
    302        -17.613030   1.000000
    303        -17.612176   1.000000
    304        -17.611359   1.000000
    305        -17.611159   1.000000
    306        -17.610258   1.000000
    307        -17.610122   1.000000
    308        -17.607349   1.000000
    309        -17.604749   1.000000
    310        -17.602220   1.000000
    311        -17.600988   1.000000
    312        -17.599275   1.000000
    313        -17.595543   1.000000
    314        -17.594308   1.000000
    315        -17.593382   1.000000
    316        -17.592724   1.000000
    317        -17.591027   1.000000
    318        -17.590458   1.000000
    319        -17.589424   1.000000
    320        -17.588308   1.000000
    321        -17.586926   1.000000
    322        -17.585498   1.000000
    323        -17.584605   1.000000
    324        -17.583845   1.000000
    325        -17.583088   1.000000
    326        -17.582243   1.000000
    327        -17.581103   1.000000
    328        -17.580822   1.000000
    329        -17.580520   1.000000
    330        -17.580227   1.000000
    331        -17.579353   1.000000
    332        -17.578727   1.000000
    333        -17.578085   1.000000
    334        -17.576733   1.000000
    335        -17.575075   1.000000
    336        -17.574172   1.000000
    337        -17.573104   1.000000
    338        -17.571263   1.000000
    339        -17.570580   1.000000
    340        -17.568019   1.000000
    341        -17.565977   1.000000
    342        -17.564392   1.000000
    343        -17.563640   1.000000
    344        -17.561285   1.000000
    345        -17.560435   1.000000
    346        -17.553776   1.000000
    347        -17.553392   1.000000
    348        -17.552053   1.000000
    349        -17.550575   1.000000
    350        -17.543880   1.000000
    351        -17.541952   1.000000
    352        -17.541035   1.000000
    353        -17.539435   1.000000
    354        -17.537639   1.000000
    355        -17.536125   1.000000
    356        -17.535037   1.000000
    357        -17.532935   1.000000
    358        -17.532529   1.000000
    359        -17.528913   1.000000
    360        -17.527254   1.000000
    361        -17.525678   1.000000
    362        -17.521332   1.000000
    363        -17.520041   1.000000
    364        -17.519184   1.000000
    365        -17.517592   1.000000
    366        -17.516040   1.000000
    367        -17.515389   1.000000
    368        -17.514986   1.000000
    369        -17.513094   1.000000
    370        -17.509635   1.000000
    371        -17.508695   1.000000
    372        -17.492118   1.000000
    373        -17.488068   1.000000
    374        -17.485865   1.000000
    375        -17.472718   1.000000
    376        -17.469448   1.000000
    377        -17.467100   1.000000
    378        -17.464940   1.000000
    379        -17.461689   1.000000
    380        -17.454459   1.000000
    381        -17.451948   1.000000
    382        -17.447135   1.000000
    383        -17.447019   1.000000
    384        -17.434552   1.000000
    385          2.481822   1.000000
    386          3.759369   1.000000
    387          4.026639   1.000000
    388          4.116055   1.000000
    389          4.199186   1.000000
    390          4.380264   1.000000
    391          4.480626   1.000000
    392          5.008187   1.000000
    393          5.151144   1.000000
    394          5.182523   1.000000
    395          5.312861   1.000000
    396          5.319472   1.000000
    397          5.333079   1.000000
    398          5.399585   1.000000
    399          5.563605   1.000000
    400          5.742843   1.000000
    401          5.790209   1.000000
    402          5.797921   1.000000
    403          5.818425   1.000000
    404          5.829445   1.000000
    405          5.857943   1.000000
    406          5.862806   1.000000
    407          5.910834   1.000000
    408          6.001173   1.000000
    409          6.005466   1.000000
    410          6.009001   1.000000
    411          6.035484   1.000000
    412          6.106540   1.000000
    413          6.107851   1.000000
    414          6.113888   1.000000
    415          6.116807   1.000000
    416          6.126798   1.000000
    417          6.132995   1.000000
    418          6.155836   1.000000
    419          6.159993   1.000000
    420          6.186291   1.000000
    421          6.208726   1.000000
    422          6.213178   1.000000
    423          6.229612   1.000000
    424          6.269749   1.000000
    425          6.290780   1.000000
    426          6.309271   1.000000
    427          6.312917   1.000000
    428          6.318683   1.000000
    429          6.336195   1.000000
    430          6.356212   1.000000
    431          6.396291   1.000000
    432          6.403552   1.000000
    433          6.440252   1.000000
    434          6.453526   1.000000
    435          6.468472   1.000000
    436          6.498202   1.000000
    437          6.516839   1.000000
    438          6.518654   1.000000
    439          6.528135   1.000000
    440          6.534242   1.000000
    441          6.542463   1.000000
    442          6.546526   1.000000
    443          6.560526   1.000000
    444          6.585519   1.000000
    445          6.594102   1.000000
    446          6.622078   1.000000
    447          6.640970   1.000000
    448          6.669729   1.000000
    449          6.674476   1.000000
    450          6.686773   1.000000
    451          6.696639   1.000000
    452          6.701229   1.000000
    453          6.745309   1.000000
    454          6.791104   1.000000
    455          6.809450   1.000000
    456          6.814685   1.000000
    457          6.841171   1.000000
    458          6.900880   1.000000
    459          6.906528   1.000000
    460          6.910401   1.000000
    461          6.924495   1.000000
    462          6.954465   1.000000
    463          7.003104   1.000000
    464          7.004335   1.000000
    465          7.016466   1.000000
    466          7.045782   1.000000
    467          7.059128   1.000000
    468          7.122490   1.000000
    469          7.136324   1.000000
    470          7.197789   1.000000
    471          7.200355   1.000000
    472          7.205570   1.000000
    473          7.207097   1.000000
    474          7.218197   1.000000
    475          7.225607   1.000000
    476          7.239796   1.000000
    477          7.254695   1.000000
    478          7.261173   1.000000
    479          7.271303   1.000000
    480          7.280301   1.000000
    481          7.295473   1.000000
    482          7.306893   1.000000
    483          7.308913   1.000000
    484          7.334786   1.000000
    485          7.337913   1.000000
    486          7.357120   1.000000
    487          7.363186   1.000000
    488          7.389561   1.000000
    489          7.406869   1.000000
    490          7.416090   1.000000
    491          7.428384   1.000000
    492          7.445521   1.000000
    493          7.460681   1.000000
    494          7.483168   1.000000
    495          7.489078   1.000000
    496          7.543897   1.000000
    497          7.587096   1.000000
    498          7.591462   1.000000
    499          7.618849   1.000000
    500          7.640130   1.000000
    501          7.659673   1.000000
    502          7.694290   1.000000
    503          7.724457   1.000000
    504          7.760912   1.000000
    505          7.785080   1.000000
    506          7.789391   1.000000
    507          7.793218   1.000000
    508          7.794473   1.000000
    509          7.804658   1.000000
    510          7.820702   1.000000
    511          7.835837   1.000000
    512          7.853511   1.000000
    513          7.865097   1.000000
    514          7.867684   1.000000
    515          7.885474   1.000000
    516          7.918650   1.000000
    517          7.925830   1.000000
    518          7.933861   1.000000
    519          7.944939   1.000000
    520          7.952020   1.000000
    521          7.967014   1.000000
    522          7.979407   1.000000
    523          8.004684   1.000000
    524          8.029288   1.000000
    525          8.036705   1.000000
    526          8.056665   1.000000
    527          8.080800   1.000000
    528          8.101015   1.000000
    529          8.109397   1.000000
    530          8.122114   1.000000
    531          8.129561   1.000000
    532          8.134056   1.000000
    533          8.137727   1.000000
    534          8.143305   1.000000
    535          8.163809   1.000000
    536          8.189374   1.000000
    537          8.201387   1.000001
    538          8.210174   1.000001
    539          8.212243   1.000001
    540          8.231376   1.000002
    541          8.236989   1.000002
    542          8.243251   1.000003
    543          8.244637   1.000003
    544          8.253554   1.000004
    545          8.261531   1.000005
    546          8.271442   1.000007
    547          8.288115   1.000012
    548          8.305373   1.000020
    549          8.305982   1.000021
    550          8.312125   1.000025
    551          8.319138   1.000031
    552          8.331609   1.000044
    553          8.336989   1.000052
    554          8.345157   1.000066
    555          8.347670   1.000071
    556          8.350406   1.000076
    557          8.353297   1.000083
    558          8.354979   1.000087
    559          8.359135   1.000097
    560          8.366011   1.000118
    561          8.390059   1.000225
    562          8.395329   1.000258
    563          8.586139   1.012324
    564          8.623992   1.019955
    565          8.632256   1.021830
    566          8.702453   1.035083
    567          8.710617   1.035442
    568          8.786003   1.003453
    569          8.790675   0.998408
    570          8.816329   0.962109
    571          8.842258   0.909341
    572          8.851065   0.887570
    573          8.864937   0.849353
    574          8.869798   0.834850
    575          8.872766   0.825724
    576          8.879003   0.805881
    577          8.927477   0.625959
    578          8.936923   0.587067
    579          9.015733   0.265242
    580          9.024447   0.233978
    581          9.029559   0.216339
    582          9.037976   0.188511
    583          9.042508   0.174183
    584          9.080331   0.074000
    585          9.095424   0.044022
    586          9.118182   0.009239
    587          9.163622  -0.027967
    588          9.171492  -0.030908
    589          9.189466  -0.034736
    590          9.204650  -0.035441
    591          9.222360  -0.034144
    592          9.234934  -0.032252
    593          9.240672  -0.031201
    594          9.247050  -0.029930
    595          9.259647  -0.027198
    596          9.276135  -0.023410
    597          9.282163  -0.022019
    598          9.295201  -0.019078
    599          9.297156  -0.018649
    600          9.299696  -0.018098
    601          9.309254  -0.016090
    602          9.311095  -0.015717
    603          9.316586  -0.014631
    604          9.318564  -0.014251
    605          9.322126  -0.013581
    606          9.327922  -0.012532
    607          9.332039  -0.011818
    608          9.342150  -0.010182
    609          9.345998  -0.009602
    610          9.353310  -0.008566
    611          9.376086  -0.005866
    612          9.416156  -0.002780
    613          9.419950  -0.002577
    614          9.461978  -0.001050
    615          9.480457  -0.000685
    616          9.485964  -0.000601
    617          9.501143  -0.000415
    618          9.506956  -0.000359
    619          9.508955  -0.000341
    620          9.517233  -0.000276
    621          9.527508  -0.000211
    622          9.531970  -0.000188
    623          9.552036  -0.000109
    624          9.558916  -0.000090
    625          9.571513  -0.000063
    626          9.577919  -0.000052
    627          9.585113  -0.000042
    628          9.588644  -0.000038
    629          9.598600  -0.000028
    630          9.608022  -0.000021
    631          9.616387  -0.000016
    632          9.619364  -0.000015
    633          9.622984  -0.000013
    634          9.636814  -0.000009
    635          9.663333  -0.000004
    636          9.686330  -0.000002
    637          9.698119  -0.000001
    638          9.712774  -0.000001
    639          9.724431  -0.000000
    640          9.739338  -0.000000
    641          9.750629  -0.000000
    642          9.760087  -0.000000
    643          9.765712  -0.000000
    644          9.786214  -0.000000
    645          9.796976  -0.000000
    646          9.806445  -0.000000
    647          9.812989  -0.000000
    648          9.830621  -0.000000
    649          9.841411  -0.000000
    650          9.856595  -0.000000
    651          9.877215  -0.000000
    652          9.880990  -0.000000
    653          9.883601  -0.000000
    654          9.898003  -0.000000
    655          9.900290  -0.000000
    656          9.908024  -0.000000
    657          9.919254  -0.000000
    658          9.924600  -0.000000
    659          9.943819  -0.000000
    660          9.953775  -0.000000
    661          9.963321  -0.000000
    662          9.994771  -0.000000
    663         10.005747  -0.000000
    664         10.021113  -0.000000
    665         10.031343  -0.000000
    666         10.040883  -0.000000
    667         10.046473  -0.000000
    668         10.063294  -0.000000
    669         10.067559  -0.000000
    670         10.070729  -0.000000
    671         10.078110  -0.000000
    672         10.082691  -0.000000
    673         10.086750  -0.000000
    674         10.098482  -0.000000
    675         10.102573  -0.000000
    676         10.113773  -0.000000
    677         10.118922  -0.000000
    678         10.123488  -0.000000
    679         10.130677  -0.000000
    680         10.136588  -0.000000
    681         10.139434  -0.000000
    682         10.147666  -0.000000
    683         10.161961  -0.000000
    684         10.168072  -0.000000
    685         10.169910  -0.000000
    686         10.175225  -0.000000
    687         10.178110  -0.000000
    688         10.189124  -0.000000
    689         10.191807  -0.000000
    690         10.196698  -0.000000
    691         10.206265  -0.000000
 
  0.2500000E+00  0.5000000E+00  0.3333333E+00  0.4166667E-01
      1        -39.913092   1.000000
      2        -39.892707   1.000000
      3        -39.878724   1.000000
      4        -39.869660   1.000000
      5        -39.868280   1.000000
      6        -39.858628   1.000000
      7        -39.855834   1.000000
      8        -39.849835   1.000000
      9        -39.840141   1.000000
     10        -39.836394   1.000000
     11        -39.826240   1.000000
     12        -39.825382   1.000000
     13        -39.824469   1.000000
     14        -39.820338   1.000000
     15        -39.816059   1.000000
     16        -39.814572   1.000000
     17        -39.806403   1.000000
     18        -39.804004   1.000000
     19        -39.801801   1.000000
     20        -39.798657   1.000000
     21        -39.797454   1.000000
     22        -39.795400   1.000000
     23        -39.793936   1.000000
     24        -39.793263   1.000000
     25        -39.789712   1.000000
     26        -39.787742   1.000000
     27        -39.784712   1.000000
     28        -39.782694   1.000000
     29        -39.781511   1.000000
     30        -39.780973   1.000000
     31        -39.778062   1.000000
     32        -39.776928   1.000000
     33        -39.774832   1.000000
     34        -39.774427   1.000000
     35        -39.772963   1.000000
     36        -39.770184   1.000000
     37        -39.769300   1.000000
     38        -39.768603   1.000000
     39        -39.766832   1.000000
     40        -39.762845   1.000000
     41        -39.762153   1.000000
     42        -39.761234   1.000000
     43        -39.759623   1.000000
     44        -39.758324   1.000000
     45        -39.757180   1.000000
     46        -39.755981   1.000000
     47        -39.755485   1.000000
     48        -39.754878   1.000000
     49        -39.753560   1.000000
     50        -39.753037   1.000000
     51        -39.752461   1.000000
     52        -39.751686   1.000000
     53        -39.750618   1.000000
     54        -39.750128   1.000000
     55        -39.748720   1.000000
     56        -39.748323   1.000000
     57        -39.747101   1.000000
     58        -39.745714   1.000000
     59        -39.744524   1.000000
     60        -39.744310   1.000000
     61        -39.743429   1.000000
     62        -39.741578   1.000000
     63        -39.740528   1.000000
     64        -39.739307   1.000000
     65        -39.738505   1.000000
     66        -39.737768   1.000000
     67        -39.737392   1.000000
     68        -39.736422   1.000000
     69        -39.735522   1.000000
     70        -39.734541   1.000000
     71        -39.734252   1.000000
     72        -39.733466   1.000000
     73        -39.732040   1.000000
     74        -39.730586   1.000000
     75        -39.729734   1.000000
     76        -39.728502   1.000000
     77        -39.728289   1.000000
     78        -39.727526   1.000000
     79        -39.726919   1.000000
     80        -39.726262   1.000000
     81        -39.724746   1.000000
     82        -39.724420   1.000000
     83        -39.724065   1.000000
     84        -39.723029   1.000000
     85        -39.722423   1.000000
     86        -39.721955   1.000000
     87        -39.721612   1.000000
     88        -39.721117   1.000000
     89        -39.720689   1.000000
     90        -39.719143   1.000000
     91        -39.713535   1.000000
     92        -39.713033   1.000000
     93        -39.706171   1.000000
     94        -39.705993   1.000000
     95        -39.703094   1.000000
     96        -39.700719   1.000000
     97        -18.358327   1.000000
     98        -18.323200   1.000000
     99        -18.315371   1.000000
    100        -18.313387   1.000000
    101        -18.293241   1.000000
    102        -18.284785   1.000000
    103        -18.278781   1.000000
    104        -18.276010   1.000000
    105        -18.270964   1.000000
    106        -18.267248   1.000000
    107        -18.264667   1.000000
    108        -18.260203   1.000000
    109        -18.257435   1.000000
    110        -18.256417   1.000000
    111        -18.252117   1.000000
    112        -18.250949   1.000000
    113        -18.244552   1.000000
    114        -18.239655   1.000000
    115        -18.237348   1.000000
    116        -18.235434   1.000000
    117        -18.233049   1.000000
    118        -18.230899   1.000000
    119        -18.230324   1.000000
    120        -18.228834   1.000000
    121        -18.224363   1.000000
    122        -18.221835   1.000000
    123        -18.219047   1.000000
    124        -18.218434   1.000000
    125        -18.216636   1.000000
    126        -18.214874   1.000000
    127        -18.213249   1.000000
    128        -18.212589   1.000000
    129        -18.210318   1.000000
    130        -18.208637   1.000000
    131        -18.203497   1.000000
    132        -18.199659   1.000000
    133        -18.197362   1.000000
    134        -18.195519   1.000000
    135        -18.194818   1.000000
    136        -18.193605   1.000000
    137        -18.190086   1.000000
    138        -18.187606   1.000000
    139        -18.180934   1.000000
    140        -18.176015   1.000000
    141        -18.173403   1.000000
    142        -18.172547   1.000000
    143        -18.168325   1.000000
    144        -18.167255   1.000000
    145        -18.165655   1.000000
    146        -18.161157   1.000000
    147        -18.156364   1.000000
    148        -18.144909   1.000000
    149        -18.126635   1.000000
    150        -18.121902   1.000000
    151        -18.119997   1.000000
    152        -18.115802   1.000000
    153        -18.113532   1.000000
    154        -18.113188   1.000000
    155        -18.112287   1.000000
    156        -18.110665   1.000000
    157        -18.109688   1.000000
    158        -18.108927   1.000000
    159        -18.092516   1.000000
    160        -18.086918   1.000000
    161        -18.080302   1.000000
    162        -18.066181   1.000000
    163        -18.061916   1.000000
    164        -18.056115   1.000000
    165        -18.053637   1.000000
    166        -18.052108   1.000000
    167        -18.049837   1.000000
    168        -18.048359   1.000000
    169        -18.046900   1.000000
    170        -18.044833   1.000000
    171        -18.042853   1.000000
    172        -18.041327   1.000000
    173        -18.039237   1.000000
    174        -18.036278   1.000000
    175        -18.034421   1.000000
    176        -18.031131   1.000000
    177        -18.029998   1.000000
    178        -18.027594   1.000000
    179        -18.008065   1.000000
    180        -17.988244   1.000000
    181        -17.987305   1.000000
    182        -17.982169   1.000000
    183        -17.981243   1.000000
    184        -17.973631   1.000000
    185        -17.967994   1.000000
    186        -17.966382   1.000000
    187        -17.960068   1.000000
    188        -17.953540   1.000000
    189        -17.944080   1.000000
    190        -17.942103   1.000000
    191        -17.941298   1.000000
    192        -17.935256   1.000000
    193        -17.934108   1.000000
    194        -17.929359   1.000000
    195        -17.925582   1.000000
    196        -17.917558   1.000000
    197        -17.913421   1.000000
    198        -17.911754   1.000000
    199        -17.910107   1.000000
    200        -17.905178   1.000000
    201        -17.900282   1.000000
    202        -17.898375   1.000000
    203        -17.893142   1.000000
    204        -17.891497   1.000000
    205        -17.890377   1.000000
    206        -17.888163   1.000000
    207        -17.886426   1.000000
    208        -17.885289   1.000000
    209        -17.876460   1.000000
    210        -17.869992   1.000000
    211        -17.863541   1.000000
    212        -17.857893   1.000000
    213        -17.854518   1.000000
    214        -17.852233   1.000000
    215        -17.836961   1.000000
    216        -17.835163   1.000000
    217        -17.833557   1.000000
    218        -17.829337   1.000000
    219        -17.826608   1.000000
    220        -17.820818   1.000000
    221        -17.816745   1.000000
    222        -17.814199   1.000000
    223        -17.807083   1.000000
    224        -17.796971   1.000000
    225        -17.786711   1.000000
    226        -17.775571   1.000000
    227        -17.774634   1.000000
    228        -17.771232   1.000000
    229        -17.769044   1.000000
    230        -17.767046   1.000000
    231        -17.764171   1.000000
    232        -17.763178   1.000000
    233        -17.757842   1.000000
    234        -17.756734   1.000000
    235        -17.752263   1.000000
    236        -17.750680   1.000000
    237        -17.747830   1.000000
    238        -17.744987   1.000000
    239        -17.742437   1.000000
    240        -17.739863   1.000000
    241        -17.737897   1.000000
    242        -17.734555   1.000000
    243        -17.731849   1.000000
    244        -17.730592   1.000000
    245        -17.729355   1.000000
    246        -17.727577   1.000000
    247        -17.724795   1.000000
    248        -17.723313   1.000000
    249        -17.722819   1.000000
    250        -17.721626   1.000000
    251        -17.720432   1.000000
    252        -17.719363   1.000000
    253        -17.719080   1.000000
    254        -17.716255   1.000000
    255        -17.714806   1.000000
    256        -17.713476   1.000000
    257        -17.712047   1.000000
    258        -17.710897   1.000000
    259        -17.709782   1.000000
    260        -17.707877   1.000000
    261        -17.704414   1.000000
    262        -17.703128   1.000000
    263        -17.702189   1.000000
    264        -17.698179   1.000000
    265        -17.696094   1.000000
    266        -17.689797   1.000000
    267        -17.684800   1.000000
    268        -17.683762   1.000000
    269        -17.683206   1.000000
    270        -17.679354   1.000000
    271        -17.678747   1.000000
    272        -17.676639   1.000000
    273        -17.675508   1.000000
    274        -17.671851   1.000000
    275        -17.669797   1.000000
    276        -17.668516   1.000000
    277        -17.667544   1.000000
    278        -17.666061   1.000000
    279        -17.664059   1.000000
    280        -17.663038   1.000000
    281        -17.653788   1.000000
    282        -17.652307   1.000000
    283        -17.650158   1.000000
    284        -17.646105   1.000000
    285        -17.641575   1.000000
    286        -17.641309   1.000000
    287        -17.638202   1.000000
    288        -17.635021   1.000000
    289        -17.632595   1.000000
    290        -17.628397   1.000000
    291        -17.626495   1.000000
    292        -17.625094   1.000000
    293        -17.624367   1.000000
    294        -17.623192   1.000000
    295        -17.622355   1.000000
    296        -17.621125   1.000000
    297        -17.620306   1.000000
    298        -17.619325   1.000000
    299        -17.618280   1.000000
    300        -17.616977   1.000000
    301        -17.614541   1.000000
    302        -17.613047   1.000000
    303        -17.612233   1.000000
    304        -17.611344   1.000000
    305        -17.611157   1.000000
    306        -17.610387   1.000000
    307        -17.610071   1.000000
    308        -17.607292   1.000000
    309        -17.604736   1.000000
    310        -17.602330   1.000000
    311        -17.600836   1.000000
    312        -17.599346   1.000000
    313        -17.595655   1.000000
    314        -17.594334   1.000000
    315        -17.593254   1.000000
    316        -17.592717   1.000000
    317        -17.590956   1.000000
    318        -17.590584   1.000000
    319        -17.589408   1.000000
    320        -17.588250   1.000000
    321        -17.586954   1.000000
    322        -17.585560   1.000000
    323        -17.584514   1.000000
    324        -17.583843   1.000000
    325        -17.583033   1.000000
    326        -17.582261   1.000000
    327        -17.581094   1.000000
    328        -17.580841   1.000000
    329        -17.580524   1.000000
    330        -17.580227   1.000000
    331        -17.579373   1.000000
    332        -17.578642   1.000000
    333        -17.578058   1.000000
    334        -17.576708   1.000000
    335        -17.575175   1.000000
    336        -17.574107   1.000000
    337        -17.573100   1.000000
    338        -17.571157   1.000000
    339        -17.570546   1.000000
    340        -17.568040   1.000000
    341        -17.566005   1.000000
    342        -17.564437   1.000000
    343        -17.563724   1.000000
    344        -17.561286   1.000000
    345        -17.560538   1.000000
    346        -17.553769   1.000000
    347        -17.553384   1.000000
    348        -17.552081   1.000000
    349        -17.550609   1.000000
    350        -17.543766   1.000000
    351        -17.541920   1.000000
    352        -17.541044   1.000000
    353        -17.539562   1.000000
    354        -17.537652   1.000000
    355        -17.536109   1.000000
    356        -17.534980   1.000000
    357        -17.532937   1.000000
    358        -17.532537   1.000000
    359        -17.529014   1.000000
    360        -17.527203   1.000000
    361        -17.525612   1.000000
    362        -17.521347   1.000000
    363        -17.520091   1.000000
    364        -17.519165   1.000000
    365        -17.517573   1.000000
    366        -17.516051   1.000000
    367        -17.515321   1.000000
    368        -17.514986   1.000000
    369        -17.513131   1.000000
    370        -17.509599   1.000000
    371        -17.508773   1.000000
    372        -17.492092   1.000000
    373        -17.488005   1.000000
    374        -17.485910   1.000000
    375        -17.472648   1.000000
    376        -17.469432   1.000000
    377        -17.467235   1.000000
    378        -17.464981   1.000000
    379        -17.461656   1.000000
    380        -17.454423   1.000000
    381        -17.452047   1.000000
    382        -17.447068   1.000000
    383        -17.447008   1.000000
    384        -17.434524   1.000000
    385          2.481827   1.000000
    386          3.759348   1.000000
    387          4.026605   1.000000
    388          4.116159   1.000000
    389          4.199107   1.000000
    390          4.380362   1.000000
    391          4.480560   1.000000
    392          5.008182   1.000000
    393          5.151140   1.000000
    394          5.182516   1.000000
    395          5.312953   1.000000
    396          5.319459   1.000000
    397          5.333068   1.000000
    398          5.399555   1.000000
    399          5.563605   1.000000
    400          5.742699   1.000000
    401          5.790263   1.000000
    402          5.797859   1.000000
    403          5.818425   1.000000
    404          5.829311   1.000000
    405          5.857976   1.000000
    406          5.862879   1.000000
    407          5.910940   1.000000
    408          6.001108   1.000000
    409          6.005553   1.000000
    410          6.008971   1.000000
    411          6.035497   1.000000
    412          6.106522   1.000000
    413          6.107763   1.000000
    414          6.113881   1.000000
    415          6.116862   1.000000
    416          6.126847   1.000000
    417          6.133019   1.000000
    418          6.155903   1.000000
    419          6.159892   1.000000
    420          6.186517   1.000000
    421          6.208754   1.000000
    422          6.213063   1.000000
    423          6.229636   1.000000
    424          6.269977   1.000000
    425          6.290483   1.000000
    426          6.309282   1.000000
    427          6.312895   1.000000
    428          6.318713   1.000000
    429          6.336194   1.000000
    430          6.356081   1.000000
    431          6.396356   1.000000
    432          6.403609   1.000000
    433          6.440175   1.000000
    434          6.453569   1.000000
    435          6.468393   1.000000
    436          6.498277   1.000000
    437          6.516801   1.000000
    438          6.518615   1.000000
    439          6.528240   1.000000
    440          6.534150   1.000000
    441          6.542480   1.000000
    442          6.546394   1.000000
    443          6.560688   1.000000
    444          6.585573   1.000000
    445          6.594076   1.000000
    446          6.622213   1.000000
    447          6.640883   1.000000
    448          6.669630   1.000000
    449          6.674357   1.000000
    450          6.686742   1.000000
    451          6.696615   1.000000
    452          6.701280   1.000000
    453          6.745363   1.000000
    454          6.791024   1.000000
    455          6.809639   1.000000
    456          6.814618   1.000000
    457          6.841080   1.000000
    458          6.901035   1.000000
    459          6.906393   1.000000
    460          6.910464   1.000000
    461          6.924494   1.000000
    462          6.954582   1.000000
    463          7.003025   1.000000
    464          7.004306   1.000000
    465          7.016618   1.000000
    466          7.045795   1.000000
    467          7.059304   1.000000
    468          7.122460   1.000000
    469          7.136330   1.000000
    470          7.197878   1.000000
    471          7.200227   1.000000
    472          7.205617   1.000000
    473          7.206905   1.000000
    474          7.218313   1.000000
    475          7.225568   1.000000
    476          7.239816   1.000000
    477          7.254559   1.000000
    478          7.261091   1.000000
    479          7.271360   1.000000
    480          7.280279   1.000000
    481          7.295686   1.000000
    482          7.306835   1.000000
    483          7.308949   1.000000
    484          7.334949   1.000000
    485          7.337879   1.000000
    486          7.356811   1.000000
    487          7.363096   1.000000
    488          7.389633   1.000000
    489          7.407129   1.000000
    490          7.416256   1.000000
    491          7.428318   1.000000
    492          7.445311   1.000000
    493          7.460596   1.000000
    494          7.483204   1.000000
    495          7.489041   1.000000
    496          7.543784   1.000000
    497          7.586950   1.000000
    498          7.591569   1.000000
    499          7.618975   1.000000
    500          7.640051   1.000000
    501          7.659580   1.000000
    502          7.694054   1.000000
    503          7.724498   1.000000
    504          7.760719   1.000000
    505          7.785393   1.000000
    506          7.789664   1.000000
    507          7.793187   1.000000
    508          7.794386   1.000000
    509          7.804830   1.000000
    510          7.820625   1.000000
    511          7.835947   1.000000
    512          7.853495   1.000000
    513          7.865124   1.000000
    514          7.867535   1.000000
    515          7.885140   1.000000
    516          7.918861   1.000000
    517          7.925898   1.000000
    518          7.934016   1.000000
    519          7.944962   1.000000
    520          7.952081   1.000000
    521          7.966537   1.000000
    522          7.979500   1.000000
    523          8.005177   1.000000
    524          8.029441   1.000000
    525          8.036513   1.000000
    526          8.056523   1.000000
    527          8.080639   1.000000
    528          8.100882   1.000000
    529          8.109349   1.000000
    530          8.122067   1.000000
    531          8.129519   1.000000
    532          8.134166   1.000000
    533          8.137652   1.000000
    534          8.143404   1.000000
    535          8.163869   1.000000
    536          8.189269   1.000000
    537          8.201323   1.000001
    538          8.209983   1.000001
    539          8.212478   1.000001
    540          8.231567   1.000002
    541          8.236968   1.000002
    542          8.243121   1.000003
    543          8.244373   1.000003
    544          8.253527   1.000004
    545          8.261601   1.000005
    546          8.271585   1.000007
    547          8.288098   1.000012
    548          8.305712   1.000020
    549          8.306053   1.000021
    550          8.312286   1.000025
    551          8.319083   1.000031
    552          8.331627   1.000044
    553          8.336937   1.000052
    554          8.345204   1.000066
    555          8.348038   1.000071
    556          8.350200   1.000076
    557          8.353163   1.000082
    558          8.354905   1.000087
    559          8.358983   1.000097
    560          8.366004   1.000118
    561          8.389970   1.000224
    562          8.395450   1.000259
    563          8.586104   1.012318
    564          8.623717   1.019894
    565          8.632533   1.021893
    566          8.702371   1.035077
    567          8.710568   1.035441
    568          8.786384   1.003059
    569          8.790527   0.998574
    570          8.816662   0.961537
    571          8.842225   0.909420
    572          8.851058   0.887586
    573          8.864527   0.850549
    574          8.869938   0.834425
    575          8.872726   0.825848
    576          8.878691   0.806892
    577          8.927575   0.625561
    578          8.937023   0.586651
    579          9.015828   0.264891
    580          9.024555   0.233598
    581          9.029908   0.215155
    582          9.037786   0.189122
    583          9.042286   0.174871
    584          9.080658   0.073289
    585          9.095207   0.044413
    586          9.118175   0.009248
    587          9.164055  -0.028152
    588          9.171280  -0.030840
    589          9.189413  -0.034730
    590          9.204261  -0.035447
    591          9.222687  -0.034103
    592          9.235031  -0.032235
    593          9.240528  -0.031229
    594          9.247214  -0.029896
    595          9.259647  -0.027198
    596          9.276203  -0.023394
    597          9.281947  -0.022069
    598          9.294986  -0.019125
    599          9.297210  -0.018637
    600          9.299649  -0.018108
    601          9.309161  -0.016109
    602          9.311415  -0.015652
    603          9.315996  -0.014746
    604          9.318249  -0.014311
    605          9.322189  -0.013569
    606          9.328435  -0.012441
    607          9.331852  -0.011850
    608          9.342491  -0.010129
    609          9.345848  -0.009624
    610          9.353737  -0.008508
    611          9.375752  -0.005900
    612          9.416176  -0.002779
    613          9.420138  -0.002567
    614          9.462097  -0.001047
    615          9.480388  -0.000686
    616          9.485786  -0.000603
    617          9.501090  -0.000415
    618          9.506738  -0.000361
    619          9.508662  -0.000344
    620          9.517621  -0.000273
    621          9.527786  -0.000210
    622          9.531978  -0.000188
    623          9.551320  -0.000111
    624          9.559335  -0.000089
    625          9.571749  -0.000063
    626          9.577710  -0.000053
    627          9.585387  -0.000042
    628          9.588326  -0.000039
    629          9.598668  -0.000028
    630          9.607927  -0.000021
    631          9.616545  -0.000016
    632          9.619072  -0.000015
    633          9.623050  -0.000013
    634          9.637083  -0.000009
    635          9.663308  -0.000004
    636          9.686198  -0.000002
    637          9.698171  -0.000001
    638          9.713112  -0.000001
    639          9.724303  -0.000000
    640          9.739484  -0.000000
    641          9.750596  -0.000000
    642          9.759981  -0.000000
    643          9.766145  -0.000000
    644          9.786168  -0.000000
    645          9.797024  -0.000000
    646          9.806401  -0.000000
    647          9.812792  -0.000000
    648          9.830271  -0.000000
    649          9.841402  -0.000000
    650          9.856407  -0.000000
    651          9.877378  -0.000000
    652          9.880915  -0.000000
    653          9.883574  -0.000000
    654          9.897584  -0.000000
    655          9.900198  -0.000000
    656          9.907933  -0.000000
    657          9.919296  -0.000000
    658          9.925023  -0.000000
    659          9.944048  -0.000000
    660          9.953601  -0.000000
    661          9.963094  -0.000000
    662          9.995122  -0.000000
    663         10.005656  -0.000000
    664         10.021117  -0.000000
    665         10.031309  -0.000000
    666         10.040669  -0.000000
    667         10.046254  -0.000000
    668         10.063445  -0.000000
    669         10.067697  -0.000000
    670         10.070494  -0.000000
    671         10.078244  -0.000000
    672         10.082788  -0.000000
    673         10.086752  -0.000000
    674         10.098377  -0.000000
    675         10.102471  -0.000000
    676         10.114027  -0.000000
    677         10.118607  -0.000000
    678         10.123381  -0.000000
    679         10.130715  -0.000000
    680         10.136875  -0.000000
    681         10.139423  -0.000000
    682         10.147780  -0.000000
    683         10.161460  -0.000000
    684         10.168105  -0.000000
    685         10.169899  -0.000000
    686         10.175412  -0.000000
    687         10.178286  -0.000000
    688         10.189250  -0.000000
    689         10.191647  -0.000000
    690         10.196528  -0.000000
    691         10.207017  -0.000000
 
  0.5000000E+00 -0.2500000E+00  0.3333333E+00  0.4166667E-01
      1        -39.913087   1.000000
      2        -39.892701   1.000000
      3        -39.878827   1.000000
      4        -39.869542   1.000000
      5        -39.868338   1.000000
      6        -39.858455   1.000000
      7        -39.855910   1.000000
      8        -39.849786   1.000000
      9        -39.840268   1.000000
     10        -39.836344   1.000000
     11        -39.826413   1.000000
     12        -39.825415   1.000000
     13        -39.824395   1.000000
     14        -39.820396   1.000000
     15        -39.816068   1.000000
     16        -39.814394   1.000000
     17        -39.806459   1.000000
     18        -39.803995   1.000000
     19        -39.801789   1.000000
     20        -39.798827   1.000000
     21        -39.797398   1.000000
     22        -39.795089   1.000000
     23        -39.794008   1.000000
     24        -39.793345   1.000000
     25        -39.789686   1.000000
     26        -39.787730   1.000000
     27        -39.784714   1.000000
     28        -39.782665   1.000000
     29        -39.781475   1.000000
     30        -39.780980   1.000000
     31        -39.778155   1.000000
     32        -39.776867   1.000000
     33        -39.774886   1.000000
     34        -39.774500   1.000000
     35        -39.773027   1.000000
     36        -39.770249   1.000000
     37        -39.769310   1.000000
     38        -39.768330   1.000000
     39        -39.766809   1.000000
     40        -39.762794   1.000000
     41        -39.762200   1.000000
     42        -39.761285   1.000000
     43        -39.759723   1.000000
     44        -39.758333   1.000000
     45        -39.757263   1.000000
     46        -39.755953   1.000000
     47        -39.755436   1.000000
     48        -39.754860   1.000000
     49        -39.753415   1.000000
     50        -39.753111   1.000000
     51        -39.752424   1.000000
     52        -39.751704   1.000000
     53        -39.750701   1.000000
     54        -39.750122   1.000000
     55        -39.748812   1.000000
     56        -39.748290   1.000000
     57        -39.747215   1.000000
     58        -39.745636   1.000000
     59        -39.744518   1.000000
     60        -39.744286   1.000000
     61        -39.743262   1.000000
     62        -39.741673   1.000000
     63        -39.740524   1.000000
     64        -39.739251   1.000000
     65        -39.738526   1.000000
     66        -39.737848   1.000000
     67        -39.737376   1.000000
     68        -39.736433   1.000000
     69        -39.735521   1.000000
     70        -39.734563   1.000000
     71        -39.734246   1.000000
     72        -39.733379   1.000000
     73        -39.732041   1.000000
     74        -39.730645   1.000000
     75        -39.729688   1.000000
     76        -39.728519   1.000000
     77        -39.728180   1.000000
     78        -39.727561   1.000000
     79        -39.726947   1.000000
     80        -39.726222   1.000000
     81        -39.724639   1.000000
     82        -39.724478   1.000000
     83        -39.724130   1.000000
     84        -39.723097   1.000000
     85        -39.722474   1.000000
     86        -39.721900   1.000000
     87        -39.721687   1.000000
     88        -39.721178   1.000000
     89        -39.720603   1.000000
     90        -39.719128   1.000000
     91        -39.713437   1.000000
     92        -39.713089   1.000000
     93        -39.706161   1.000000
     94        -39.706005   1.000000
     95        -39.703095   1.000000
     96        -39.700726   1.000000
     97        -18.358326   1.000000
     98        -18.323222   1.000000
     99        -18.315410   1.000000
    100        -18.313356   1.000000
    101        -18.293208   1.000000
    102        -18.284819   1.000000
    103        -18.278720   1.000000
    104        -18.276014   1.000000
    105        -18.270976   1.000000
    106        -18.267253   1.000000
    107        -18.264614   1.000000
    108        -18.260183   1.000000
    109        -18.257504   1.000000
    110        -18.256475   1.000000
    111        -18.252086   1.000000
    112        -18.250930   1.000000
    113        -18.244439   1.000000
    114        -18.239719   1.000000
    115        -18.237196   1.000000
    116        -18.235469   1.000000
    117        -18.233146   1.000000
    118        -18.231024   1.000000
    119        -18.230273   1.000000
    120        -18.228863   1.000000
    121        -18.224348   1.000000
    122        -18.221909   1.000000
    123        -18.219092   1.000000
    124        -18.218394   1.000000
    125        -18.216638   1.000000
    126        -18.214918   1.000000
    127        -18.213200   1.000000
    128        -18.212501   1.000000
    129        -18.210300   1.000000
    130        -18.208583   1.000000
    131        -18.203534   1.000000
    132        -18.199705   1.000000
    133        -18.197365   1.000000
    134        -18.195495   1.000000
    135        -18.194876   1.000000
    136        -18.193618   1.000000
    137        -18.190064   1.000000
    138        -18.187522   1.000000
    139        -18.180969   1.000000
    140        -18.175992   1.000000
    141        -18.173467   1.000000
    142        -18.172564   1.000000
    143        -18.168364   1.000000
    144        -18.167171   1.000000
    145        -18.165600   1.000000
    146        -18.161186   1.000000
    147        -18.156383   1.000000
    148        -18.144900   1.000000
    149        -18.126687   1.000000
    150        -18.121787   1.000000
    151        -18.120010   1.000000
    152        -18.115738   1.000000
    153        -18.113574   1.000000
    154        -18.113263   1.000000
    155        -18.112397   1.000000
    156        -18.110665   1.000000
    157        -18.109736   1.000000
    158        -18.108841   1.000000
    159        -18.092488   1.000000
    160        -18.086875   1.000000
    161        -18.080316   1.000000
    162        -18.066195   1.000000
    163        -18.061898   1.000000
    164        -18.056021   1.000000
    165        -18.053587   1.000000
    166        -18.052266   1.000000
    167        -18.049936   1.000000
    168        -18.048296   1.000000
    169        -18.046885   1.000000
    170        -18.044906   1.000000
    171        -18.042871   1.000000
    172        -18.041216   1.000000
    173        -18.039201   1.000000
    174        -18.036303   1.000000
    175        -18.034432   1.000000
    176        -18.031177   1.000000
    177        -18.029976   1.000000
    178        -18.027571   1.000000
    179        -18.008104   1.000000
    180        -17.988212   1.000000
    181        -17.987273   1.000000
    182        -17.982117   1.000000
    183        -17.981296   1.000000
    184        -17.973586   1.000000
    185        -17.968060   1.000000
    186        -17.966313   1.000000
    187        -17.960126   1.000000
    188        -17.953600   1.000000
    189        -17.944072   1.000000
    190        -17.942051   1.000000
    191        -17.941305   1.000000
    192        -17.935255   1.000000
    193        -17.934084   1.000000
    194        -17.929286   1.000000
    195        -17.925649   1.000000
    196        -17.917612   1.000000
    197        -17.913436   1.000000
    198        -17.911715   1.000000
    199        -17.910123   1.000000
    200        -17.905116   1.000000
    201        -17.900275   1.000000
    202        -17.898257   1.000000
    203        -17.893201   1.000000
    204        -17.891509   1.000000
    205        -17.890392   1.000000
    206        -17.888200   1.000000
    207        -17.886576   1.000000
    208        -17.885195   1.000000
    209        -17.876450   1.000000
    210        -17.869996   1.000000
    211        -17.863507   1.000000
    212        -17.857904   1.000000
    213        -17.854582   1.000000
    214        -17.852095   1.000000
    215        -17.836983   1.000000
    216        -17.835180   1.000000
    217        -17.833558   1.000000
    218        -17.829332   1.000000
    219        -17.826696   1.000000
    220        -17.820795   1.000000
    221        -17.816725   1.000000
    222        -17.814183   1.000000
    223        -17.806988   1.000000
    224        -17.797013   1.000000
    225        -17.786731   1.000000
    226        -17.775720   1.000000
    227        -17.774656   1.000000
    228        -17.771206   1.000000
    229        -17.769051   1.000000
    230        -17.767040   1.000000
    231        -17.764106   1.000000
    232        -17.763053   1.000000
    233        -17.757784   1.000000
    234        -17.756769   1.000000
    235        -17.752323   1.000000
    236        -17.750662   1.000000
    237        -17.747883   1.000000
    238        -17.745059   1.000000
    239        -17.742441   1.000000
    240        -17.739915   1.000000
    241        -17.737912   1.000000
    242        -17.734521   1.000000
    243        -17.731820   1.000000
    244        -17.730585   1.000000
    245        -17.729403   1.000000
    246        -17.727483   1.000000
    247        -17.724792   1.000000
    248        -17.723168   1.000000
    249        -17.722675   1.000000
    250        -17.721667   1.000000
    251        -17.720439   1.000000
    252        -17.719338   1.000000
    253        -17.719042   1.000000
    254        -17.716351   1.000000
    255        -17.714913   1.000000
    256        -17.713462   1.000000
    257        -17.711987   1.000000
    258        -17.711002   1.000000
    259        -17.709807   1.000000
    260        -17.707837   1.000000
    261        -17.704290   1.000000
    262        -17.703214   1.000000
    263        -17.702182   1.000000
    264        -17.698182   1.000000
    265        -17.696153   1.000000
    266        -17.689959   1.000000
    267        -17.684809   1.000000
    268        -17.683720   1.000000
    269        -17.683299   1.000000
    270        -17.679346   1.000000
    271        -17.678684   1.000000
    272        -17.676587   1.000000
    273        -17.675544   1.000000
    274        -17.671889   1.000000
    275        -17.669783   1.000000
    276        -17.668511   1.000000
    277        -17.667500   1.000000
    278        -17.666149   1.000000
    279        -17.664055   1.000000
    280        -17.663016   1.000000
    281        -17.653762   1.000000
    282        -17.652222   1.000000
    283        -17.650226   1.000000
    284        -17.646116   1.000000
    285        -17.641584   1.000000
    286        -17.641233   1.000000
    287        -17.638180   1.000000
    288        -17.635015   1.000000
    289        -17.632674   1.000000
    290        -17.628281   1.000000
    291        -17.626431   1.000000
    292        -17.625090   1.000000
    293        -17.624350   1.000000
    294        -17.623203   1.000000
    295        -17.622377   1.000000
    296        -17.621197   1.000000
    297        -17.620295   1.000000
    298        -17.619423   1.000000
    299        -17.618235   1.000000
    300        -17.617000   1.000000
    301        -17.614608   1.000000
    302        -17.613036   1.000000
    303        -17.612206   1.000000
    304        -17.611349   1.000000
    305        -17.611154   1.000000
    306        -17.610280   1.000000
    307        -17.610134   1.000000
    308        -17.607339   1.000000
    309        -17.604735   1.000000
    310        -17.602265   1.000000
    311        -17.600989   1.000000
    312        -17.599256   1.000000
    313        -17.595555   1.000000
    314        -17.594289   1.000000
    315        -17.593356   1.000000
    316        -17.592701   1.000000
    317        -17.590984   1.000000
    318        -17.590519   1.000000
    319        -17.589464   1.000000
    320        -17.588265   1.000000
    321        -17.586875   1.000000
    322        -17.585439   1.000000
    323        -17.584621   1.000000
    324        -17.583850   1.000000
    325        -17.583138   1.000000
    326        -17.582256   1.000000
    327        -17.581110   1.000000
    328        -17.580812   1.000000
    329        -17.580546   1.000000
    330        -17.580219   1.000000
    331        -17.579353   1.000000
    332        -17.578737   1.000000
    333        -17.578065   1.000000
    334        -17.576739   1.000000
    335        -17.575083   1.000000
    336        -17.574140   1.000000
    337        -17.573097   1.000000
    338        -17.571281   1.000000
    339        -17.570567   1.000000
    340        -17.568047   1.000000
    341        -17.565973   1.000000
    342        -17.564415   1.000000
    343        -17.563656   1.000000
    344        -17.561262   1.000000
    345        -17.560424   1.000000
    346        -17.553757   1.000000
    347        -17.553379   1.000000
    348        -17.552065   1.000000
    349        -17.550582   1.000000
    350        -17.543875   1.000000
    351        -17.541944   1.000000
    352        -17.541047   1.000000
    353        -17.539440   1.000000
    354        -17.537636   1.000000
    355        -17.536156   1.000000
    356        -17.535033   1.000000
    357        -17.532974   1.000000
    358        -17.532507   1.000000
    359        -17.528913   1.000000
    360        -17.527224   1.000000
    361        -17.525701   1.000000
    362        -17.521321   1.000000
    363        -17.520033   1.000000
    364        -17.519182   1.000000
    365        -17.517593   1.000000
    366        -17.516015   1.000000
    367        -17.515406   1.000000
    368        -17.514966   1.000000
    369        -17.513104   1.000000
    370        -17.509630   1.000000
    371        -17.508706   1.000000
    372        -17.492130   1.000000
    373        -17.488074   1.000000
    374        -17.485869   1.000000
    375        -17.472713   1.000000
    376        -17.469446   1.000000
    377        -17.467070   1.000000
    378        -17.464952   1.000000
    379        -17.461702   1.000000
    380        -17.454471   1.000000
    381        -17.451924   1.000000
    382        -17.447146   1.000000
    383        -17.447020   1.000000
    384        -17.434550   1.000000
    385          2.481822   1.000000
    386          3.759369   1.000000
    387          4.026639   1.000000
    388          4.116054   1.000000
    389          4.199187   1.000000
    390          4.380265   1.000000
    391          4.480627   1.000000
    392          5.008187   1.000000
    393          5.151144   1.000000
    394          5.182522   1.000000
    395          5.312860   1.000000
    396          5.319463   1.000000
    397          5.333081   1.000000
    398          5.399593   1.000000
    399          5.563612   1.000000
    400          5.742845   1.000000
    401          5.790209   1.000000
    402          5.797919   1.000000
    403          5.818426   1.000000
    404          5.829452   1.000000
    405          5.857947   1.000000
    406          5.862799   1.000000
    407          5.910831   1.000000
    408          6.001175   1.000000
    409          6.005452   1.000000
    410          6.009012   1.000000
    411          6.035462   1.000000
    412          6.106536   1.000000
    413          6.107849   1.000000
    414          6.113867   1.000000
    415          6.116812   1.000000
    416          6.126804   1.000000
    417          6.133002   1.000000
    418          6.155846   1.000000
    419          6.159978   1.000000
    420          6.186288   1.000000
    421          6.208692   1.000000
    422          6.213215   1.000000
    423          6.229619   1.000000
    424          6.269737   1.000000
    425          6.290787   1.000000
    426          6.309357   1.000000
    427          6.312912   1.000000
    428          6.318724   1.000000
    429          6.336191   1.000000
    430          6.356107   1.000000
    431          6.396302   1.000000
    432          6.403538   1.000000
    433          6.440273   1.000000
    434          6.453533   1.000000
    435          6.468492   1.000000
    436          6.498207   1.000000
    437          6.516809   1.000000
    438          6.518656   1.000000
    439          6.528137   1.000000
    440          6.534254   1.000000
    441          6.542471   1.000000
    442          6.546517   1.000000
    443          6.560521   1.000000
    444          6.585528   1.000000
    445          6.594092   1.000000
    446          6.622046   1.000000
    447          6.640950   1.000000
    448          6.669730   1.000000
    449          6.674530   1.000000
    450          6.686776   1.000000
    451          6.696623   1.000000
    452          6.701228   1.000000
    453          6.745310   1.000000
    454          6.791102   1.000000
    455          6.809437   1.000000
    456          6.814712   1.000000
    457          6.841142   1.000000
    458          6.900881   1.000000
    459          6.906521   1.000000
    460          6.910416   1.000000
    461          6.924463   1.000000
    462          6.954524   1.000000
    463          7.003082   1.000000
    464          7.004331   1.000000
    465          7.016457   1.000000
    466          7.045808   1.000000
    467          7.059123   1.000000
    468          7.122495   1.000000
    469          7.136361   1.000000
    470          7.197904   1.000000
    471          7.200263   1.000000
    472          7.205546   1.000000
    473          7.207108   1.000000
    474          7.218129   1.000000
    475          7.225583   1.000000
    476          7.239780   1.000000
    477          7.254701   1.000000
    478          7.261155   1.000000
    479          7.271334   1.000000
    480          7.280294   1.000000
    481          7.295476   1.000000
    482          7.306891   1.000000
    483          7.308865   1.000000
    484          7.335120   1.000000
    485          7.337682   1.000000
    486          7.357062   1.000000
    487          7.363227   1.000000
    488          7.389572   1.000000
    489          7.406813   1.000000
    490          7.416111   1.000000
    491          7.428420   1.000000
    492          7.445551   1.000000
    493          7.460645   1.000000
    494          7.483188   1.000000
    495          7.489073   1.000000
    496          7.543935   1.000000
    497          7.587110   1.000000
    498          7.591426   1.000000
    499          7.618811   1.000000
    500          7.640124   1.000000
    501          7.659679   1.000000
    502          7.694250   1.000000
    503          7.724458   1.000000
    504          7.760902   1.000000
    505          7.785021   1.000000
    506          7.789412   1.000000
    507          7.793298   1.000000
    508          7.794409   1.000000
    509          7.804635   1.000000
    510          7.820739   1.000000
    511          7.835871   1.000000
    512          7.853494   1.000000
    513          7.865106   1.000000
    514          7.867670   1.000000
    515          7.885484   1.000000
    516          7.918644   1.000000
    517          7.925835   1.000000
    518          7.933868   1.000000
    519          7.945001   1.000000
    520          7.952012   1.000000
    521          7.966930   1.000000
    522          7.979435   1.000000
    523          8.004731   1.000000
    524          8.029292   1.000000
    525          8.036709   1.000000
    526          8.056676   1.000000
    527          8.080833   1.000000
    528          8.101016   1.000000
    529          8.109362   1.000000
    530          8.122059   1.000000
    531          8.129527   1.000000
    532          8.134130   1.000000
    533          8.137696   1.000000
    534          8.143331   1.000000
    535          8.163847   1.000000
    536          8.189356   1.000000
    537          8.201325   1.000001
    538          8.210250   1.000001
    539          8.212142   1.000001
    540          8.231402   1.000002
    541          8.237053   1.000002
    542          8.243342   1.000003
    543          8.244463   1.000003
    544          8.253553   1.000004
    545          8.261600   1.000005
    546          8.271409   1.000007
    547          8.288132   1.000012
    548          8.305264   1.000020
    549          8.306118   1.000021
    550          8.312132   1.000025
    551          8.319183   1.000031
    552          8.331524   1.000044
    553          8.336882   1.000052
    554          8.345155   1.000066
    555          8.347693   1.000071
    556          8.350467   1.000076
    557          8.353114   1.000082
    558          8.355112   1.000087
    559          8.359119   1.000097
    560          8.366121   1.000118
    561          8.390076   1.000225
    562          8.395313   1.000258
    563          8.586146   1.012325
    564          8.624006   1.019958
    565          8.632248   1.021828
    566          8.702443   1.035082
    567          8.710599   1.035442
    568          8.786007   1.003449
    569          8.790677   0.998406
    570          8.816337   0.962096
    571          8.842187   0.909508
    572          8.851061   0.887580
    573          8.864942   0.849337
    574          8.869799   0.834848
    575          8.872864   0.825419
    576          8.878980   0.805954
    577          8.927394   0.626296
    578          8.936939   0.586999
    579          9.015726   0.265265
    580          9.024441   0.233998
    581          9.029626   0.216112
    582          9.037970   0.188528
    583          9.042429   0.174426
    584          9.080367   0.073922
    585          9.095448   0.043979
    586          9.118179   0.009243
    587          9.163582  -0.027950
    588          9.171542  -0.030924
    589          9.189399  -0.034728
    590          9.204538  -0.035443
    591          9.222488  -0.034128
    592          9.235051  -0.032232
    593          9.240643  -0.031207
    594          9.247054  -0.029929
    595          9.259596  -0.027209
    596          9.276039  -0.023432
    597          9.282105  -0.022032
    598          9.295272  -0.019062
    599          9.297166  -0.018647
    600          9.299802  -0.018075
    601          9.309368  -0.016067
    602          9.311104  -0.015715
    603          9.316604  -0.014628
    604          9.318561  -0.014252
    605          9.322074  -0.013590
    606          9.327968  -0.012524
    607          9.332079  -0.011812
    608          9.342104  -0.010189
    609          9.345960  -0.009608
    610          9.353307  -0.008567
    611          9.376038  -0.005871
    612          9.416149  -0.002780
    613          9.419886  -0.002580
    614          9.461980  -0.001050
    615          9.480594  -0.000683
    616          9.485911  -0.000601
    617          9.501152  -0.000415
    618          9.507075  -0.000358
    619          9.508969  -0.000341
    620          9.517094  -0.000277
    621          9.527495  -0.000211
    622          9.531947  -0.000188
    623          9.551998  -0.000109
    624          9.558976  -0.000090
    625          9.571564  -0.000063
    626          9.577919  -0.000052
    627          9.585104  -0.000042
    628          9.588627  -0.000038
    629          9.598491  -0.000028
    630          9.608097  -0.000021
    631          9.616242  -0.000017
    632          9.619422  -0.000015
    633          9.623046  -0.000013
    634          9.636828  -0.000009
    635          9.663346  -0.000004
    636          9.686294  -0.000002
    637          9.698112  -0.000001
    638          9.712778  -0.000001
    639          9.724428  -0.000000
    640          9.739313  -0.000000
    641          9.750698  -0.000000
    642          9.759992  -0.000000
    643          9.765931  -0.000000
    644          9.786132  -0.000000
    645          9.796726  -0.000000
    646          9.806520  -0.000000
    647          9.813041  -0.000000
    648          9.830669  -0.000000
    649          9.841446  -0.000000
    650          9.856548  -0.000000
    651          9.877073  -0.000000
    652          9.880956  -0.000000
    653          9.883642  -0.000000
    654          9.898016  -0.000000
    655          9.900305  -0.000000
    656          9.908016  -0.000000
    657          9.919227  -0.000000
    658          9.924610  -0.000000
    659          9.943843  -0.000000
    660          9.953839  -0.000000
    661          9.963275  -0.000000
    662          9.994842  -0.000000
    663         10.005720  -0.000000
    664         10.021071  -0.000000
    665         10.031339  -0.000000
    666         10.040942  -0.000000
    667         10.046489  -0.000000
    668         10.063423  -0.000000
    669         10.067728  -0.000000
    670         10.070729  -0.000000
    671         10.077921  -0.000000
    672         10.082760  -0.000000
    673         10.086737  -0.000000
    674         10.098444  -0.000000
    675         10.102510  -0.000000
    676         10.113678  -0.000000
    677         10.118824  -0.000000
    678         10.123494  -0.000000
    679         10.130827  -0.000000
    680         10.136481  -0.000000
    681         10.139476  -0.000000
    682         10.147586  -0.000000
    683         10.161977  -0.000000
    684         10.168100  -0.000000
    685         10.169955  -0.000000
    686         10.175260  -0.000000
    687         10.178095  -0.000000
    688         10.189112  -0.000000
    689         10.191800  -0.000000
    690         10.196817  -0.000000
    691         10.208848  -0.000000
