TT_c image 03
1.0
      6.46831269532822    -11.20344622755126      0.00000000000000
      6.46831269532822     11.20344622755126      0.00000000000000
      0.00000000000000      0.00000000000000     15.49806442517753
  Zr  H
  96  1
Direct
      0.08320970910213      0.16623496063884      0.08336636114084
      0.16682400750106      0.08345795351996      0.24997882878197
      0.08269009173544      0.16624983310301      0.41613894345758
      0.16641491222698      0.08304302636585      0.58325565292510
      0.08273294022845      0.16649611092572      0.75050817690769
      0.16689629411514      0.08356512454748      0.91660211640522
      0.08320971149113      0.41697475027380      0.08336636083925
      0.16600081928510      0.33300040853415      0.24943246292628
      0.08269008794698      0.41644025836657      0.41613893940418
      0.16291830358098      0.33145915042752      0.58285957461053
      0.08273293610973      0.41623682994381      0.75050818000914
      0.16576051009663      0.33288025330445      0.91735763331714
      0.08331029497741      0.66668570611809      0.08329113471097
      0.16682400859993      0.58336605892315      0.24997883136570
      0.08340966621349      0.66666201783473      0.41655646776772
      0.16641491338315      0.58337188857610      0.58325565312711
      0.08340313768550      0.66664787253022      0.75004163920397
      0.16689629451198      0.58333117369586      0.91660211272626
      0.08331029423041      0.91662458744796      0.08329113439911
      0.16662851584663      0.83331425596365      0.24995070532860
      0.08340966595888      0.91674764873850      0.41655646692929
      0.16668813042149      0.83334406579549      0.58332925634994
      0.08340313955865      0.91675526684511      0.75004164096331
      0.16662939896744      0.83331469711244      0.91669862223146
      0.33315465691075      0.16638268984984      0.08335044352324
      0.41678344269241      0.08310401037604      0.24979821368828
      0.33363235573296      0.16634592124426      0.41626930071818
      0.41678349048714      0.08251697064517      0.58336295151142
      0.33385097919972      0.16650646586855      0.75039018684127
      0.41675790539311      0.08306457886750      0.91693204057967
      0.33324458063999      0.41662228568520      0.08341382842120
      0.41689999600976      0.33288974121673      0.24932916198893
      0.33340916063095      0.41670458066633      0.41306666559755
      0.41842654044701      0.33151946203012      0.58286874189395
      0.33341642893025      0.41670821543313      0.75411964278923
      0.41699056176721      0.33275756301720      0.91742463748187
      0.33315465582529      0.66677197508344      0.08335044307435
      0.41690000161227      0.58401025503234      0.24932915890797
      0.33363235397272      0.66728643682621      0.41626929858468
      0.41842652739788      0.58690707058575      0.58286874165121
      0.33385097843589      0.66734451612673      0.75039018874336
      0.41699056610255      0.58423299828385      0.91742464093829
      0.33302194719192      0.91651097143943      0.08340755769432
      0.41678344940398      0.83367943837477      0.24979821384380
      0.33349515838108      0.91674757687079      0.41638002516447
      0.41678348010136      0.83426651372069      0.58336295119209
      0.33348950527647      0.91674475090735      0.75033797853648
      0.41675791242057      0.83369333399199      0.91693204104322
      0.58335957742155      0.16667967703102      0.08335537679930
      0.66669208562750      0.08334603617220      0.25005328291679
      0.58343145038916      0.16658151101200      0.41683619342052
      0.66673439842995      0.08336719600427      0.58333898819658
      0.58347793008054      0.16647771524298      0.74998860501486
      0.66672182354260      0.08336090591313      0.91670536415673
      0.58363733423636      0.41684850272391      0.08337292008623
      0.66681729865600      0.33327364324405      0.24984177237678
      0.58370537398595      0.41630854553968      0.41616417830164
      0.66740684392016      0.33327527362370      0.58336734197401
      0.58351037292400      0.41609174686426      0.75050225522921
      0.66683301887079      0.33329871284793      0.91687025054829
      0.58363733837788      0.66678884171696      0.08337292026479
      0.66642269417349      0.58321134758884      0.24999109599033
      0.58370537262592      0.66739682621822      0.41616417999061
      0.66696723214914      0.58348361891281      0.58326803518647
      0.58351037094817      0.66741862302014      0.75050225432388
      0.66625537965760      0.58312769018171      0.91660764307037
      0.58335958515160      0.91667989701741      0.08335537766457
      0.66681730415966      0.83354366053777      0.24984177495150
      0.58343145409803      0.91684993846000      0.41683619199328
      0.66740684296022      0.83413157333209      0.58336734118305
      0.58347793424888      0.91700021466999      0.74998860609396
      0.66683302325189      0.83353430891011      0.91687024906062
      0.83334831604657      0.16667415542445      0.08334673837509
      0.91644406909988      0.08313508061691      0.24973286693545
      0.83327250287908      0.16663624406209      0.41675578105962
      0.91580260899288      0.08256865388282      0.58335379362824
      0.83317396917319      0.16658697895364      0.75001400243646
      0.91645043351142      0.08309564444770      0.91698342792684
      0.83342870867844      0.41688213802904      0.08340219916553
      0.91644407406522      0.33330898792528      0.24973286878296
      0.83325129438750      0.41649805943362      0.41638484769248
      0.91580260996869      0.33323396001221      0.58335379407549
      0.83324675658864      0.41648926073062      0.75032956192112
      0.91645043658558      0.33335478754850      0.91698342616807
      0.83335943763079      0.66667972128283      0.08331177062429
      0.91667123604168      0.58335471165422      0.24997693418099
      0.83326406038219      0.66663203268382      0.41657645180225
      0.91665657120709      0.58335299684886      0.58333665511678
      0.83325459094238      0.66662729780444      0.75007291717018
      0.91666490072070      0.58334783287325      0.91669932054039
      0.83342869989067      0.91654656414996      0.08340219971419
      0.91667123431015      0.83331652187017      0.24997693110595
      0.83325128573864      0.91675323566374      0.41638484860216
      0.91665657214926      0.83330357757898      0.58333665517891
      0.83324674826243      0.91675749691843      0.75032956187438
      0.91666489888839      0.83331706507161      0.91669932346384
      0.33323085856690      0.41661543273845      0.59134364009328
