 HIP runtime initialized ...    1 DCUs will be used
 Created    4 streams on each DCU
 vasp.6.3.2 27Jun22 (build Mar 15 2023 15:45:48) complex                        
  
 POSCAR found type information on POSCAR ZrH 
 03/POSCAR found :  2 types and      97 ions
 Reading from existing POTCAR
 scaLAPACK will be used selectively (only on CPU)
 Reading from existing POTCAR
 LDA part: xc-table for Pade appr. of Perdew
 POSCAR found type information on POSCAR ZrH 
 00/POSCAR found :  2 types and      97 ions
 POSCAR found type information on POSCAR ZrH 
 05/POSCAR found :  2 types and      97 ions
 Jacobian:    28.0723425804953     
 POSCAR found type information on POSCAR ZrH 
 00/POSCAR found :  2 types and      97 ions
 POSCAR found type information on POSCAR ZrH 
 05/POSCAR found :  2 types and      97 ions
 POSCAR, INCAR and KPOINTS ok, starting setup
 FFT: planning ... GRIDC
 FFT: planning ... GRID_SOFT
 FFT: planning ... GRID
 WAVECAR not read
 entering main loop
       N       E                     dE             d eps       ncg     rms          rms(c)
DAV:   1     0.127820042593E+05    0.12782E+05   -0.55793E+05 35948   0.151E+03
DAV:   2     0.514067740614E+03   -0.12268E+05   -0.11963E+05 37716   0.500E+02
DAV:   3    -0.665100139853E+03   -0.11792E+04   -0.11241E+04 56608   0.112E+02
DAV:   4    -0.840062087080E+03   -0.17496E+03   -0.17213E+03 55136   0.349E+01
DAV:   5    -0.856319625157E+03   -0.16258E+02   -0.16162E+02 50264   0.885E+00    0.991E+01
DAV:   6    -0.826887099549E+03    0.29433E+02   -0.52119E+01 41560   0.104E+01    0.384E+01
DAV:   7    -0.821384155481E+03    0.55029E+01   -0.29715E+01 45048   0.693E+00    0.779E+00
DAV:   8    -0.822619621733E+03   -0.12355E+01   -0.50596E+00 55704   0.421E+00    0.791E+00
DAV:   9    -0.821782773866E+03    0.83685E+00   -0.30608E+00 52232   0.327E+00    0.303E+00
DAV:  10    -0.821758233475E+03    0.24540E-01   -0.13211E+00 50960   0.215E+00    0.128E+00
DAV:  11    -0.821702698355E+03    0.55535E-01   -0.33987E-01 46584   0.112E+00    0.635E-01
DAV:  12    -0.821702686301E+03    0.12055E-04   -0.86573E-02 49064   0.406E-01    0.416E-01
DAV:  13    -0.821704434260E+03   -0.17480E-02   -0.23530E-02 47792   0.273E-01    0.276E-01
DAV:  14    -0.821702149155E+03    0.22851E-02   -0.10207E-02 48808   0.247E-01    0.174E-01
DAV:  15    -0.821701565778E+03    0.58338E-03   -0.32096E-03 52976   0.116E-01    0.112E-01
DAV:  16    -0.821701564304E+03    0.14742E-05   -0.89048E-04 48912   0.439E-02    0.681E-02
DAV:  17    -0.821701544175E+03    0.20130E-04   -0.22342E-04 49088   0.248E-02    0.314E-02
DAV:  18    -0.821701533743E+03    0.10432E-04   -0.90313E-05 48520   0.156E-02    0.111E-02
DAV:  19    -0.821701535246E+03   -0.15029E-05   -0.22482E-05 41360   0.783E-03    0.722E-03
DAV:  20    -0.821701535916E+03   -0.67023E-06   -0.57879E-06 36984   0.419E-03
   1 F= -.82170154E+03 E0= -.82176338E+03  d E =-.821702E+03
damped:  g(F)=  0.341E-01 g(S)=  0.000E+00 dE (1.order)=-0.341E-01
 bond charge predicted
       N       E                     dE             d eps       ncg     rms          rms(c)
DAV:   1    -0.821711784442E+03   -0.10249E-01   -0.61678E-01 37584   0.114E+00    0.111E-01
DAV:   2    -0.821712955028E+03   -0.11706E-02   -0.12915E-02 40896   0.167E-01    0.751E-02
DAV:   3    -0.821713060452E+03   -0.10542E-03   -0.98731E-04 55960   0.525E-02    0.627E-02
DAV:   4    -0.821712994620E+03    0.65832E-04   -0.27736E-04 49832   0.419E-02    0.431E-02
DAV:   5    -0.821712984723E+03    0.98977E-05   -0.15051E-04 45464   0.245E-02    0.197E-02
DAV:   6    -0.821712972702E+03    0.12020E-04   -0.50987E-05 48704   0.160E-02    0.764E-03
DAV:   7    -0.821712971745E+03    0.95712E-06   -0.13951E-05 40568   0.656E-03    0.455E-03
DAV:   8    -0.821712971595E+03    0.15004E-06   -0.27690E-06 30272   0.318E-03
   2 F= -.82171297E+03 E0= -.82177482E+03  d E =-.114357E-01
damped:  g(F)=  0.275E-01 g(S)=  0.000E+00 dE (1.order)=-0.275E-01
 bond charge predicted
       N       E                     dE             d eps       ncg     rms          rms(c)
DAV:   1    -0.821721109186E+03   -0.81374E-02   -0.48467E-01 37112   0.101E+00    0.969E-02
DAV:   2    -0.821722046080E+03   -0.93689E-03   -0.10203E-02 40944   0.149E-01    0.674E-02
DAV:   3    -0.821722150238E+03   -0.10416E-03   -0.82428E-04 55960   0.529E-02    0.619E-02
DAV:   4    -0.821722059992E+03    0.90246E-04   -0.24803E-04 49296   0.394E-02    0.376E-02
DAV:   5    -0.821722059525E+03    0.46690E-06   -0.11645E-04 45104   0.201E-02    0.172E-02
DAV:   6    -0.821722050700E+03    0.88246E-05   -0.41970E-05 48232   0.142E-02    0.696E-03
DAV:   7    -0.821722049959E+03    0.74129E-06   -0.10697E-05 39528   0.571E-03    0.411E-03
DAV:   8    -0.821722049791E+03    0.16791E-06   -0.20266E-06 27536   0.289E-03
   3 F= -.82172205E+03 E0= -.82178388E+03  d E =-.907820E-02
damped:  g(F)=  0.225E-01 g(S)=  0.000E+00 dE (1.order)=-0.225E-01
 bond charge predicted
       N       E                     dE             d eps       ncg     rms          rms(c)
DAV:   1    -0.821728613420E+03   -0.65635E-02   -0.39185E-01 36952   0.913E-01    0.859E-02
DAV:   2    -0.821729376610E+03   -0.76319E-03   -0.82807E-03 40864   0.134E-01    0.595E-02
DAV:   3    -0.821729461108E+03   -0.84498E-04   -0.66129E-04 55904   0.466E-02    0.548E-02
DAV:   4    -0.821729389828E+03    0.71280E-04   -0.19453E-04 49288   0.347E-02    0.332E-02
DAV:   5    -0.821729390034E+03   -0.20553E-06   -0.91666E-05 45152   0.178E-02    0.154E-02
DAV:   6    -0.821729382720E+03    0.73137E-05   -0.33758E-05 47440   0.127E-02    0.614E-03
DAV:   7    -0.821729382218E+03    0.50152E-06   -0.83952E-06 38608   0.499E-03
   4 F= -.82172938E+03 E0= -.82179117E+03  d E =-.733243E-02
damped:  g(F)=  0.185E-01 g(S)=  0.000E+00 dE (1.order)=-0.185E-01
 bond charge predicted
       N       E                     dE             d eps       ncg     rms          rms(c)
DAV:   1    -0.821734685670E+03   -0.53029E-02   -0.31557E-01 36744   0.823E-01    0.761E-02
DAV:   2    -0.821735312144E+03   -0.62647E-03   -0.67158E-03 40912   0.121E-01    0.539E-02
DAV:   3    -0.821735378145E+03   -0.66001E-04   -0.55638E-04 56376   0.442E-02    0.509E-02
DAV:   4    -0.821735315387E+03    0.62758E-04   -0.15954E-04 48984   0.309E-02    0.297E-02
DAV:   5    -0.821735316779E+03   -0.13919E-05   -0.71443E-05 45008   0.155E-02    0.138E-02
DAV:   6    -0.821735311139E+03    0.56407E-05   -0.27331E-05 46320   0.114E-02    0.564E-03
DAV:   7    -0.821735310725E+03    0.41329E-06   -0.68007E-06 37480   0.452E-03
   5 F= -.82173531E+03 E0= -.82179705E+03  d E =-.592851E-02
damped:  g(F)=  0.155E-01 g(S)=  0.000E+00 dE (1.order)=-0.155E-01
 bond charge predicted
       N       E                     dE             d eps       ncg     rms          rms(c)
DAV:   1    -0.821739672386E+03   -0.43612E-02   -0.25675E-01 36744   0.745E-01    0.677E-02
DAV:   2    -0.821740190511E+03   -0.51813E-03   -0.54991E-03 41000   0.110E-01    0.485E-02
DAV:   3    -0.821740240324E+03   -0.49813E-04   -0.45935E-04 56584   0.407E-02    0.461E-02
DAV:   4    -0.821740189731E+03    0.50593E-04   -0.12552E-04 48232   0.273E-02    0.265E-02
DAV:   5    -0.821740191275E+03   -0.15440E-05   -0.56352E-05 45032   0.137E-02    0.124E-02
DAV:   6    -0.821740186705E+03    0.45699E-05   -0.22241E-05 44776   0.102E-02    0.505E-03
DAV:   7    -0.821740186415E+03    0.29031E-06   -0.53555E-06 35600   0.403E-03
   6 F= -.82174019E+03 E0= -.82180187E+03  d E =-.487569E-02
damped:  g(F)=  0.130E-01 g(S)=  0.000E+00 dE (1.order)=-0.130E-01
 bond charge predicted
       N       E                     dE             d eps       ncg     rms          rms(c)
DAV:   1    -0.821743814400E+03   -0.36277E-02   -0.21283E-01 36712   0.681E-01    0.610E-02
DAV:   2    -0.821744246563E+03   -0.43216E-03   -0.45850E-03 41048   0.101E-01    0.434E-02
DAV:   3    -0.821744288706E+03   -0.42143E-04   -0.37930E-04 56376   0.366E-02    0.415E-02
DAV:   4    -0.821744247322E+03    0.41384E-04   -0.10079E-04 47848   0.246E-02    0.239E-02
DAV:   5    -0.821744248625E+03   -0.13029E-05   -0.45699E-05 45104   0.124E-02    0.113E-02
DAV:   6    -0.821744244809E+03    0.38163E-05   -0.18427E-05 43528   0.927E-03    0.455E-03
DAV:   7    -0.821744244598E+03    0.21064E-06   -0.43443E-06 33984   0.366E-03
   7 F= -.82174424E+03 E0= -.82180587E+03  d E =-.405818E-02
damped:  g(F)=  0.110E-01 g(S)=  0.000E+00 dE (1.order)=-0.110E-01
 bond charge predicted
       N       E                     dE             d eps       ncg     rms          rms(c)
DAV:   1    -0.821747257543E+03   -0.30127E-02   -0.17566E-01 36658   0.622E-01    0.548E-02
DAV:   2    -0.821747616107E+03   -0.35856E-03   -0.38065E-03 41128   0.917E-02    0.387E-02
DAV:   3    -0.821747651962E+03   -0.35855E-04   -0.31219E-04 56229   0.327E-02    0.373E-02
DAV:   4    -0.821747618306E+03    0.33656E-04   -0.81005E-05 47224   0.221E-02    0.216E-02
DAV:   5    -0.821747619335E+03   -0.10289E-05   -0.36907E-05 45232   0.111E-02    0.103E-02
DAV:   6    -0.821747616164E+03    0.31706E-05   -0.15138E-05 42096   0.840E-03    0.409E-03
DAV:   7    -0.821747616026E+03    0.13775E-06   -0.35385E-06 32736   0.336E-03
   8 F= -.82174762E+03 E0= -.82180919E+03  d E =-.337143E-02
damped:  g(F)=  0.946E-02 g(S)=  0.000E+00 dE (1.order)=-0.946E-02
 bond charge predicted
       N       E                     dE             d eps       ncg     rms          rms(c)
DAV:   1    -0.821750168097E+03   -0.25519E-02   -0.14896E-01 36604   0.575E-01    0.500E-02
DAV:   2    -0.821750475385E+03   -0.30729E-03   -0.32523E-03 41208   0.849E-02    0.353E-02
DAV:   3    -0.821750505586E+03   -0.30201E-04   -0.26750E-04 56194   0.301E-02    0.342E-02
DAV:   4    -0.821750477405E+03    0.28181E-04   -0.67323E-05 46368   0.201E-02    0.199E-02
DAV:   5    -0.821750478251E+03   -0.84606E-06   -0.30564E-05 45368   0.102E-02    0.953E-03
DAV:   6    -0.821750475578E+03    0.26739E-05   -0.12826E-05 40968   0.771E-03    0.375E-03
DAV:   7    -0.821750475494E+03    0.83863E-07   -0.29868E-06 31832   0.316E-03
   9 F= -.82175048E+03 E0= -.82181199E+03  d E =-.285947E-02
damped:  g(F)=  0.808E-02 g(S)=  0.000E+00 dE (1.order)=-0.808E-02
 bond charge predicted
       N       E                     dE             d eps       ncg     rms          rms(c)
DAV:   1    -0.821752656553E+03   -0.21810E-02   -0.12571E-01 36588   0.531E-01    0.454E-02
DAV:   2    -0.821752918883E+03   -0.26233E-03   -0.27646E-03 41304   0.785E-02    0.322E-02
DAV:   3    -0.821752943592E+03   -0.24709E-04   -0.22842E-04 56282   0.277E-02    0.313E-02
DAV:   4    -0.821752920216E+03    0.23376E-04   -0.55725E-05 45552   0.181E-02    0.182E-02
DAV:   5    -0.821752920950E+03   -0.73398E-06   -0.25268E-05 45216   0.920E-03    0.877E-03
DAV:   6    -0.821752918707E+03    0.22434E-05   -0.10832E-05 39296   0.707E-03    0.343E-03
DAV:   7    -0.821752918666E+03    0.41167E-07   -0.24423E-06 30048   0.297E-03
  10 F= -.82175292E+03 E0= -.82181438E+03  d E =-.244317E-02
damped:  g(F)=  0.701E-02 g(S)=  0.000E+00 dE (1.order)=-0.701E-02
 bond charge predicted
       N       E                     dE             d eps       ncg     rms          rms(c)
DAV:   1    -0.821754802715E+03   -0.18840E-02   -0.10771E-01 36564   0.494E-01    0.416E-02
DAV:   2    -0.821755030547E+03   -0.22783E-03   -0.23848E-03 41432   0.732E-02    0.298E-02
DAV:   3    -0.821755050133E+03   -0.19586E-04   -0.19950E-04 56298   0.260E-02    0.289E-02
DAV:   4    -0.821755030659E+03    0.19474E-04   -0.46494E-05 44808   0.163E-02    0.168E-02
DAV:   5    -0.821755031301E+03   -0.64241E-06   -0.21065E-05 44392   0.839E-03    0.812E-03
DAV:   6    -0.821755029414E+03    0.18872E-05   -0.92420E-06 37912   0.652E-03    0.318E-03
DAV:   7    -0.821755029400E+03    0.14159E-07   -0.19883E-06 28152   0.282E-03
  11 F= -.82175503E+03 E0= -.82181644E+03  d E =-.211073E-02
damped:  g(F)=  0.615E-02 g(S)=  0.000E+00 dE (1.order)=-0.615E-02
 bond charge predicted
       N       E                     dE             d eps       ncg     rms          rms(c)
DAV:   1    -0.821756644143E+03   -0.16147E-02   -0.93819E-02 36580   0.464E-01    0.384E-02
DAV:   2    -0.821756845593E+03   -0.20145E-03   -0.20928E-03 41504   0.689E-02    0.279E-02
DAV:   3    -0.821756861115E+03   -0.15522E-04   -0.17722E-04 56362   0.245E-02    0.269E-02
DAV:   4    -0.821756844784E+03    0.16331E-04   -0.39449E-05 44280   0.149E-02    0.156E-02
DAV:   5    -0.821756845356E+03   -0.57190E-06   -0.17958E-05 43552   0.775E-03    0.758E-03
DAV:   6    -0.821756843706E+03    0.16501E-05   -0.80583E-06 36952   0.609E-03    0.296E-03
DAV:   7    -0.821756843717E+03   -0.11394E-07   -0.16796E-06 27096   0.269E-03
  12 F= -.82175684E+03 E0= -.82181821E+03  d E =-.181432E-02
damped:  g(F)=  0.530E-02 g(S)=  0.000E+00 dE (1.order)=-0.530E-02
 bond charge predicted
       N       E                     dE             d eps       ncg     rms          rms(c)
DAV:   1    -0.821758239354E+03   -0.13956E-02   -0.79945E-02 36468   0.430E-01    0.351E-02
DAV:   2    -0.821758413434E+03   -0.17408E-03   -0.17973E-03 41640   0.640E-02    0.258E-02
DAV:   3    -0.821758425410E+03   -0.11975E-04   -0.15303E-04 56354   0.227E-02    0.247E-02
DAV:   4    -0.821758412073E+03    0.13337E-04   -0.32612E-05 43304   0.133E-02    0.144E-02
DAV:   5    -0.821758412549E+03   -0.47646E-06   -0.14976E-05 42328   0.709E-03    0.701E-03
DAV:   6    -0.821758411144E+03    0.14057E-05   -0.68830E-06 36016   0.564E-03    0.275E-03
DAV:   7    -0.821758411174E+03   -0.30457E-07   -0.14110E-06 26304   0.256E-03
  13 F= -.82175841E+03 E0= -.82181973E+03  d E =-.156746E-02
damped:  g(F)=  0.471E-02 g(S)=  0.000E+00 dE (1.order)=-0.471E-02
 bond charge predicted
       N       E                     dE             d eps       ncg     rms          rms(c)
DAV:   1    -0.821759644904E+03   -0.12338E-02   -0.70192E-02 36452   0.404E-01    0.326E-02
DAV:   2    -0.821759799093E+03   -0.15419E-03   -0.15854E-03 41752   0.603E-02    0.241E-02
DAV:   3    -0.821759808740E+03   -0.96465E-05   -0.13544E-04 56418   0.214E-02    0.230E-02
DAV:   4    -0.821759797420E+03    0.11320E-04   -0.27962E-05 42504   0.123E-02    0.135E-02
DAV:   5    -0.821759797814E+03   -0.39412E-06   -0.12839E-05 40960   0.659E-03    0.659E-03
DAV:   6    -0.821759796587E+03    0.12269E-05   -0.60245E-06 35120   0.530E-03    0.257E-03
DAV:   7    -0.821759796617E+03   -0.29861E-07   -0.12266E-06 25696   0.242E-03
  14 F= -.82175980E+03 E0= -.82182107E+03  d E =-.138544E-02
damped:  g(F)=  0.410E-02 g(S)=  0.000E+00 dE (1.order)=-0.410E-02
 bond charge predicted
       N       E                     dE             d eps       ncg     rms          rms(c)
DAV:   1    -0.821760879021E+03   -0.10824E-02   -0.60540E-02 36532   0.377E-01    0.300E-02
DAV:   2    -0.821761013493E+03   -0.13447E-03   -0.13752E-03 41968   0.563E-02    0.224E-02
DAV:   3    -0.821761020802E+03   -0.73088E-05   -0.11790E-04 56402   0.200E-02    0.212E-02
DAV:   4    -0.821761011468E+03    0.93334E-05   -0.23334E-05 40976   0.111E-02    0.125E-02
DAV:   5    -0.821761011783E+03   -0.31460E-06   -0.10787E-05 39720   0.608E-03    0.616E-03
DAV:   6    -0.821761010734E+03    0.10487E-05   -0.51805E-06 34352   0.494E-03    0.240E-03
DAV:   7    -0.821761010785E+03   -0.50568E-07   -0.10902E-06 25448   0.236E-03
  15 F= -.82176101E+03 E0= -.82182225E+03  d E =-.121417E-02
damped:  g(F)=  0.363E-02 g(S)=  0.000E+00 dE (1.order)=-0.363E-02
 bond charge predicted
       N       E                     dE             d eps       ncg     rms          rms(c)
DAV:   1    -0.821761980030E+03   -0.96930E-03   -0.54163E-02 36610   0.358E-01    0.280E-02
DAV:   2    -0.821762101305E+03   -0.12127E-03   -0.12372E-03 42192   0.534E-02    0.211E-02
DAV:   3    -0.821762107404E+03   -0.60986E-05   -0.10551E-04 56461   0.189E-02    0.199E-02
DAV:   4    -0.821762099328E+03    0.80757E-05   -0.20245E-05 39720   0.103E-02    0.118E-02
DAV:   5    -0.821762099582E+03   -0.25387E-06   -0.93765E-06 38464   0.569E-03
  16 F= -.82176210E+03 E0= -.82182330E+03  d E =-.108880E-02
damped:  g(F)=  0.331E-02 g(S)=  0.000E+00 dE (1.order)=-0.331E-02
 bond charge predicted
       N       E                     dE             d eps       ncg     rms          rms(c)
DAV:   1    -0.821762971832E+03   -0.87250E-03   -0.48397E-02 36420   0.339E-01    0.258E-02
DAV:   2    -0.821763080697E+03   -0.10887E-03   -0.11091E-03 42328   0.505E-02    0.194E-02
DAV:   3    -0.821763086723E+03   -0.60256E-05   -0.93783E-05 56336   0.173E-02    0.186E-02
DAV:   4    -0.821763079878E+03    0.68454E-05   -0.16589E-05 37024   0.924E-03    0.112E-02
DAV:   5    -0.821763080294E+03   -0.41595E-06   -0.85326E-06 38312   0.565E-03
  17 F= -.82176308E+03 E0= -.82182424E+03  d E =-.980712E-03
damped:  g(F)=  0.302E-02 g(S)=  0.000E+00 dE (1.order)=-0.302E-02
 bond charge predicted
       N       E                     dE             d eps       ncg     rms          rms(c)
DAV:   1    -0.821763876757E+03   -0.79688E-03   -0.44033E-02 36434   0.324E-01    0.243E-02
DAV:   2    -0.821763976102E+03   -0.99345E-04   -0.10135E-03 42480   0.482E-02    0.183E-02
DAV:   3    -0.821763981657E+03   -0.55543E-05   -0.84911E-05 55848   0.163E-02    0.175E-02
DAV:   4    -0.821763975550E+03    0.61063E-05   -0.14605E-05 36344   0.865E-03    0.105E-02
DAV:   5    -0.821763975808E+03   -0.25712E-06   -0.75842E-06 38544   0.505E-03
  18 F= -.82176398E+03 E0= -.82182511E+03  d E =-.895514E-03
damped:  g(F)=  0.276E-02 g(S)=  0.000E+00 dE (1.order)=-0.276E-02
 bond charge predicted
       N       E                     dE             d eps       ncg     rms          rms(c)
DAV:   1    -0.821764682311E+03   -0.70676E-03   -0.39234E-02 36418   0.307E-01    0.228E-02
DAV:   2    -0.821764770912E+03   -0.88601E-04   -0.90644E-04 42600   0.456E-02    0.171E-02
DAV:   3    -0.821764776138E+03   -0.52258E-05   -0.74788E-05 55448   0.153E-02    0.165E-02
DAV:   4    -0.821764770637E+03    0.55014E-05   -0.12954E-05 35744   0.820E-03    0.997E-03
DAV:   5    -0.821764770911E+03   -0.27432E-06   -0.67111E-06 36520   0.493E-03
  19 F= -.82176477E+03 E0= -.82182588E+03  d E =-.795103E-03
damped:  g(F)=  0.249E-02 g(S)=  0.000E+00 dE (1.order)=-0.249E-02
 bond charge predicted
       N       E                     dE             d eps       ncg     rms          rms(c)
DAV:   1    -0.821765403839E+03   -0.63320E-03   -0.34774E-02 36402   0.290E-01    0.212E-02
DAV:   2    -0.821765482809E+03   -0.78969E-04   -0.80627E-04 42704   0.431E-02    0.160E-02
DAV:   3    -0.821765487141E+03   -0.43321E-05   -0.66401E-05 55352   0.144E-02    0.154E-02
DAV:   4    -0.821765482441E+03    0.47001E-05   -0.11164E-05 35696   0.756E-03    0.935E-03
DAV:   5    -0.821765482621E+03   -0.18049E-06   -0.57668E-06 35680   0.452E-03
  20 F= -.82176548E+03 E0= -.82182656E+03  d E =-.711710E-03
damped:  g(F)=  0.228E-02 g(S)=  0.000E+00 dE (1.order)=-0.228E-02
 bond charge predicted
       N       E                     dE             d eps       ncg     rms          rms(c)
DAV:   1    -0.821766061827E+03   -0.57939E-03   -0.31543E-02 36402   0.276E-01    0.201E-02
DAV:   2    -0.821766133474E+03   -0.71647E-04   -0.73202E-04 42696   0.411E-02    0.152E-02
DAV:   3    -0.821766137484E+03   -0.40096E-05   -0.60446E-05 55304   0.137E-02    0.147E-02
DAV:   4    -0.821766133230E+03    0.42543E-05   -0.10113E-05 35432   0.719E-03    0.892E-03
DAV:   5    -0.821766133403E+03   -0.17375E-06   -0.51637E-06 34952   0.434E-03
  21 F= -.82176613E+03 E0= -.82182719E+03  d E =-.650782E-03
damped:  g(F)=  0.211E-02 g(S)=  0.000E+00 dE (1.order)=-0.211E-02
 bond charge predicted
       N       E                     dE             d eps       ncg     rms          rms(c)
DAV:   1    -0.821766668051E+03   -0.53482E-03   -0.28762E-02 36370   0.264E-01    0.189E-02
DAV:   2    -0.821766733564E+03   -0.65513E-04   -0.66889E-04 42712   0.392E-02    0.144E-02
DAV:   3    -0.821766737134E+03   -0.35704E-05   -0.55284E-05 55272   0.130E-02    0.139E-02
DAV:   4    -0.821766733390E+03    0.37440E-05   -0.89696E-06 35224   0.673E-03    0.850E-03
DAV:   5    -0.821766733507E+03   -0.11711E-06   -0.45284E-06 34312   0.407E-03
  22 F= -.82176673E+03 E0= -.82182777E+03  d E =-.600104E-03
damped:  g(F)=  0.194E-02 g(S)=  0.000E+00 dE (1.order)=-0.194E-02
 bond charge predicted
       N       E                     dE             d eps       ncg     rms          rms(c)
DAV:   1    -0.821767229781E+03   -0.49639E-03   -0.26878E-02 36354   0.255E-01    0.181E-02
DAV:   2    -0.821767291048E+03   -0.61267E-04   -0.62580E-04 42728   0.379E-02    0.138E-02
DAV:   3    -0.821767294346E+03   -0.32980E-05   -0.51208E-05 55296   0.125E-02    0.133E-02
DAV:   4    -0.821767290909E+03    0.34368E-05   -0.82292E-06 35008   0.644E-03    0.819E-03
DAV:   5    -0.821767291003E+03   -0.93540E-07   -0.41016E-06 33864   0.389E-03
  23 F= -.82176729E+03 E0= -.82182831E+03  d E =-.557495E-03
damped:  g(F)=  0.179E-02 g(S)=  0.000E+00 dE (1.order)=-0.179E-02
 bond charge predicted
       N       E                     dE             d eps       ncg     rms          rms(c)
DAV:   1    -0.821767737217E+03   -0.44631E-03   -0.24542E-02 36354   0.244E-01    0.171E-02
DAV:   2    -0.821767793283E+03   -0.56066E-04   -0.57211E-04 42800   0.363E-02    0.131E-02
DAV:   3    -0.821767796200E+03   -0.29162E-05   -0.46842E-05 55248   0.119E-02    0.127E-02
DAV:   4    -0.821767793124E+03    0.30756E-05   -0.73887E-06 34640   0.609E-03    0.783E-03
DAV:   5    -0.821767793195E+03   -0.71042E-07   -0.36253E-06 32944   0.371E-03
  24 F= -.82176779E+03 E0= -.82182879E+03  d E =-.502192E-03
damped:  g(F)=  0.164E-02 g(S)=  0.000E+00 dE (1.order)=-0.164E-02
 bond charge predicted
       N       E                     dE             d eps       ncg     rms          rms(c)
DAV:   1    -0.821768205414E+03   -0.41229E-03   -0.22052E-02 36402   0.232E-01    0.161E-02
DAV:   2    -0.821768255803E+03   -0.50390E-04   -0.51515E-04 42872   0.344E-02    0.123E-02
DAV:   3    -0.821768258520E+03   -0.27169E-05   -0.41890E-05 55232   0.112E-02    0.119E-02
DAV:   4    -0.821768255786E+03    0.27346E-05   -0.65080E-06 34432   0.572E-03    0.740E-03
DAV:   5    -0.821768255818E+03   -0.32203E-07   -0.31179E-06 31912   0.347E-03
  25 F= -.82176826E+03 E0= -.82182924E+03  d E =-.462623E-03
damped:  g(F)=  0.153E-02 g(S)=  0.000E+00 dE (1.order)=-0.153E-02
 bond charge predicted
       N       E                     dE             d eps       ncg     rms          rms(c)
DAV:   1    -0.821768644028E+03   -0.38824E-03   -0.20859E-02 36386   0.225E-01    0.155E-02
DAV:   2    -0.821768691499E+03   -0.47471E-04   -0.48659E-04 42768   0.334E-02    0.118E-02
DAV:   3    -0.821768694266E+03   -0.27669E-05   -0.39626E-05 55224   0.108E-02    0.115E-02
DAV:   4    -0.821768691662E+03    0.26044E-05   -0.61900E-06 34360   0.559E-03    0.719E-03
DAV:   5    -0.821768691698E+03   -0.36220E-07   -0.28556E-06 31408   0.337E-03
  26 F= -.82176869E+03 E0= -.82182966E+03  d E =-.435880E-03
damped:  g(F)=  0.141E-02 g(S)=  0.000E+00 dE (1.order)=-0.141E-02
 bond charge predicted
       N       E                     dE             d eps       ncg     rms          rms(c)
DAV:   1    -0.821769054463E+03   -0.36280E-03   -0.19257E-02 36426   0.217E-01    0.148E-02
DAV:   2    -0.821769098237E+03   -0.43774E-04   -0.44973E-04 42800   0.321E-02    0.112E-02
DAV:   3    -0.821769100900E+03   -0.26624E-05   -0.36234E-05 55208   0.102E-02    0.110E-02
DAV:   4    -0.821769098516E+03    0.23836E-05   -0.55792E-06 33840   0.534E-03    0.689E-03
DAV:   5    -0.821769098526E+03   -0.97207E-08   -0.25496E-06 30728   0.319E-03
  27 F= -.82176910E+03 E0= -.82183005E+03  d E =-.406828E-03
damped:  g(F)=  0.131E-02 g(S)=  0.000E+00 dE (1.order)=-0.131E-02
 bond charge predicted
       N       E                     dE             d eps       ncg     rms          rms(c)
DAV:   1    -0.821769443776E+03   -0.34526E-03   -0.18140E-02 36414   0.211E-01    0.144E-02
DAV:   2    -0.821769484899E+03   -0.41123E-04   -0.42420E-04 42792   0.312E-02    0.108E-02
DAV:   3    -0.821769487635E+03   -0.27360E-05   -0.33958E-05 55194   0.984E-03    0.107E-02
DAV:   4    -0.821769485321E+03    0.23147E-05   -0.53431E-06 33648   0.527E-03    0.671E-03
DAV:   5    -0.821769485333E+03   -0.12747E-07   -0.23521E-06 30120   0.309E-03
  28 F= -.82176949E+03 E0= -.82183042E+03  d E =-.386808E-03
damped:  g(F)=  0.123E-02 g(S)=  0.000E+00 dE (1.order)=-0.123E-02
 bond charge predicted
       N       E                     dE             d eps       ncg     rms          rms(c)
DAV:   1    -0.821769804606E+03   -0.31929E-03   -0.17027E-02 36460   0.204E-01    0.137E-02
DAV:   2    -0.821769843131E+03   -0.38525E-04   -0.39841E-04 42832   0.301E-02    0.103E-02
DAV:   3    -0.821769845826E+03   -0.26950E-05   -0.31396E-05 54984   0.933E-03    0.103E-02
DAV:   4    -0.821769843677E+03    0.21490E-05   -0.48921E-06 33080   0.505E-03    0.648E-03
DAV:   5    -0.821769843669E+03    0.75961E-08   -0.21069E-06 29464   0.295E-03
  29 F= -.82176984E+03 E0= -.82183077E+03  d E =-.358336E-03
damped:  g(F)=  0.111E-02 g(S)=  0.000E+00 dE (1.order)=-0.111E-02
 reached required accuracy - stopping structural energy minimisation
 PROFILE, used timers:     234
