  97  97   0   0
  0.2315679E+02  0.1293663E-08  0.1293663E-08  0.1549806E-08  0.1000000E-15
  1.000000000000000E-004
  CAR 
 Zr96H TO pre-NEB, four intermediate imag
     12.88392086    -42.41967039  301      8.95357987      1.00000000
    -42.420  0.0000E+00  0.0000E+00
    -42.235  0.0000E+00  0.0000E+00
    -42.051  0.0000E+00  0.0000E+00
    -41.867  0.0000E+00  0.0000E+00
    -41.682 -0.1309E-35 -0.2412E-36
    -41.498 -0.1971E-28 -0.3634E-29
    -41.314 -0.2120E-22 -0.3908E-23
    -41.129 -0.4225E-17 -0.7788E-18
    -40.945 -0.1517E-12 -0.2797E-13
    -40.761 -0.1050E-08 -0.1937E-09
    -40.576 -0.1389E-05 -0.2562E-06
    -40.392 -0.3561E-03 -0.6590E-04
    -40.208 -0.1692E-01 -0.3184E-02
    -40.023 -0.7810E-01 -0.1758E-01
    -39.839  0.8906E+00  0.1466E+00
    -39.654  0.2260E+01  0.5632E+00
    -39.470  0.5131E+00  0.6578E+00
    -39.286 -0.8853E-01  0.6415E+00
    -39.101 -0.7841E-02  0.6400E+00
    -38.917 -0.7980E-04  0.6400E+00
    -38.733 -0.1329E-06  0.6400E+00
    -38.548 -0.3877E-10  0.6400E+00
    -38.364 -0.2057E-14  0.6400E+00
    -38.180  0.0000E+00  0.6400E+00
    -37.995  0.0000E+00  0.6400E+00
    -37.811  0.0000E+00  0.6400E+00
    -37.627  0.0000E+00  0.6400E+00
    -37.442  0.0000E+00  0.6400E+00
    -37.258  0.0000E+00  0.6400E+00
    -37.074  0.0000E+00  0.6400E+00
    -36.889  0.0000E+00  0.6400E+00
    -36.705  0.0000E+00  0.6400E+00
    -36.521  0.0000E+00  0.6400E+00
    -36.336  0.0000E+00  0.6400E+00
    -36.152  0.0000E+00  0.6400E+00
    -35.968  0.0000E+00  0.6400E+00
    -35.783  0.0000E+00  0.6400E+00
    -35.599  0.0000E+00  0.6400E+00
    -35.415  0.0000E+00  0.6400E+00
    -35.230  0.0000E+00  0.6400E+00
    -35.046  0.0000E+00  0.6400E+00
    -34.862  0.0000E+00  0.6400E+00
    -34.677  0.0000E+00  0.6400E+00
    -34.493  0.0000E+00  0.6400E+00
    -34.308  0.0000E+00  0.6400E+00
    -34.124  0.0000E+00  0.6400E+00
    -33.940  0.0000E+00  0.6400E+00
    -33.755  0.0000E+00  0.6400E+00
    -33.571  0.0000E+00  0.6400E+00
    -33.387  0.0000E+00  0.6400E+00
    -33.202  0.0000E+00  0.6400E+00
    -33.018  0.0000E+00  0.6400E+00
    -32.834  0.0000E+00  0.6400E+00
    -32.649  0.0000E+00  0.6400E+00
    -32.465  0.0000E+00  0.6400E+00
    -32.281  0.0000E+00  0.6400E+00
    -32.096  0.0000E+00  0.6400E+00
    -31.912  0.0000E+00  0.6400E+00
    -31.728  0.0000E+00  0.6400E+00
    -31.543  0.0000E+00  0.6400E+00
    -31.359  0.0000E+00  0.6400E+00
    -31.175  0.0000E+00  0.6400E+00
    -30.990  0.0000E+00  0.6400E+00
    -30.806  0.0000E+00  0.6400E+00
    -30.622  0.0000E+00  0.6400E+00
    -30.437  0.0000E+00  0.6400E+00
    -30.253  0.0000E+00  0.6400E+00
    -30.069  0.0000E+00  0.6400E+00
    -29.884  0.0000E+00  0.6400E+00
    -29.700  0.0000E+00  0.6400E+00
    -29.515  0.0000E+00  0.6400E+00
    -29.331  0.0000E+00  0.6400E+00
    -29.147  0.0000E+00  0.6400E+00
    -28.962  0.0000E+00  0.6400E+00
    -28.778  0.0000E+00  0.6400E+00
    -28.594  0.0000E+00  0.6400E+00
    -28.409  0.0000E+00  0.6400E+00
    -28.225  0.0000E+00  0.6400E+00
    -28.041  0.0000E+00  0.6400E+00
    -27.856  0.0000E+00  0.6400E+00
    -27.672  0.0000E+00  0.6400E+00
    -27.488  0.0000E+00  0.6400E+00
    -27.303  0.0000E+00  0.6400E+00
    -27.119  0.0000E+00  0.6400E+00
    -26.935  0.0000E+00  0.6400E+00
    -26.750  0.0000E+00  0.6400E+00
    -26.566  0.0000E+00  0.6400E+00
    -26.382  0.0000E+00  0.6400E+00
    -26.197  0.0000E+00  0.6400E+00
    -26.013  0.0000E+00  0.6400E+00
    -25.829  0.0000E+00  0.6400E+00
    -25.644  0.0000E+00  0.6400E+00
    -25.460  0.0000E+00  0.6400E+00
    -25.276  0.0000E+00  0.6400E+00
    -25.091  0.0000E+00  0.6400E+00
    -24.907  0.0000E+00  0.6400E+00
    -24.723  0.0000E+00  0.6400E+00
    -24.538  0.0000E+00  0.6400E+00
    -24.354  0.0000E+00  0.6400E+00
    -24.169  0.0000E+00  0.6400E+00
    -23.985  0.0000E+00  0.6400E+00
    -23.801  0.0000E+00  0.6400E+00
    -23.616  0.0000E+00  0.6400E+00
    -23.432  0.0000E+00  0.6400E+00
    -23.248  0.0000E+00  0.6400E+00
    -23.063  0.0000E+00  0.6400E+00
    -22.879  0.0000E+00  0.6400E+00
    -22.695  0.0000E+00  0.6400E+00
    -22.510  0.0000E+00  0.6400E+00
    -22.326  0.0000E+00  0.6400E+00
    -22.142  0.0000E+00  0.6400E+00
    -21.957  0.0000E+00  0.6400E+00
    -21.773  0.0000E+00  0.6400E+00
    -21.589  0.0000E+00  0.6400E+00
    -21.404  0.0000E+00  0.6400E+00
    -21.220  0.0000E+00  0.6400E+00
    -21.036  0.0000E+00  0.6400E+00
    -20.851  0.0000E+00  0.6400E+00
    -20.667  0.0000E+00  0.6400E+00
    -20.483  0.0000E+00  0.6400E+00
    -20.298  0.0000E+00  0.6400E+00
    -20.114 -0.4564E-33  0.6400E+00
    -19.930 -0.1280E-26  0.6400E+00
    -19.745 -0.6649E-21  0.6400E+00
    -19.561 -0.6309E-16  0.6400E+00
    -19.377 -0.1165E-11  0.6400E+00
    -19.192 -0.4210E-08  0.6400E+00
    -19.008 -0.3094E-05  0.6400E+00
    -18.823 -0.4784E-03  0.6399E+00
    -18.639 -0.1472E-01  0.6372E+00
    -18.455 -0.3435E-01  0.6309E+00
    -18.270  0.6216E+00  0.7455E+00
    -18.086  0.1649E+01  0.1049E+01
    -17.902  0.1475E+01  0.1321E+01
    -17.717  0.2178E+01  0.1723E+01
    -17.533  0.3187E+01  0.2310E+01
    -17.349  0.1423E+01  0.2573E+01
    -17.164 -0.3094E-01  0.2567E+01
    -16.980 -0.3615E-01  0.2560E+01
    -16.796 -0.1336E-02  0.2560E+01
    -16.611 -0.8506E-05  0.2560E+01
    -16.427 -0.1011E-07  0.2560E+01
    -16.243 -0.2252E-11  0.2560E+01
    -16.058 -0.7930E-16  0.2560E+01
    -15.874  0.0000E+00  0.2560E+01
    -15.690  0.0000E+00  0.2560E+01
    -15.505  0.0000E+00  0.2560E+01
    -15.321  0.0000E+00  0.2560E+01
    -15.137  0.0000E+00  0.2560E+01
    -14.952  0.0000E+00  0.2560E+01
    -14.768  0.0000E+00  0.2560E+01
    -14.584  0.0000E+00  0.2560E+01
    -14.399  0.0000E+00  0.2560E+01
    -14.215  0.0000E+00  0.2560E+01
    -14.030  0.0000E+00  0.2560E+01
    -13.846  0.0000E+00  0.2560E+01
    -13.662  0.0000E+00  0.2560E+01
    -13.477  0.0000E+00  0.2560E+01
    -13.293  0.0000E+00  0.2560E+01
    -13.109  0.0000E+00  0.2560E+01
    -12.924  0.0000E+00  0.2560E+01
    -12.740  0.0000E+00  0.2560E+01
    -12.556  0.0000E+00  0.2560E+01
    -12.371  0.0000E+00  0.2560E+01
    -12.187  0.0000E+00  0.2560E+01
    -12.003  0.0000E+00  0.2560E+01
    -11.818  0.0000E+00  0.2560E+01
    -11.634  0.0000E+00  0.2560E+01
    -11.450  0.0000E+00  0.2560E+01
    -11.265  0.0000E+00  0.2560E+01
    -11.081  0.0000E+00  0.2560E+01
    -10.897  0.0000E+00  0.2560E+01
    -10.712  0.0000E+00  0.2560E+01
    -10.528  0.0000E+00  0.2560E+01
    -10.344  0.0000E+00  0.2560E+01
    -10.159  0.0000E+00  0.2560E+01
     -9.975  0.0000E+00  0.2560E+01
     -9.791  0.0000E+00  0.2560E+01
     -9.606  0.0000E+00  0.2560E+01
     -9.422  0.0000E+00  0.2560E+01
     -9.238  0.0000E+00  0.2560E+01
     -9.053  0.0000E+00  0.2560E+01
     -8.869  0.0000E+00  0.2560E+01
     -8.684  0.0000E+00  0.2560E+01
     -8.500  0.0000E+00  0.2560E+01
     -8.316  0.0000E+00  0.2560E+01
     -8.131  0.0000E+00  0.2560E+01
     -7.947  0.0000E+00  0.2560E+01
     -7.763  0.0000E+00  0.2560E+01
     -7.578  0.0000E+00  0.2560E+01
     -7.394  0.0000E+00  0.2560E+01
     -7.210  0.0000E+00  0.2560E+01
     -7.025  0.0000E+00  0.2560E+01
     -6.841  0.0000E+00  0.2560E+01
     -6.657  0.0000E+00  0.2560E+01
     -6.472  0.0000E+00  0.2560E+01
     -6.288  0.0000E+00  0.2560E+01
     -6.104  0.0000E+00  0.2560E+01
     -5.919  0.0000E+00  0.2560E+01
     -5.735  0.0000E+00  0.2560E+01
     -5.551  0.0000E+00  0.2560E+01
     -5.366  0.0000E+00  0.2560E+01
     -5.182  0.0000E+00  0.2560E+01
     -4.998  0.0000E+00  0.2560E+01
     -4.813  0.0000E+00  0.2560E+01
     -4.629  0.0000E+00  0.2560E+01
     -4.445  0.0000E+00  0.2560E+01
     -4.260  0.0000E+00  0.2560E+01
     -4.076  0.0000E+00  0.2560E+01
     -3.892  0.0000E+00  0.2560E+01
     -3.707  0.0000E+00  0.2560E+01
     -3.523  0.0000E+00  0.2560E+01
     -3.338  0.0000E+00  0.2560E+01
     -3.154  0.0000E+00  0.2560E+01
     -2.970  0.0000E+00  0.2560E+01
     -2.785  0.0000E+00  0.2560E+01
     -2.601  0.0000E+00  0.2560E+01
     -2.417  0.0000E+00  0.2560E+01
     -2.232  0.0000E+00  0.2560E+01
     -2.048  0.0000E+00  0.2560E+01
     -1.864  0.0000E+00  0.2560E+01
     -1.679  0.0000E+00  0.2560E+01
     -1.495  0.0000E+00  0.2560E+01
     -1.311  0.0000E+00  0.2560E+01
     -1.126  0.0000E+00  0.2560E+01
     -0.942  0.0000E+00  0.2560E+01
     -0.758  0.0000E+00  0.2560E+01
     -0.573  0.0000E+00  0.2560E+01
     -0.389  0.0000E+00  0.2560E+01
     -0.205  0.0000E+00  0.2560E+01
     -0.020  0.0000E+00  0.2560E+01
      0.164  0.0000E+00  0.2560E+01
      0.348  0.0000E+00  0.2560E+01
      0.533  0.0000E+00  0.2560E+01
      0.717  0.0000E+00  0.2560E+01
      0.901  0.0000E+00  0.2560E+01
      1.086 -0.2831E-30  0.2560E+01
      1.270 -0.4100E-24  0.2560E+01
      1.455 -0.1078E-18  0.2560E+01
      1.639 -0.4947E-14  0.2560E+01
      1.823 -0.4145E-10  0.2560E+01
      2.008 -0.6058E-07  0.2560E+01
      2.192 -0.1473E-04  0.2560E+01
      2.376 -0.5048E-03  0.2560E+01
      2.561  0.2557E-03  0.2560E+01
      2.745  0.1958E-01  0.2564E+01
      2.929  0.1758E-01  0.2567E+01
      3.114 -0.4222E-03  0.2567E+01
      3.298 -0.7517E-03  0.2567E+01
      3.482  0.4359E-02  0.2567E+01
      3.667  0.1413E-01  0.2570E+01
      3.851  0.2186E-01  0.2574E+01
      4.035  0.2438E-01  0.2579E+01
      4.220  0.3209E-01  0.2584E+01
      4.404  0.3327E-01  0.2591E+01
      4.588  0.4183E-01  0.2598E+01
      4.773  0.4830E-01  0.2607E+01
      4.957  0.5317E-01  0.2617E+01
      5.141  0.5442E-01  0.2627E+01
      5.326  0.8090E-01  0.2642E+01
      5.510  0.7488E-01  0.2656E+01
      5.694  0.8853E-01  0.2672E+01
      5.879  0.1684E+00  0.2703E+01
      6.063  0.2559E+00  0.2750E+01
      6.247  0.3141E+00  0.2808E+01
      6.432  0.3374E+00  0.2870E+01
      6.616  0.3644E+00  0.2938E+01
      6.801  0.3985E+00  0.3011E+01
      6.985  0.4706E+00  0.3098E+01
      7.169  0.3819E+00  0.3168E+01
      7.354  0.3398E+00  0.3231E+01
      7.538  0.3089E+00  0.3288E+01
      7.722  0.3889E+00  0.3359E+01
      7.907  0.4345E+00  0.3440E+01
      8.091  0.4741E+00  0.3527E+01
      8.275  0.5436E+00  0.3627E+01
      8.460  0.5314E+00  0.3725E+01
      8.644  0.2667E+00  0.3774E+01
      8.828  0.1911E+00  0.3809E+01
      9.013  0.2991E+00  0.3865E+01
      9.197  0.5354E+00  0.3963E+01
      9.381  0.5907E+00  0.4072E+01
      9.566  0.5196E+00  0.4168E+01
      9.750  0.5488E+00  0.4269E+01
      9.934  0.5829E+00  0.4377E+01
     10.119  0.6381E+00  0.4494E+01
     10.303  0.5005E+00  0.4586E+01
     10.487  0.1260E+00  0.4610E+01
     10.672 -0.1353E-01  0.4607E+01
     10.856 -0.3011E-02  0.4607E+01
     11.040 -0.7058E-04  0.4607E+01
     11.225 -0.2969E-06  0.4607E+01
     11.409 -0.2370E-09  0.4607E+01
     11.594 -0.3606E-13  0.4607E+01
     11.778  0.0000E+00  0.4607E+01
     11.962  0.0000E+00  0.4607E+01
     12.147  0.0000E+00  0.4607E+01
     12.331  0.0000E+00  0.4607E+01
     12.515  0.0000E+00  0.4607E+01
     12.700  0.0000E+00  0.4607E+01
     12.884  0.0000E+00  0.4607E+01
