TO image 02
1.0
      6.46831269532822    -11.20344622755126      0.00000000000000
      6.46831269532822     11.20344622755126      0.00000000000000
      0.00000000000000      0.00000000000000     15.49806442517753
  Zr  H
  96  1
Direct
      0.08320170132688      0.16632553102869      0.08309583168484
      0.16674128230133      0.08350812274027      0.25006252683406
      0.08311276165821      0.16704556428208      0.41617156706141
      0.16670136126463      0.08324746400575      0.58378051580882
      0.08280310377662      0.16597114067186      0.75041915268341
      0.16659221148638      0.08322204703018      0.91692015844429
      0.08320170552935      0.41687617168826      0.08309582984746
      0.16580140033773      0.33290070187477      0.24922427770896
      0.08311275773042      0.41606720082576      0.41617156388294
      0.16396407598784      0.33198203806025      0.58494027902615
      0.08280310090730      0.41683196360530      0.75041916052647
      0.16665556635126      0.33332778498367      0.91680681264280
      0.08336785953658      0.66677478355766      0.08350082551401
      0.16674128496422      0.58323316299134      0.25006253085066
      0.08327207565989      0.66644780377094      0.41680054115774
      0.16670135888347      0.58345389770510      0.58378051594714
      0.08347625082166      0.66685941383247      0.75025921109942
      0.16659221560504      0.58337016547203      0.91692015718072
      0.08336785688257      0.91659307639444      0.08350082479904
      0.16664536547921      0.83332267947951      0.25021292433185
      0.08327208369429      0.91682427608866      0.41680054148796
      0.16667954663460      0.83333977393536      0.58334261735405
      0.08347624851301      0.91661683173563      0.75025921073131
      0.16664271466023      0.83332135665264      0.91677716437984
      0.33327613179929      0.16659629046393      0.08333373861423
      0.41674777693741      0.08303187133077      0.24968540158951
      0.33367948544003      0.16630962783655      0.41625609435526
      0.41663932576233      0.08293182456217      0.58345862236992
      0.33323382382035      0.16624841484702      0.75046007239255
      0.41679204272537      0.08318560621600      0.91684935540443
      0.33342484416170      0.41671241885891      0.08310646302280
      0.41701940151664      0.33292869458196      0.24957332222227
      0.33217733239931      0.41608866845694      0.41365786366559
      0.41711525741880      0.33103034541888      0.58464103192293
      0.33346959669104      0.41673479738129      0.75140376860736
      0.41677037542981      0.33337057277872      0.91694952338640
      0.33327613036043      0.66667984657707      0.08333373931744
      0.41701940083217      0.58409070701112      0.24957332286943
      0.33367948573947      0.66736985418554      0.41625609308272
      0.41711524733903      0.58608490804621      0.58464102984515
      0.33323381864209      0.66698540670391      0.75046007484860
      0.41677037958577      0.58339980248218      0.91694952563621
      0.33304980908166      0.91652490407977      0.08315155621616
      0.41674778287963      0.83371591102750      0.24968540110660
      0.33361086116792      0.91680543173937      0.41647886483659
      0.41663932073784      0.83370749791566      0.58345862046589
      0.33325864864429      0.91662932283305      0.75022119845585
      0.41679204380833      0.83360643540295      0.91684935508214
      0.58332442609697      0.16659236175977      0.08312878196155
      0.66691395753910      0.08345697680755      0.24975557821228
      0.58357331791515      0.16661443614539      0.41627009550336
      0.66651668155468      0.08325834049159      0.58324025070351
      0.58327939816268      0.16659023205714      0.74978759049061
      0.66674291282838      0.08337144967088      0.91648289208163
      0.58344335282697      0.41684815024155      0.08322918739194
      0.66680194292602      0.33332604422891      0.24961039746745
      0.58381284377451      0.41545426478608      0.41645214447742
      0.66733755981450      0.33307170903271      0.58341697630082
      0.58374081343326      0.41676169645361      0.75016911167002
      0.66668816331095      0.33331745640066      0.91665491434356
      0.58344335279532      0.66659520914882      0.08322918315297
      0.66611968008419      0.58305983726389      0.25024959099994
      0.58381284237646      0.66835857671149      0.41645214669884
      0.66806167197711      0.58403083748836      0.58344315220620
      0.58374081336785      0.66697911550757      0.75016911011254
      0.66657627896404      0.58328813705722      0.91673843717480
      0.58332442718144      0.91673206039741      0.08312877910247
      0.66680194077898      0.83347589798826      0.24961039778941
      0.58357332025986      0.91695888112868      0.41627009073327
      0.66733755763593      0.83426584844937      0.58341697696048
      0.58327939974300      0.91668916746574      0.74978759611548
      0.66668816368310      0.83337071416037      0.91665491051022
      0.83334232490614      0.16667116299092      0.08323239355005
      0.91645531284914      0.08323265310815      0.24963956146261
      0.83311947520815      0.16655973778371      0.41653794128017
      0.91624354584930      0.08277921643537      0.58319583470188
      0.83341507702958      0.16670753271923      0.74961147113018
      0.91647712920762      0.08331004708941      0.91672596559774
      0.83347266839496      0.41682060346892      0.08298831560179
      0.91645530899446      0.33322265410744      0.24963956129493
      0.83309024812360      0.41645221300828      0.41619798940572
      0.91624354496491      0.33346433352302      0.58319583577381
      0.83343945266079      0.41663308745831      0.75019086445992
      0.91647713746989      0.33316708349965      0.91672596449524
      0.83324898693026      0.66662449388816      0.08344975771278
      0.91675089566458      0.58327676523941      0.24988983371551
      0.83372829654003      0.66686414865305      0.41645859743262
      0.91657229838735      0.58344256145803      0.58353750994395
      0.83333628352894      0.66666814383266      0.75028792364589
      0.91673445948118      0.58332975035571      0.91680692407664
      0.83347266748617      0.91665206435848      0.08298831198880
      0.91675089710295      0.83347413171095      0.24988983315099
      0.83309023890341      0.91663803298957      0.41619798654923
      0.91657229492348      0.83312973456249      0.58353750822881
      0.83343944489774      0.91680636267876      0.75019086542423
      0.91673446370293      0.83340471121751      0.91680692440872
      0.39993851484860      0.44996925986971      0.52596925250562
