 HIP runtime initialized ...    1 DCUs will be used
 Created    4 streams on each DCU
 vasp.6.3.2 27Jun22 (build Mar 15 2023 15:45:48) complex                        
  
 POSCAR found type information on POSCAR ZrH 
 02/POSCAR found :  2 types and      97 ions
 Reading from existing POTCAR
 scaLAPACK will be used selectively (only on CPU)
 Reading from existing POTCAR
 LDA part: xc-table for Pade appr. of Perdew
 POSCAR found type information on POSCAR ZrH 
 00/POSCAR found :  2 types and      97 ions
 POSCAR found type information on POSCAR ZrH 
 05/POSCAR found :  2 types and      97 ions
 Jacobian:    28.0723425804953     
 POSCAR found type information on POSCAR ZrH 
 00/POSCAR found :  2 types and      97 ions
 POSCAR found type information on POSCAR ZrH 
 05/POSCAR found :  2 types and      97 ions
 POSCAR, INCAR and KPOINTS ok, starting setup
 FFT: planning ... GRIDC
 FFT: planning ... GRID_SOFT
 FFT: planning ... GRID
 WAVECAR not read
 entering main loop
       N       E                     dE             d eps       ncg     rms          rms(c)
DAV:   1     0.127820114316E+05    0.12782E+05   -0.55793E+05 35948   0.151E+03
DAV:   2     0.514343380528E+03   -0.12268E+05   -0.11963E+05 37700   0.500E+02
DAV:   3    -0.665493834836E+03   -0.11798E+04   -0.11247E+04 56632   0.112E+02
DAV:   4    -0.839887896523E+03   -0.17439E+03   -0.17154E+03 55136   0.349E+01
DAV:   5    -0.856126768952E+03   -0.16239E+02   -0.16144E+02 50192   0.882E+00    0.992E+01
DAV:   6    -0.826626565788E+03    0.29500E+02   -0.52470E+01 41608   0.104E+01    0.384E+01
DAV:   7    -0.821367484973E+03    0.52591E+01   -0.29591E+01 45248   0.717E+00    0.794E+00
DAV:   8    -0.821985784843E+03   -0.61830E+00   -0.56583E+00 52616   0.422E+00    0.808E+00
DAV:   9    -0.821565064493E+03    0.42072E+00   -0.28444E+00 52304   0.307E+00    0.383E+00
DAV:  10    -0.821486880949E+03    0.78184E-01   -0.16117E+00 50048   0.233E+00    0.123E+00
DAV:  11    -0.821442442892E+03    0.44438E-01   -0.39197E-01 46208   0.116E+00    0.610E-01
DAV:  12    -0.821433463152E+03    0.89797E-02   -0.90867E-02 48120   0.503E-01    0.371E-01
DAV:  13    -0.821434314034E+03   -0.85088E-03   -0.26132E-02 49280   0.201E-01    0.233E-01
DAV:  14    -0.821434616593E+03   -0.30256E-03   -0.56921E-03 49160   0.159E-01    0.160E-01
DAV:  15    -0.821433870881E+03    0.74571E-03   -0.24015E-03 52288   0.121E-01    0.941E-02
DAV:  16    -0.821433806089E+03    0.64792E-04   -0.58538E-04 49632   0.466E-02    0.570E-02
DAV:  17    -0.821433803586E+03    0.25028E-05   -0.25108E-04 48640   0.267E-02    0.270E-02
DAV:  18    -0.821433802156E+03    0.14300E-05   -0.84329E-05 48024   0.160E-02    0.118E-02
DAV:  19    -0.821433800437E+03    0.17182E-05   -0.19704E-05 41152   0.789E-03    0.775E-03
DAV:  20    -0.821433799185E+03    0.12527E-05   -0.48260E-06 34512   0.432E-03    0.448E-03
DAV:  21    -0.821433798865E+03    0.31969E-06   -0.11546E-06 24896   0.239E-03
   1 F= -.82143380E+03 E0= -.82149332E+03  d E =-.821434E+03
damped:  g(F)=  0.198E-01 g(S)=  0.000E+00 dE (1.order)=-0.198E-01
 bond charge predicted
       N       E                     dE             d eps       ncg     rms          rms(c)
DAV:   1    -0.821440359996E+03   -0.65608E-02   -0.39871E-01 37552   0.989E-01    0.936E-02
DAV:   2    -0.821441146607E+03   -0.78661E-03   -0.85005E-03 41680   0.149E-01    0.589E-02
DAV:   3    -0.821441220292E+03   -0.73684E-04   -0.69697E-04 55552   0.435E-02    0.516E-02
DAV:   4    -0.821441177454E+03    0.42838E-04   -0.19316E-04 47840   0.340E-02    0.343E-02
DAV:   5    -0.821441170791E+03    0.66634E-05   -0.10199E-04 44952   0.221E-02    0.176E-02
DAV:   6    -0.821441162491E+03    0.82994E-05   -0.33123E-05 47448   0.132E-02    0.602E-03
DAV:   7    -0.821441162113E+03    0.37793E-06   -0.93322E-06 38912   0.550E-03
   2 F= -.82144116E+03 E0= -.82150063E+03  d E =-.736325E-02
damped:  g(F)=  0.161E-01 g(S)=  0.000E+00 dE (1.order)=-0.161E-01
 bond charge predicted
       N       E                     dE             d eps       ncg     rms          rms(c)
DAV:   1    -0.821446365991E+03   -0.52035E-02   -0.31438E-01 37120   0.880E-01    0.825E-02
DAV:   2    -0.821446992383E+03   -0.62639E-03   -0.67348E-03 41664   0.133E-01    0.530E-02
DAV:   3    -0.821447064710E+03   -0.72327E-04   -0.58913E-04 55480   0.434E-02    0.502E-02
DAV:   4    -0.821447009140E+03    0.55570E-04   -0.17592E-04 47864   0.326E-02    0.309E-02
DAV:   5    -0.821447006706E+03    0.24338E-05   -0.79608E-05 45112   0.186E-02    0.156E-02
DAV:   6    -0.821447000970E+03    0.57358E-05   -0.27278E-05 46576   0.118E-02    0.562E-03
DAV:   7    -0.821447000586E+03    0.38363E-06   -0.78626E-06 37736   0.505E-03
   3 F= -.82144700E+03 E0= -.82150641E+03  d E =-.583847E-02
damped:  g(F)=  0.131E-01 g(S)=  0.000E+00 dE (1.order)=-0.131E-01
 bond charge predicted
       N       E                     dE             d eps       ncg     rms          rms(c)
DAV:   1    -0.821451143167E+03   -0.41422E-02   -0.24898E-01 36944   0.785E-01    0.728E-02
DAV:   2    -0.821451640130E+03   -0.49696E-03   -0.53499E-03 41664   0.119E-01    0.463E-02
DAV:   3    -0.821451693608E+03   -0.53478E-04   -0.45872E-04 55488   0.369E-02    0.431E-02
DAV:   4    -0.821451655875E+03    0.37733E-04   -0.12948E-04 47760   0.278E-02    0.272E-02
DAV:   5    -0.821451653560E+03    0.23152E-05   -0.61058E-05 44632   0.166E-02    0.140E-02
DAV:   6    -0.821451648908E+03    0.46515E-05   -0.20865E-05 44264   0.104E-02    0.494E-03
DAV:   7    -0.821451648619E+03    0.28920E-06   -0.61648E-06 36616   0.451E-03
   4 F= -.82145165E+03 E0= -.82151101E+03  d E =-.464803E-02
damped:  g(F)=  0.109E-01 g(S)=  0.000E+00 dE (1.order)=-0.109E-01
 bond charge predicted
       N       E                     dE             d eps       ncg     rms          rms(c)
DAV:   1    -0.821454950859E+03   -0.33020E-02   -0.19621E-01 36864   0.698E-01    0.640E-02
DAV:   2    -0.821455345659E+03   -0.39480E-03   -0.42344E-03 41584   0.106E-01    0.408E-02
DAV:   3    -0.821455390319E+03   -0.44660E-04   -0.37062E-04 55624   0.336E-02    0.388E-02
DAV:   4    -0.821455357275E+03    0.33044E-04   -0.10469E-04 47320   0.249E-02    0.241E-02
DAV:   5    -0.821455355960E+03    0.13154E-05   -0.47135E-05 44320   0.143E-02    0.125E-02
DAV:   6    -0.821455352389E+03    0.35705E-05   -0.16403E-05 41504   0.921E-03    0.438E-03
DAV:   7    -0.821455352175E+03    0.21429E-06   -0.48632E-06 35240   0.402E-03
   5 F= -.82145535E+03 E0= -.82151466E+03  d E =-.370356E-02
damped:  g(F)=  0.918E-02 g(S)=  0.000E+00 dE (1.order)=-0.918E-02
 bond charge predicted
       N       E                     dE             d eps       ncg     rms          rms(c)
DAV:   1    -0.821458063626E+03   -0.27112E-02   -0.15915E-01 36664   0.630E-01    0.571E-02
DAV:   2    -0.821458384917E+03   -0.32129E-03   -0.34507E-03 41560   0.957E-02    0.362E-02
DAV:   3    -0.821458418446E+03   -0.33530E-04   -0.29506E-04 55648   0.289E-02    0.336E-02
DAV:   4    -0.821458396002E+03    0.22445E-04   -0.79037E-05 45736   0.215E-02    0.216E-02
DAV:   5    -0.821458394644E+03    0.13576E-05   -0.37474E-05 43240   0.129E-02    0.114E-02
DAV:   6    -0.821458391641E+03    0.30036E-05   -0.12968E-05 38936   0.830E-03    0.388E-03
DAV:   7    -0.821458391471E+03    0.17001E-06   -0.38179E-06 32608   0.364E-03
   6 F= -.82145839E+03 E0= -.82151766E+03  d E =-.303930E-02
damped:  g(F)=  0.781E-02 g(S)=  0.000E+00 dE (1.order)=-0.781E-02
 bond charge predicted
       N       E                     dE             d eps       ncg     rms          rms(c)
DAV:   1    -0.821460645883E+03   -0.22542E-02   -0.13218E-01 36592   0.575E-01    0.516E-02
DAV:   2    -0.821460913982E+03   -0.26810E-03   -0.28759E-03 41568   0.874E-02    0.328E-02
DAV:   3    -0.821460942053E+03   -0.28071E-04   -0.24696E-04 55736   0.264E-02    0.306E-02
DAV:   4    -0.821460923074E+03    0.18980E-04   -0.65190E-05 45392   0.195E-02    0.197E-02
DAV:   5    -0.821460922024E+03    0.10493E-05   -0.30468E-05 43000   0.116E-02    0.104E-02
DAV:   6    -0.821460919581E+03    0.24435E-05   -0.10663E-05 37576   0.752E-03    0.353E-03
DAV:   7    -0.821460919431E+03    0.14933E-06   -0.30949E-06 30256   0.334E-03
   7 F= -.82146092E+03 E0= -.82152015E+03  d E =-.252796E-02
damped:  g(F)=  0.663E-02 g(S)=  0.000E+00 dE (1.order)=-0.663E-02
 bond charge predicted
       N       E                     dE             d eps       ncg     rms          rms(c)
DAV:   1    -0.821462763131E+03   -0.18436E-02   -0.10798E-01 36552   0.521E-01    0.463E-02
DAV:   2    -0.821462983908E+03   -0.22078E-03   -0.23611E-03 41600   0.793E-02    0.296E-02
DAV:   3    -0.821463008051E+03   -0.24143E-04   -0.20524E-04 55704   0.245E-02    0.281E-02
DAV:   4    -0.821462990808E+03    0.17243E-04   -0.54757E-05 45288   0.179E-02    0.178E-02
DAV:   5    -0.821462990175E+03    0.63375E-06   -0.24445E-05 42592   0.103E-02    0.945E-03
DAV:   6    -0.821462988228E+03    0.19466E-05   -0.87630E-06 36632   0.680E-03    0.320E-03
DAV:   7    -0.821462988129E+03    0.98618E-07   -0.25158E-06 28896   0.310E-03
   8 F= -.82146299E+03 E0= -.82152219E+03  d E =-.206870E-02
damped:  g(F)=  0.562E-02 g(S)=  0.000E+00 dE (1.order)=-0.562E-02
 bond charge predicted
       N       E                     dE             d eps       ncg     rms          rms(c)
DAV:   1    -0.821464519840E+03   -0.15316E-02   -0.88419E-02 36506   0.472E-01    0.413E-02
DAV:   2    -0.821464702447E+03   -0.18261E-03   -0.19500E-03 41648   0.720E-02    0.267E-02
DAV:   3    -0.821464722222E+03   -0.19775E-04   -0.16812E-04 55797   0.223E-02    0.253E-02
DAV:   4    -0.821464708039E+03    0.14183E-04   -0.44725E-05 45208   0.161E-02    0.162E-02
DAV:   5    -0.821464707597E+03    0.44159E-06   -0.19677E-05 40008   0.916E-03    0.858E-03
DAV:   6    -0.821464706023E+03    0.15737E-05   -0.73376E-06 35960   0.625E-03    0.292E-03
DAV:   7    -0.821464706002E+03    0.21610E-07   -0.20504E-06 27888   0.301E-03
   9 F= -.82146471E+03 E0= -.82152387E+03  d E =-.171787E-02
damped:  g(F)=  0.492E-02 g(S)=  0.000E+00 dE (1.order)=-0.492E-02
 bond charge predicted
       N       E                     dE             d eps       ncg     rms          rms(c)
DAV:   1    -0.821466011624E+03   -0.13056E-02   -0.74688E-02 36474   0.435E-01    0.375E-02
DAV:   2    -0.821466165362E+03   -0.15374E-03   -0.16539E-03 41608   0.662E-02    0.239E-02
DAV:   3    -0.821466177319E+03   -0.11956E-04   -0.13366E-04 55853   0.174E-02    0.203E-02
DAV:   4    -0.821466172473E+03    0.48460E-05   -0.28363E-05 38352   0.126E-02    0.148E-02
DAV:   5    -0.821466171410E+03    0.10628E-05   -0.16489E-05 37792   0.898E-03    0.807E-03
DAV:   6    -0.821466169887E+03    0.15233E-05   -0.59547E-06 33504   0.585E-03    0.258E-03
DAV:   7    -0.821466169786E+03    0.10080E-06   -0.15458E-06 25832   0.256E-03
  10 F= -.82146617E+03 E0= -.82152531E+03  d E =-.146378E-02
damped:  g(F)=  0.430E-02 g(S)=  0.000E+00 dE (1.order)=-0.430E-02
 bond charge predicted
       N       E                     dE             d eps       ncg     rms          rms(c)
DAV:   1    -0.821467281284E+03   -0.11114E-02   -0.63533E-02 36442   0.402E-01    0.343E-02
DAV:   2    -0.821467413478E+03   -0.13219E-03   -0.14124E-03 41608   0.612E-02    0.220E-02
DAV:   3    -0.821467426756E+03   -0.13278E-04   -0.12031E-04 55829   0.178E-02    0.206E-02
DAV:   4    -0.821467418346E+03    0.84102E-05   -0.28313E-05 38880   0.127E-02    0.136E-02
DAV:   5    -0.821467418016E+03    0.33012E-06   -0.13489E-05 36880   0.772E-03    0.746E-03
DAV:   6    -0.821467416841E+03    0.11743E-05   -0.51950E-06 33320   0.538E-03    0.240E-03
DAV:   7    -0.821467416781E+03    0.60303E-07   -0.13400E-06 25016   0.244E-03
  11 F= -.82146742E+03 E0= -.82152653E+03  d E =-.124700E-02
damped:  g(F)=  0.379E-02 g(S)=  0.000E+00 dE (1.order)=-0.379E-02
 bond charge predicted
       N       E                     dE             d eps       ncg     rms          rms(c)
DAV:   1    -0.821468353468E+03   -0.93663E-03   -0.53402E-02 36410   0.368E-01    0.311E-02
DAV:   2    -0.821468465394E+03   -0.11193E-03   -0.11924E-03 41680   0.562E-02    0.202E-02
DAV:   3    -0.821468477397E+03   -0.12003E-04   -0.10328E-04 55773   0.171E-02    0.195E-02
DAV:   4    -0.821468468960E+03    0.84370E-05   -0.25191E-05 38216   0.121E-02    0.125E-02
DAV:   5    -0.821468468811E+03    0.14984E-06   -0.11225E-05 35976   0.690E-03    0.682E-03
DAV:   6    -0.821468467875E+03    0.93601E-06   -0.44587E-06 32240   0.497E-03
  12 F= -.82146847E+03 E0= -.82152756E+03  d E =-.105109E-02
damped:  g(F)=  0.330E-02 g(S)=  0.000E+00 dE (1.order)=-0.330E-02
 bond charge predicted
       N       E                     dE             d eps       ncg     rms          rms(c)
DAV:   1    -0.821469266176E+03   -0.79737E-03   -0.44561E-02 36418   0.337E-01    0.281E-02
DAV:   2    -0.821469364908E+03   -0.98733E-04   -0.99952E-04 41632   0.521E-02    0.202E-02
DAV:   3    -0.821469371818E+03   -0.69102E-05   -0.10254E-04 56512   0.196E-02    0.198E-02
DAV:   4    -0.821469362961E+03    0.88569E-05   -0.23370E-05 39680   0.112E-02    0.114E-02
DAV:   5    -0.821469363041E+03   -0.79322E-07   -0.91050E-06 35408   0.613E-03
  13 F= -.82146936E+03 E0= -.82152844E+03  d E =-.895166E-03
damped:  g(F)=  0.293E-02 g(S)=  0.000E+00 dE (1.order)=-0.293E-02
 bond charge predicted
       N       E                     dE             d eps       ncg     rms          rms(c)
DAV:   1    -0.821470066880E+03   -0.70392E-03   -0.38996E-02 36432   0.316E-01    0.257E-02
DAV:   2    -0.821470150763E+03   -0.83884E-04   -0.87864E-04 41784   0.478E-02    0.170E-02
DAV:   3    -0.821470160620E+03   -0.98567E-05   -0.79548E-05 55744   0.151E-02    0.176E-02
DAV:   4    -0.821470153159E+03    0.74612E-05   -0.18260E-05 35520   0.102E-02    0.105E-02
DAV:   5    -0.821470153365E+03   -0.20649E-06   -0.77569E-06 34880   0.581E-03
  14 F= -.82147015E+03 E0= -.82152921E+03  d E =-.790325E-03
damped:  g(F)=  0.261E-02 g(S)=  0.000E+00 dE (1.order)=-0.261E-02
 bond charge predicted
       N       E                     dE             d eps       ncg     rms          rms(c)
DAV:   1    -0.821470788165E+03   -0.63501E-03   -0.34829E-02 36504   0.298E-01    0.238E-02
DAV:   2    -0.821470863112E+03   -0.74947E-04   -0.78756E-04 41792   0.451E-02    0.157E-02
DAV:   3    -0.821470872110E+03   -0.89978E-05   -0.70308E-05 55824   0.140E-02    0.164E-02
DAV:   4    -0.821470865545E+03    0.65650E-05   -0.15666E-05 35144   0.940E-03    0.974E-03
DAV:   5    -0.821470865891E+03   -0.34625E-06   -0.70692E-06 34688   0.539E-03
  15 F= -.82147087E+03 E0= -.82152991E+03  d E =-.712526E-03
damped:  g(F)=  0.235E-02 g(S)=  0.000E+00 dE (1.order)=-0.235E-02
 bond charge predicted
       N       E                     dE             d eps       ncg     rms          rms(c)
DAV:   1    -0.821471428777E+03   -0.56323E-03   -0.30650E-02 36504   0.280E-01    0.221E-02
DAV:   2    -0.821471495251E+03   -0.66474E-04   -0.69745E-04 41896   0.424E-02    0.146E-02
DAV:   3    -0.821471503123E+03   -0.78720E-05   -0.62052E-05 55768   0.131E-02    0.153E-02
DAV:   4    -0.821471497377E+03    0.57466E-05   -0.13524E-05 34984   0.872E-03    0.914E-03
DAV:   5    -0.821471497676E+03   -0.29970E-06   -0.60419E-06 34120   0.502E-03
  16 F= -.82147150E+03 E0= -.82153053E+03  d E =-.631785E-03
damped:  g(F)=  0.213E-02 g(S)=  0.000E+00 dE (1.order)=-0.213E-02
 bond charge predicted
       N       E                     dE             d eps       ncg     rms          rms(c)
DAV:   1    -0.821472002698E+03   -0.50532E-03   -0.27070E-02 36552   0.264E-01    0.206E-02
DAV:   2    -0.821472061556E+03   -0.58858E-04   -0.61672E-04 41912   0.398E-02    0.137E-02
DAV:   3    -0.821472068444E+03   -0.68876E-05   -0.55216E-05 55728   0.124E-02    0.144E-02
DAV:   4    -0.821472063365E+03    0.50794E-05   -0.11806E-05 34872   0.813E-03    0.856E-03
DAV:   5    -0.821472063633E+03   -0.26867E-06   -0.52548E-06 33744   0.466E-03
  17 F= -.82147206E+03 E0= -.82153109E+03  d E =-.565957E-03
damped:  g(F)=  0.194E-02 g(S)=  0.000E+00 dE (1.order)=-0.194E-02
 bond charge predicted
       N       E                     dE             d eps       ncg     rms          rms(c)
DAV:   1    -0.821472506095E+03   -0.44273E-03   -0.23466E-02 36552   0.246E-01    0.189E-02
DAV:   2    -0.821472557392E+03   -0.51296E-04   -0.53675E-04 41920   0.371E-02    0.127E-02
DAV:   3    -0.821472563266E+03   -0.58740E-05   -0.48335E-05 55672   0.116E-02    0.134E-02
DAV:   4    -0.821472558937E+03    0.43290E-05   -0.10031E-05 34776   0.745E-03    0.798E-03
DAV:   5    -0.821472559152E+03   -0.21569E-06   -0.43757E-06 33008   0.428E-03
  18 F= -.82147256E+03 E0= -.82153158E+03  d E =-.495519E-03
damped:  g(F)=  0.178E-02 g(S)=  0.000E+00 dE (1.order)=-0.178E-02
 bond charge predicted
       N       E                     dE             d eps       ncg     rms          rms(c)
DAV:   1    -0.821472961573E+03   -0.40264E-03   -0.21099E-02 36552   0.233E-01    0.176E-02
DAV:   2    -0.821473007933E+03   -0.46361E-04   -0.48372E-04 41984   0.352E-02    0.120E-02
DAV:   3    -0.821473013074E+03   -0.51409E-05   -0.43865E-05 55680   0.111E-02    0.127E-02
DAV:   4    -0.821473009223E+03    0.38518E-05   -0.88592E-06 34712   0.697E-03    0.755E-03
DAV:   5    -0.821473009413E+03   -0.19062E-06   -0.38271E-06 32384   0.400E-03
  19 F= -.82147301E+03 E0= -.82153202E+03  d E =-.450261E-03
damped:  g(F)=  0.161E-02 g(S)=  0.000E+00 dE (1.order)=-0.161E-02
 bond charge predicted
       N       E                     dE             d eps       ncg     rms          rms(c)
DAV:   1    -0.821473381677E+03   -0.37245E-03   -0.18854E-02 36544   0.221E-01    0.165E-02
DAV:   2    -0.821473423278E+03   -0.41601E-04   -0.43311E-04 41976   0.333E-02    0.113E-02
DAV:   3    -0.821473427743E+03   -0.44650E-05   -0.39541E-05 55680   0.106E-02    0.120E-02
DAV:   4    -0.821473424364E+03    0.33792E-05   -0.77668E-06 34480   0.650E-03    0.713E-03
DAV:   5    -0.821473424519E+03   -0.15587E-06   -0.32990E-06 31832   0.374E-03
  20 F= -.82147342E+03 E0= -.82153243E+03  d E =-.415106E-03
damped:  g(F)=  0.150E-02 g(S)=  0.000E+00 dE (1.order)=-0.150E-02
 bond charge predicted
       N       E                     dE             d eps       ncg     rms          rms(c)
DAV:   1    -0.821473763950E+03   -0.33959E-03   -0.17346E-02 36576   0.212E-01    0.156E-02
DAV:   2    -0.821473802340E+03   -0.38390E-04   -0.39938E-04 42024   0.319E-02    0.108E-02
DAV:   3    -0.821473806361E+03   -0.40213E-05   -0.36567E-05 55680   0.102E-02    0.114E-02
DAV:   4    -0.821473803327E+03    0.30344E-05   -0.69998E-06 34144   0.614E-03    0.684E-03
DAV:   5    -0.821473803451E+03   -0.12430E-06   -0.29094E-06 31168   0.353E-03
  21 F= -.82147380E+03 E0= -.82153280E+03  d E =-.378932E-03
damped:  g(F)=  0.140E-02 g(S)=  0.000E+00 dE (1.order)=-0.140E-02
 bond charge predicted
       N       E                     dE             d eps       ncg     rms          rms(c)
DAV:   1    -0.821474110352E+03   -0.30702E-03   -0.15595E-02 36552   0.201E-01    0.147E-02
DAV:   2    -0.821474144986E+03   -0.34634E-04   -0.35970E-04 42072   0.303E-02    0.102E-02
DAV:   3    -0.821474148481E+03   -0.34955E-05   -0.33021E-05 55592   0.968E-03    0.108E-02
DAV:   4    -0.821474145812E+03    0.26691E-05   -0.61735E-06 33768   0.575E-03    0.648E-03
DAV:   5    -0.821474145908E+03   -0.95577E-07   -0.24740E-06 30168   0.330E-03
  22 F= -.82147415E+03 E0= -.82153314E+03  d E =-.342457E-03
damped:  g(F)=  0.130E-02 g(S)=  0.000E+00 dE (1.order)=-0.130E-02
 bond charge predicted
       N       E                     dE             d eps       ncg     rms          rms(c)
DAV:   1    -0.821474434566E+03   -0.28875E-03   -0.14134E-02 36552   0.191E-01    0.138E-02
DAV:   2    -0.821474466026E+03   -0.31461E-04   -0.32658E-04 42072   0.289E-02    0.971E-03
DAV:   3    -0.821474469130E+03   -0.31041E-05   -0.30038E-05 55512   0.923E-03    0.102E-02
DAV:   4    -0.821474466757E+03    0.23733E-05   -0.55024E-06 33232   0.542E-03    0.617E-03
DAV:   5    -0.821474466830E+03   -0.72730E-07   -0.21527E-06 29560   0.310E-03
  23 F= -.82147447E+03 E0= -.82153346E+03  d E =-.320922E-03
damped:  g(F)=  0.124E-02 g(S)=  0.000E+00 dE (1.order)=-0.124E-02
 bond charge predicted
       N       E                     dE             d eps       ncg     rms          rms(c)
DAV:   1    -0.821474741042E+03   -0.27428E-03   -0.13467E-02 36560   0.187E-01    0.133E-02
DAV:   2    -0.821474771173E+03   -0.30131E-04   -0.31192E-04 42176   0.282E-02    0.948E-03
DAV:   3    -0.821474773972E+03   -0.27987E-05   -0.28652E-05 55424   0.905E-03    0.994E-03
DAV:   4    -0.821474771786E+03    0.21851E-05   -0.50799E-06 32920   0.518E-03    0.602E-03
DAV:   5    -0.821474771852E+03   -0.65600E-07   -0.19770E-06 29176   0.300E-03
  24 F= -.82147477E+03 E0= -.82153376E+03  d E =-.305022E-03
damped:  g(F)=  0.116E-02 g(S)=  0.000E+00 dE (1.order)=-0.116E-02
 bond charge predicted
       N       E                     dE             d eps       ncg     rms          rms(c)
DAV:   1    -0.821475028211E+03   -0.25642E-03   -0.12242E-02 36544   0.178E-01    0.126E-02
DAV:   2    -0.821475055631E+03   -0.27420E-04   -0.28405E-04 42184   0.268E-02    0.901E-03
DAV:   3    -0.821475058174E+03   -0.25439E-05   -0.26039E-05 55168   0.859E-03    0.944E-03
DAV:   4    -0.821475056211E+03    0.19635E-05   -0.45617E-06 32520   0.491E-03    0.574E-03
DAV:   5    -0.821475056265E+03   -0.54366E-07   -0.17509E-06 28592   0.285E-03
  25 F= -.82147506E+03 E0= -.82153404E+03  d E =-.284413E-03
damped:  g(F)=  0.109E-02 g(S)=  0.000E+00 dE (1.order)=-0.109E-02
 bond charge predicted
       N       E                     dE             d eps       ncg     rms          rms(c)
DAV:   1    -0.821475290346E+03   -0.23413E-03   -0.11331E-02 36544   0.172E-01    0.121E-02
DAV:   2    -0.821475315749E+03   -0.25403E-04   -0.26324E-04 42184   0.258E-02    0.865E-03
DAV:   3    -0.821475318082E+03   -0.23333E-05   -0.24125E-05 54728   0.828E-03    0.905E-03
DAV:   4    -0.821475316278E+03    0.18041E-05   -0.42144E-06 32112   0.472E-03    0.552E-03
DAV:   5    -0.821475316316E+03   -0.38461E-07   -0.15511E-06 27848   0.272E-03
  26 F= -.82147532E+03 E0= -.82153430E+03  d E =-.260051E-03
damped:  g(F)=  0.102E-02 g(S)=  0.000E+00 dE (1.order)=-0.102E-02
 bond charge predicted
       N       E                     dE             d eps       ncg     rms          rms(c)
DAV:   1    -0.821475538828E+03   -0.22255E-03   -0.10638E-02 36520   0.166E-01    0.117E-02
DAV:   2    -0.821475562756E+03   -0.23928E-04   -0.24768E-04 42296   0.251E-02    0.841E-03
DAV:   3    -0.821475564877E+03   -0.21209E-05   -0.22671E-05 54344   0.805E-03    0.875E-03
DAV:   4    -0.821475563215E+03    0.16624E-05   -0.39051E-06 31904   0.453E-03    0.535E-03
DAV:   5    -0.821475563244E+03   -0.29162E-07   -0.13804E-06 27144   0.262E-03
  27 F= -.82147556E+03 E0= -.82153455E+03  d E =-.246928E-03
damped:  g(F)=  0.973E-03 g(S)=  0.000E+00 dE (1.order)=-0.973E-03
 bond charge predicted
       N       E                     dE             d eps       ncg     rms          rms(c)
DAV:   1    -0.821475767009E+03   -0.20379E-03   -0.98403E-03 36480   0.160E-01    0.112E-02
DAV:   2    -0.821475789156E+03   -0.22147E-04   -0.22964E-04 42456   0.241E-02    0.808E-03
DAV:   3    -0.821475791106E+03   -0.19498E-05   -0.20591E-05 52936   0.768E-03    0.837E-03
DAV:   4    -0.821475789579E+03    0.15269E-05   -0.36060E-06 31440   0.438E-03    0.513E-03
DAV:   5    -0.821475789609E+03   -0.29366E-07   -0.12590E-06 26712   0.252E-03
  28 F= -.82147579E+03 E0= -.82153477E+03  d E =-.226365E-03
damped:  g(F)=  0.926E-03 g(S)=  0.000E+00 dE (1.order)=-0.926E-03
 bond charge predicted
       N       E                     dE             d eps       ncg     rms          rms(c)
DAV:   1    -0.821476001147E+03   -0.21157E-03   -0.96341E-03 36496   0.158E-01    0.111E-02
DAV:   2    -0.821476022725E+03   -0.21579E-04   -0.22422E-04 42184   0.238E-02    0.795E-03
DAV:   3    -0.821476024679E+03   -0.19533E-05   -0.20216E-05 52672   0.758E-03    0.826E-03
DAV:   4    -0.821476023184E+03    0.14947E-05   -0.35644E-06 31544   0.434E-03    0.508E-03
DAV:   5    -0.821476023202E+03   -0.18539E-07   -0.12020E-06 26424   0.247E-03
  29 F= -.82147602E+03 E0= -.82153500E+03  d E =-.233594E-03
damped:  g(F)=  0.876E-03 g(S)=  0.000E+00 dE (1.order)=-0.876E-03
 bond charge predicted
       N       E                     dE             d eps       ncg     rms          rms(c)
DAV:   1    -0.821476222846E+03   -0.19966E-03   -0.90894E-03 36512   0.154E-01    0.107E-02
DAV:   2    -0.821476243111E+03   -0.20266E-04   -0.21207E-04 42240   0.231E-02    0.759E-03
DAV:   3    -0.821476245061E+03   -0.19491E-05   -0.18400E-05 50488   0.708E-03    0.789E-03
DAV:   4    -0.821476243676E+03    0.13843E-05   -0.33379E-06 31208   0.424E-03    0.492E-03
DAV:   5    -0.821476243696E+03   -0.19398E-07   -0.11108E-06 26064   0.240E-03
  30 F= -.82147624E+03 E0= -.82153522E+03  d E =-.220493E-03
damped:  g(F)=  0.845E-03 g(S)=  0.000E+00 dE (1.order)=-0.845E-03
 bond charge predicted
       N       E                     dE             d eps       ncg     rms          rms(c)
DAV:   1    -0.821476442682E+03   -0.19901E-03   -0.88746E-03 36512   0.152E-01    0.105E-02
DAV:   2    -0.821476462335E+03   -0.19653E-04   -0.20729E-04 42280   0.227E-02    0.730E-03
DAV:   3    -0.821476464342E+03   -0.20061E-05   -0.17339E-05 49856   0.658E-03    0.760E-03
DAV:   4    -0.821476463060E+03    0.12817E-05   -0.31009E-06 30904   0.409E-03    0.485E-03
DAV:   5    -0.821476463069E+03   -0.92550E-08   -0.10303E-06 25808   0.233E-03
  31 F= -.82147646E+03 E0= -.82153544E+03  d E =-.219373E-03
damped:  g(F)=  0.808E-03 g(S)=  0.000E+00 dE (1.order)=-0.808E-03
 bond charge predicted
       N       E                     dE             d eps       ncg     rms          rms(c)
DAV:   1    -0.821476653702E+03   -0.19064E-03   -0.85180E-03 36520   0.149E-01    0.102E-02
DAV:   2    -0.821476672583E+03   -0.18881E-04   -0.19898E-04 42320   0.223E-02    0.711E-03
DAV:   3    -0.821476674488E+03   -0.19052E-05   -0.16625E-05 48520   0.649E-03    0.743E-03
DAV:   4    -0.821476673260E+03    0.12273E-05   -0.30438E-06 30800   0.405E-03    0.472E-03
DAV:   5    -0.821476673269E+03   -0.82218E-08   -0.97851E-07 25360   0.227E-03
  32 F= -.82147667E+03 E0= -.82153565E+03  d E =-.210200E-03
damped:  g(F)=  0.769E-03 g(S)=  0.000E+00 dE (1.order)=-0.769E-03
 bond charge predicted
       N       E                     dE             d eps       ncg     rms          rms(c)
DAV:   1    -0.821476855643E+03   -0.18238E-03   -0.81212E-03 36528   0.145E-01    0.995E-03
DAV:   2    -0.821476873741E+03   -0.18099E-04   -0.18992E-04 42384   0.217E-02    0.703E-03
DAV:   3    -0.821476875479E+03   -0.17374E-05   -0.15938E-05 47776   0.650E-03    0.732E-03
DAV:   4    -0.821476874295E+03    0.11841E-05   -0.29155E-06 30432   0.397E-03    0.460E-03
DAV:   5    -0.821476874307E+03   -0.12660E-07   -0.95118E-07 25080   0.224E-03
  33 F= -.82147687E+03 E0= -.82153585E+03  d E =-.201039E-03
damped:  g(F)=  0.746E-03 g(S)=  0.000E+00 dE (1.order)=-0.746E-03
 bond charge predicted
       N       E                     dE             d eps       ncg     rms          rms(c)
DAV:   1    -0.821477048223E+03   -0.17393E-03   -0.75025E-03 36512   0.140E-01    0.954E-03
DAV:   2    -0.821477065008E+03   -0.16784E-04   -0.17629E-04 42560   0.209E-02    0.679E-03
DAV:   3    -0.821477066560E+03   -0.15523E-05   -0.14397E-05 45272   0.624E-03    0.699E-03
DAV:   4    -0.821477065487E+03    0.10726E-05   -0.27673E-06 29744   0.391E-03    0.439E-03
DAV:   5    -0.821477065512E+03   -0.24447E-07   -0.95363E-07 24488   0.219E-03
  34 F= -.82147707E+03 E0= -.82153604E+03  d E =-.191204E-03
damped:  g(F)=  0.721E-03 g(S)=  0.000E+00 dE (1.order)=-0.721E-03
 bond charge predicted
       N       E                     dE             d eps       ncg     rms          rms(c)
DAV:   1    -0.821477239783E+03   -0.17430E-03   -0.72862E-03 36488   0.138E-01    0.942E-03
DAV:   2    -0.821477256013E+03   -0.16230E-04   -0.17179E-04 42552   0.205E-02    0.661E-03
DAV:   3    -0.821477257595E+03   -0.15815E-05   -0.13786E-05 45672   0.587E-03    0.678E-03
DAV:   4    -0.821477256588E+03    0.10072E-05   -0.25421E-06 29392   0.377E-03    0.435E-03
DAV:   5    -0.821477256600E+03   -0.12471E-07   -0.88821E-07 24248   0.213E-03
  35 F= -.82147726E+03 E0= -.82153624E+03  d E =-.191088E-03
damped:  g(F)=  0.688E-03 g(S)=  0.000E+00 dE (1.order)=-0.688E-03
 bond charge predicted
       N       E                     dE             d eps       ncg     rms          rms(c)
DAV:   1    -0.821477425866E+03   -0.16928E-03   -0.69669E-03 36504   0.135E-01    0.913E-03
DAV:   2    -0.821477441370E+03   -0.15505E-04   -0.16432E-04 42656   0.201E-02    0.637E-03
DAV:   3    -0.821477442849E+03   -0.14790E-05   -0.12695E-05 43552   0.554E-03    0.650E-03
DAV:   4    -0.821477441949E+03    0.90072E-06   -0.24168E-06 28832   0.370E-03
  36 F= -.82147744E+03 E0= -.82153642E+03  d E =-.185349E-03
damped:  g(F)=  0.666E-03 g(S)=  0.000E+00 dE (1.order)=-0.666E-03
 bond charge predicted
       N       E                     dE             d eps       ncg     rms          rms(c)
DAV:   1    -0.821477604991E+03   -0.16214E-03   -0.68431E-03 36688   0.133E-01    0.976E-03
DAV:   2    -0.821477620858E+03   -0.15867E-04   -0.16220E-04 42968   0.200E-02    0.808E-03
DAV:   3    -0.821477621353E+03   -0.49539E-06   -0.13641E-05 42976   0.663E-03    0.740E-03
DAV:   4    -0.821477620608E+03    0.74584E-06   -0.24852E-06 28744   0.359E-03
  37 F= -.82147762E+03 E0= -.82153660E+03  d E =-.178659E-03
damped:  g(F)=  0.640E-03 g(S)=  0.000E+00 dE (1.order)=-0.640E-03
 reached required accuracy - stopping structural energy minimisation
 PROFILE, used timers:     234
