TO image 04                             
   1.00000000000000     
     6.4683126953282200  -11.2034462275512592    0.0000000000000000
     6.4683126953282200   11.2034462275512592    0.0000000000000000
     0.0000000000000000    0.0000000000000000   15.4980644251775299
   Zr   H 
    96     1
Direct
  0.0830916125322866  0.1663051801161916  0.0829803139364220
  0.1664236454440376  0.0832463825908748  0.2499447129278203
  0.0831901270270564  0.1669840136747363  0.4160725541100934
  0.1668984166062616  0.0833009427248480  0.5839549533559211
  0.0828531481856926  0.1660395727615259  0.7503567021240992
  0.1664889157358815  0.0831830317340065  0.9170428249596709
  0.0830916147703395  0.4167864350419475  0.0829803138816538
  0.1659255799820206  0.3329627901234868  0.2488403975757765
  0.0831901227064291  0.4162061099061808  0.4160725554408794
  0.1639881981732194  0.3319940968508568  0.5846044215976199
  0.0828531511114666  0.4168135772116221  0.7503567026386351
  0.1667921546263307  0.3333960783484410  0.9167069918949177
  0.0833506408485818  0.6667962456707863  0.0834773235942122
  0.1664236455044970  0.5831772648520909  0.2499447128256863
  0.0830656333001771  0.6662433758422523  0.4167771294065753
  0.1668984112603573  0.5835974748377688  0.5839549516882480
  0.0834238269819389  0.6670177886964755  0.7502625016532356
  0.1664889147769231  0.5833058852693613  0.9170428257028850
  0.0833506422367356  0.9165543967468395  0.0834773243022502
  0.1666284193122092  0.8333142106343040  0.2504694167933761
  0.0830656340018998  0.9168222598092497  0.4167771305545108
  0.1666694687507351  0.8333347339953744  0.5832955381650120
  0.0834238269529640  0.9164060368655361  0.7502625009757519
  0.1666143124666508  0.8333071566729031  0.9167754642552824
  0.3334198730483646  0.1668593183103459  0.0834602149638592
  0.4167471050367531  0.0830850291901611  0.2497863480811225
  0.3326968146920373  0.1656365749539529  0.4163391282878218
  0.4164082983534915  0.0830275042715025  0.5837500872606054
  0.3330790406127674  0.1660221237576023  0.7508962695236076
  0.4167594766408573  0.0831913107458023  0.9170421007093623
  0.3337266819567701  0.4168633416319292  0.0833597528589403
  0.4167483698394310  0.3333293717077907  0.2502500008066186
  0.3281729828852716  0.4140864931365429  0.4158671248124768
  0.4143171006523002  0.3298122526595159  0.5844361427442610
  0.3329502556320167  0.4164751256968356  0.7502628712367412
  0.4168808883011538  0.3336519602482675  0.9167431347642807
  0.3334198733799237  0.6665605562326332  0.0834602153183593
  0.4167483698572298  0.5834189988331961  0.2502499983415873
  0.3326968121216131  0.6670602398335563  0.4163391280672620
  0.4143170847401609  0.5845048432316325  0.5844361372523190
  0.3330790389880683  0.6670569153664884  0.7508962686722904
  0.4168808881836845  0.5832289285538956  0.9167431349883326
  0.3329823108787358  0.9164911565343409  0.0833522122639695
  0.4167471041152516  0.8336620760274560  0.2497863485482002
  0.3337536579744359  0.9168768305414082  0.4166937787063070
  0.4164083008648373  0.8333807959493800  0.5837500871154898
  0.3329136900330060  0.9164568442028331  0.7502972672533874
  0.4167594758321823  0.8335681678876022  0.9170421022993939
  0.5832932626688010  0.1664874464053781  0.0830366118630824
  0.6669793142084364  0.0834896572402063  0.2497634144573808
  0.5837169064250708  0.1673243750312388  0.4161407146754021
  0.6663367328730544  0.0831683668869195  0.5832048821723669
  0.5830627259521124  0.1663396396326568  0.7500162050361862
  0.6667233099641059  0.0833616540397706  0.9165091819519817
  0.5831694830907107  0.4168697512137023  0.0833692944486560
  0.6668583638950276  0.3334544618097590  0.2496421186105021
  0.5844775742163394  0.4146953379223149  0.4167621339042188
  0.6667953201862771  0.3326918607188231  0.5836608551250995
  0.5831043450262466  0.4166611853180640  0.7498486975099853
  0.6665557754307961  0.3334178783017967  0.9165215872843316
  0.5831694836771228  0.6662997332598717  0.0833692926686387
  0.6660938240653359  0.5830469118184303  0.2504382513575215
  0.5844775712409053  0.6697822334927869  0.4167621312154491
  0.6707670308012217  0.5853835117816025  0.5835060590794258
  0.5831043242387829  0.6664431334587891  0.7498486839136125
  0.6663360700797083  0.5831680374031992  0.9166377651794977
  0.5832932633291218  0.9168058156536375  0.0830366113552612
  0.6668583636733507  0.8334039019977589  0.2496421176062665
  0.5837169058215304  0.9163925322016764  0.4161407147419807
  0.6667953200125554  0.8341034573954952  0.5836608546392235
  0.5830627233683104  0.9167230827418443  0.7500162045051236
  0.6665557701132819  0.8331378899072133  0.9165215810596682
  0.8332673902912781  0.1666336957864174  0.0832469354780468
  0.9164269427627305  0.0833752194031729  0.2496844560045269
  0.8332447592255138  0.1666223795232190  0.4166231012910309
  0.9166443686265974  0.0828642302069673  0.5831755384709991
  0.8333003972730948  0.1666501976038256  0.7495035442949485
  0.9163970742224147  0.0834007605285728  0.9166246182429394
  0.8334685693028349  0.4167375775320877  0.0829805801794515
  0.9164269426682022  0.3330517239930774  0.2496844561644470
  0.8327617356402864  0.4163700542025893  0.4162407603108362
  0.9166443693221906  0.3337801384659950  0.5831755387104232
  0.8333758738689229  0.4166281938962066  0.7501519881760889
  0.9163970779834576  0.3329963148517045  0.9166246196918595
  0.8331249501170188  0.6665624760582489  0.0834820579295741
  0.9167430023316903  0.5832054074227327  0.2498614573119454
  0.8336544842183186  0.6668272421746292  0.4163946267151681
  0.9164149785682316  0.5836705808269765  0.5837005704855526
  0.8334538020297890  0.6667269033346972  0.7503572037892500
  0.9168376495018801  0.5832401353111967  0.9169124676459421
  0.8334685684487104  0.9167309934945379  0.0829805793700525
  0.9167430030333898  0.8335375973134567  0.2498614584714554
  0.8327617298885073  0.9163916786334320  0.4162407603574286
  0.9164149745409178  0.8327443951918362  0.5837005708696934
  0.8333758714770884  0.9167476751642962  0.7501519877526189
  0.9168376527506046  0.8335975178449204  0.9169124693568995
  0.4662422283462080  0.4831211144764647  0.5078676396525423
 
  0.00000000E+00  0.00000000E+00  0.00000000E+00
  0.00000000E+00  0.00000000E+00  0.00000000E+00
  0.00000000E+00  0.00000000E+00  0.00000000E+00
  0.00000000E+00  0.00000000E+00  0.00000000E+00
  0.00000000E+00  0.00000000E+00  0.00000000E+00
  0.00000000E+00  0.00000000E+00  0.00000000E+00
  0.00000000E+00  0.00000000E+00  0.00000000E+00
  0.00000000E+00  0.00000000E+00  0.00000000E+00
  0.00000000E+00  0.00000000E+00  0.00000000E+00
  0.00000000E+00  0.00000000E+00  0.00000000E+00
  0.00000000E+00  0.00000000E+00  0.00000000E+00
  0.00000000E+00  0.00000000E+00  0.00000000E+00
  0.00000000E+00  0.00000000E+00  0.00000000E+00
  0.00000000E+00  0.00000000E+00  0.00000000E+00
  0.00000000E+00  0.00000000E+00  0.00000000E+00
  0.00000000E+00  0.00000000E+00  0.00000000E+00
  0.00000000E+00  0.00000000E+00  0.00000000E+00
  0.00000000E+00  0.00000000E+00  0.00000000E+00
  0.00000000E+00  0.00000000E+00  0.00000000E+00
  0.00000000E+00  0.00000000E+00  0.00000000E+00
  0.00000000E+00  0.00000000E+00  0.00000000E+00
  0.00000000E+00  0.00000000E+00  0.00000000E+00
  0.00000000E+00  0.00000000E+00  0.00000000E+00
  0.00000000E+00  0.00000000E+00  0.00000000E+00
  0.00000000E+00  0.00000000E+00  0.00000000E+00
  0.00000000E+00  0.00000000E+00  0.00000000E+00
  0.00000000E+00  0.00000000E+00  0.00000000E+00
  0.00000000E+00  0.00000000E+00  0.00000000E+00
  0.00000000E+00  0.00000000E+00  0.00000000E+00
  0.00000000E+00  0.00000000E+00  0.00000000E+00
  0.00000000E+00  0.00000000E+00  0.00000000E+00
  0.00000000E+00  0.00000000E+00  0.00000000E+00
  0.00000000E+00  0.00000000E+00  0.00000000E+00
  0.00000000E+00  0.00000000E+00  0.00000000E+00
  0.00000000E+00  0.00000000E+00  0.00000000E+00
  0.00000000E+00  0.00000000E+00  0.00000000E+00
  0.00000000E+00  0.00000000E+00  0.00000000E+00
  0.00000000E+00  0.00000000E+00  0.00000000E+00
  0.00000000E+00  0.00000000E+00  0.00000000E+00
  0.00000000E+00  0.00000000E+00  0.00000000E+00
  0.00000000E+00  0.00000000E+00  0.00000000E+00
  0.00000000E+00  0.00000000E+00  0.00000000E+00
  0.00000000E+00  0.00000000E+00  0.00000000E+00
  0.00000000E+00  0.00000000E+00  0.00000000E+00
  0.00000000E+00  0.00000000E+00  0.00000000E+00
  0.00000000E+00  0.00000000E+00  0.00000000E+00
  0.00000000E+00  0.00000000E+00  0.00000000E+00
  0.00000000E+00  0.00000000E+00  0.00000000E+00
  0.00000000E+00  0.00000000E+00  0.00000000E+00
  0.00000000E+00  0.00000000E+00  0.00000000E+00
  0.00000000E+00  0.00000000E+00  0.00000000E+00
  0.00000000E+00  0.00000000E+00  0.00000000E+00
  0.00000000E+00  0.00000000E+00  0.00000000E+00
  0.00000000E+00  0.00000000E+00  0.00000000E+00
  0.00000000E+00  0.00000000E+00  0.00000000E+00
  0.00000000E+00  0.00000000E+00  0.00000000E+00
  0.00000000E+00  0.00000000E+00  0.00000000E+00
  0.00000000E+00  0.00000000E+00  0.00000000E+00
  0.00000000E+00  0.00000000E+00  0.00000000E+00
  0.00000000E+00  0.00000000E+00  0.00000000E+00
  0.00000000E+00  0.00000000E+00  0.00000000E+00
  0.00000000E+00  0.00000000E+00  0.00000000E+00
  0.00000000E+00  0.00000000E+00  0.00000000E+00
  0.00000000E+00  0.00000000E+00  0.00000000E+00
  0.00000000E+00  0.00000000E+00  0.00000000E+00
  0.00000000E+00  0.00000000E+00  0.00000000E+00
  0.00000000E+00  0.00000000E+00  0.00000000E+00
  0.00000000E+00  0.00000000E+00  0.00000000E+00
  0.00000000E+00  0.00000000E+00  0.00000000E+00
  0.00000000E+00  0.00000000E+00  0.00000000E+00
  0.00000000E+00  0.00000000E+00  0.00000000E+00
  0.00000000E+00  0.00000000E+00  0.00000000E+00
  0.00000000E+00  0.00000000E+00  0.00000000E+00
  0.00000000E+00  0.00000000E+00  0.00000000E+00
  0.00000000E+00  0.00000000E+00  0.00000000E+00
  0.00000000E+00  0.00000000E+00  0.00000000E+00
  0.00000000E+00  0.00000000E+00  0.00000000E+00
  0.00000000E+00  0.00000000E+00  0.00000000E+00
  0.00000000E+00  0.00000000E+00  0.00000000E+00
  0.00000000E+00  0.00000000E+00  0.00000000E+00
  0.00000000E+00  0.00000000E+00  0.00000000E+00
  0.00000000E+00  0.00000000E+00  0.00000000E+00
  0.00000000E+00  0.00000000E+00  0.00000000E+00
  0.00000000E+00  0.00000000E+00  0.00000000E+00
  0.00000000E+00  0.00000000E+00  0.00000000E+00
  0.00000000E+00  0.00000000E+00  0.00000000E+00
  0.00000000E+00  0.00000000E+00  0.00000000E+00
  0.00000000E+00  0.00000000E+00  0.00000000E+00
  0.00000000E+00  0.00000000E+00  0.00000000E+00
  0.00000000E+00  0.00000000E+00  0.00000000E+00
  0.00000000E+00  0.00000000E+00  0.00000000E+00
  0.00000000E+00  0.00000000E+00  0.00000000E+00
  0.00000000E+00  0.00000000E+00  0.00000000E+00
  0.00000000E+00  0.00000000E+00  0.00000000E+00
  0.00000000E+00  0.00000000E+00  0.00000000E+00
  0.00000000E+00  0.00000000E+00  0.00000000E+00
  0.00000000E+00  0.00000000E+00  0.00000000E+00
