  97  97   0   0
  0.2315679E+02  0.1293663E-08  0.1293663E-08  0.1549806E-08  0.1000000E-15
  1.000000000000000E-004
  CAR 
 Zr96H TO pre-NEB, four intermediate imag
     12.88636683    -42.41853062  301      8.95834762      1.00000000
    -42.419  0.0000E+00  0.0000E+00
    -42.234  0.0000E+00  0.0000E+00
    -42.050  0.0000E+00  0.0000E+00
    -41.865  0.0000E+00  0.0000E+00
    -41.681 -0.1298E-35 -0.2393E-36
    -41.497 -0.1870E-28 -0.3447E-29
    -41.312 -0.2018E-22 -0.3721E-23
    -41.128 -0.4045E-17 -0.7457E-18
    -40.944 -0.1464E-12 -0.2699E-13
    -40.759 -0.1024E-08 -0.1887E-09
    -40.575 -0.1369E-05 -0.2525E-06
    -40.391 -0.3544E-03 -0.6558E-04
    -40.206 -0.1693E-01 -0.3187E-02
    -40.022 -0.7820E-01 -0.1760E-01
    -39.838  0.8916E+00  0.1468E+00
    -39.653  0.2259E+01  0.5633E+00
    -39.469  0.5127E+00  0.6578E+00
    -39.285 -0.8849E-01  0.6415E+00
    -39.100 -0.7836E-02  0.6400E+00
    -38.916 -0.7966E-04  0.6400E+00
    -38.732 -0.1324E-06  0.6400E+00
    -38.547 -0.3847E-10  0.6400E+00
    -38.363 -0.2039E-14  0.6400E+00
    -38.178  0.0000E+00  0.6400E+00
    -37.994  0.0000E+00  0.6400E+00
    -37.810  0.0000E+00  0.6400E+00
    -37.625  0.0000E+00  0.6400E+00
    -37.441  0.0000E+00  0.6400E+00
    -37.257  0.0000E+00  0.6400E+00
    -37.072  0.0000E+00  0.6400E+00
    -36.888  0.0000E+00  0.6400E+00
    -36.704  0.0000E+00  0.6400E+00
    -36.519  0.0000E+00  0.6400E+00
    -36.335  0.0000E+00  0.6400E+00
    -36.151  0.0000E+00  0.6400E+00
    -35.966  0.0000E+00  0.6400E+00
    -35.782  0.0000E+00  0.6400E+00
    -35.598  0.0000E+00  0.6400E+00
    -35.413  0.0000E+00  0.6400E+00
    -35.229  0.0000E+00  0.6400E+00
    -35.045  0.0000E+00  0.6400E+00
    -34.860  0.0000E+00  0.6400E+00
    -34.676  0.0000E+00  0.6400E+00
    -34.491  0.0000E+00  0.6400E+00
    -34.307  0.0000E+00  0.6400E+00
    -34.123  0.0000E+00  0.6400E+00
    -33.938  0.0000E+00  0.6400E+00
    -33.754  0.0000E+00  0.6400E+00
    -33.570  0.0000E+00  0.6400E+00
    -33.385  0.0000E+00  0.6400E+00
    -33.201  0.0000E+00  0.6400E+00
    -33.017  0.0000E+00  0.6400E+00
    -32.832  0.0000E+00  0.6400E+00
    -32.648  0.0000E+00  0.6400E+00
    -32.464  0.0000E+00  0.6400E+00
    -32.279  0.0000E+00  0.6400E+00
    -32.095  0.0000E+00  0.6400E+00
    -31.911  0.0000E+00  0.6400E+00
    -31.726  0.0000E+00  0.6400E+00
    -31.542  0.0000E+00  0.6400E+00
    -31.358  0.0000E+00  0.6400E+00
    -31.173  0.0000E+00  0.6400E+00
    -30.989  0.0000E+00  0.6400E+00
    -30.805  0.0000E+00  0.6400E+00
    -30.620  0.0000E+00  0.6400E+00
    -30.436  0.0000E+00  0.6400E+00
    -30.251  0.0000E+00  0.6400E+00
    -30.067  0.0000E+00  0.6400E+00
    -29.883  0.0000E+00  0.6400E+00
    -29.698  0.0000E+00  0.6400E+00
    -29.514  0.0000E+00  0.6400E+00
    -29.330  0.0000E+00  0.6400E+00
    -29.145  0.0000E+00  0.6400E+00
    -28.961  0.0000E+00  0.6400E+00
    -28.777  0.0000E+00  0.6400E+00
    -28.592  0.0000E+00  0.6400E+00
    -28.408  0.0000E+00  0.6400E+00
    -28.224  0.0000E+00  0.6400E+00
    -28.039  0.0000E+00  0.6400E+00
    -27.855  0.0000E+00  0.6400E+00
    -27.671  0.0000E+00  0.6400E+00
    -27.486  0.0000E+00  0.6400E+00
    -27.302  0.0000E+00  0.6400E+00
    -27.118  0.0000E+00  0.6400E+00
    -26.933  0.0000E+00  0.6400E+00
    -26.749  0.0000E+00  0.6400E+00
    -26.564  0.0000E+00  0.6400E+00
    -26.380  0.0000E+00  0.6400E+00
    -26.196  0.0000E+00  0.6400E+00
    -26.011  0.0000E+00  0.6400E+00
    -25.827  0.0000E+00  0.6400E+00
    -25.643  0.0000E+00  0.6400E+00
    -25.458  0.0000E+00  0.6400E+00
    -25.274  0.0000E+00  0.6400E+00
    -25.090  0.0000E+00  0.6400E+00
    -24.905  0.0000E+00  0.6400E+00
    -24.721  0.0000E+00  0.6400E+00
    -24.537  0.0000E+00  0.6400E+00
    -24.352  0.0000E+00  0.6400E+00
    -24.168  0.0000E+00  0.6400E+00
    -23.984  0.0000E+00  0.6400E+00
    -23.799  0.0000E+00  0.6400E+00
    -23.615  0.0000E+00  0.6400E+00
    -23.431  0.0000E+00  0.6400E+00
    -23.246  0.0000E+00  0.6400E+00
    -23.062  0.0000E+00  0.6400E+00
    -22.877  0.0000E+00  0.6400E+00
    -22.693  0.0000E+00  0.6400E+00
    -22.509  0.0000E+00  0.6400E+00
    -22.324  0.0000E+00  0.6400E+00
    -22.140  0.0000E+00  0.6400E+00
    -21.956  0.0000E+00  0.6400E+00
    -21.771  0.0000E+00  0.6400E+00
    -21.587  0.0000E+00  0.6400E+00
    -21.403  0.0000E+00  0.6400E+00
    -21.218  0.0000E+00  0.6400E+00
    -21.034  0.0000E+00  0.6400E+00
    -20.850  0.0000E+00  0.6400E+00
    -20.665  0.0000E+00  0.6400E+00
    -20.481  0.0000E+00  0.6400E+00
    -20.297  0.0000E+00  0.6400E+00
    -20.112 -0.4459E-33  0.6400E+00
    -19.928 -0.1255E-26  0.6400E+00
    -19.744 -0.6544E-21  0.6400E+00
    -19.559 -0.6231E-16  0.6400E+00
    -19.375 -0.1155E-11  0.6400E+00
    -19.190 -0.4189E-08  0.6400E+00
    -19.006 -0.3088E-05  0.6400E+00
    -18.822 -0.4779E-03  0.6399E+00
    -18.637 -0.1470E-01  0.6372E+00
    -18.453 -0.3431E-01  0.6309E+00
    -18.269  0.6204E+00  0.7452E+00
    -18.084  0.1648E+01  0.1049E+01
    -17.900  0.1477E+01  0.1321E+01
    -17.716  0.2184E+01  0.1724E+01
    -17.531  0.3188E+01  0.2312E+01
    -17.347  0.1416E+01  0.2573E+01
    -17.163 -0.3209E-01  0.2567E+01
    -16.978 -0.3590E-01  0.2560E+01
    -16.794 -0.1319E-02  0.2560E+01
    -16.610 -0.8355E-05  0.2560E+01
    -16.425 -0.9885E-08  0.2560E+01
    -16.241 -0.2190E-11  0.2560E+01
    -16.057 -0.7595E-16  0.2560E+01
    -15.872  0.0000E+00  0.2560E+01
    -15.688  0.0000E+00  0.2560E+01
    -15.503  0.0000E+00  0.2560E+01
    -15.319  0.0000E+00  0.2560E+01
    -15.135  0.0000E+00  0.2560E+01
    -14.950  0.0000E+00  0.2560E+01
    -14.766  0.0000E+00  0.2560E+01
    -14.582  0.0000E+00  0.2560E+01
    -14.397  0.0000E+00  0.2560E+01
    -14.213  0.0000E+00  0.2560E+01
    -14.029  0.0000E+00  0.2560E+01
    -13.844  0.0000E+00  0.2560E+01
    -13.660  0.0000E+00  0.2560E+01
    -13.476  0.0000E+00  0.2560E+01
    -13.291  0.0000E+00  0.2560E+01
    -13.107  0.0000E+00  0.2560E+01
    -12.923  0.0000E+00  0.2560E+01
    -12.738  0.0000E+00  0.2560E+01
    -12.554  0.0000E+00  0.2560E+01
    -12.370  0.0000E+00  0.2560E+01
    -12.185  0.0000E+00  0.2560E+01
    -12.001  0.0000E+00  0.2560E+01
    -11.816  0.0000E+00  0.2560E+01
    -11.632  0.0000E+00  0.2560E+01
    -11.448  0.0000E+00  0.2560E+01
    -11.263  0.0000E+00  0.2560E+01
    -11.079  0.0000E+00  0.2560E+01
    -10.895  0.0000E+00  0.2560E+01
    -10.710  0.0000E+00  0.2560E+01
    -10.526  0.0000E+00  0.2560E+01
    -10.342  0.0000E+00  0.2560E+01
    -10.157  0.0000E+00  0.2560E+01
     -9.973  0.0000E+00  0.2560E+01
     -9.789  0.0000E+00  0.2560E+01
     -9.604  0.0000E+00  0.2560E+01
     -9.420  0.0000E+00  0.2560E+01
     -9.236  0.0000E+00  0.2560E+01
     -9.051  0.0000E+00  0.2560E+01
     -8.867  0.0000E+00  0.2560E+01
     -8.683  0.0000E+00  0.2560E+01
     -8.498  0.0000E+00  0.2560E+01
     -8.314  0.0000E+00  0.2560E+01
     -8.129  0.0000E+00  0.2560E+01
     -7.945  0.0000E+00  0.2560E+01
     -7.761  0.0000E+00  0.2560E+01
     -7.576  0.0000E+00  0.2560E+01
     -7.392  0.0000E+00  0.2560E+01
     -7.208  0.0000E+00  0.2560E+01
     -7.023  0.0000E+00  0.2560E+01
     -6.839  0.0000E+00  0.2560E+01
     -6.655  0.0000E+00  0.2560E+01
     -6.470  0.0000E+00  0.2560E+01
     -6.286  0.0000E+00  0.2560E+01
     -6.102  0.0000E+00  0.2560E+01
     -5.917  0.0000E+00  0.2560E+01
     -5.733  0.0000E+00  0.2560E+01
     -5.549  0.0000E+00  0.2560E+01
     -5.364  0.0000E+00  0.2560E+01
     -5.180  0.0000E+00  0.2560E+01
     -4.996  0.0000E+00  0.2560E+01
     -4.811  0.0000E+00  0.2560E+01
     -4.627  0.0000E+00  0.2560E+01
     -4.443  0.0000E+00  0.2560E+01
     -4.258  0.0000E+00  0.2560E+01
     -4.074  0.0000E+00  0.2560E+01
     -3.889  0.0000E+00  0.2560E+01
     -3.705  0.0000E+00  0.2560E+01
     -3.521  0.0000E+00  0.2560E+01
     -3.336  0.0000E+00  0.2560E+01
     -3.152  0.0000E+00  0.2560E+01
     -2.968  0.0000E+00  0.2560E+01
     -2.783  0.0000E+00  0.2560E+01
     -2.599  0.0000E+00  0.2560E+01
     -2.415  0.0000E+00  0.2560E+01
     -2.230  0.0000E+00  0.2560E+01
     -2.046  0.0000E+00  0.2560E+01
     -1.862  0.0000E+00  0.2560E+01
     -1.677  0.0000E+00  0.2560E+01
     -1.493  0.0000E+00  0.2560E+01
     -1.309  0.0000E+00  0.2560E+01
     -1.124  0.0000E+00  0.2560E+01
     -0.940  0.0000E+00  0.2560E+01
     -0.756  0.0000E+00  0.2560E+01
     -0.571  0.0000E+00  0.2560E+01
     -0.387  0.0000E+00  0.2560E+01
     -0.202  0.0000E+00  0.2560E+01
     -0.018  0.0000E+00  0.2560E+01
      0.166  0.0000E+00  0.2560E+01
      0.351  0.0000E+00  0.2560E+01
      0.535  0.0000E+00  0.2560E+01
      0.719 -0.7123E-35  0.2560E+01
      0.904 -0.3352E-28  0.2560E+01
      1.088 -0.2854E-22  0.2560E+01
      1.272 -0.4379E-17  0.2560E+01
      1.457 -0.1159E-12  0.2560E+01
      1.641 -0.5557E-09  0.2560E+01
      1.825 -0.4571E-06  0.2560E+01
      2.010 -0.6033E-04  0.2560E+01
      2.194 -0.9478E-03  0.2560E+01
      2.378  0.4374E-02  0.2561E+01
      2.563  0.2471E-01  0.2565E+01
      2.747  0.9360E-02  0.2567E+01
      2.931 -0.1124E-02  0.2567E+01
      3.116 -0.2700E-03  0.2567E+01
      3.300 -0.2682E-03  0.2567E+01
      3.485  0.4751E-02  0.2567E+01
      3.669  0.1402E-01  0.2570E+01
      3.853  0.2180E-01  0.2574E+01
      4.038  0.2417E-01  0.2579E+01
      4.222  0.3214E-01  0.2584E+01
      4.406  0.3318E-01  0.2591E+01
      4.591  0.4194E-01  0.2598E+01
      4.775  0.4817E-01  0.2607E+01
      4.959  0.5308E-01  0.2617E+01
      5.144  0.5458E-01  0.2627E+01
      5.328  0.8092E-01  0.2642E+01
      5.512  0.7488E-01  0.2656E+01
      5.697  0.8865E-01  0.2672E+01
      5.881  0.1693E+00  0.2703E+01
      6.065  0.2563E+00  0.2751E+01
      6.250  0.3146E+00  0.2809E+01
      6.434  0.3370E+00  0.2871E+01
      6.618  0.3635E+00  0.2938E+01
      6.803  0.3976E+00  0.3011E+01
      6.987  0.4690E+00  0.3097E+01
      7.172  0.3801E+00  0.3168E+01
      7.356  0.3389E+00  0.3230E+01
      7.540  0.3071E+00  0.3287E+01
      7.725  0.3911E+00  0.3359E+01
      7.909  0.4342E+00  0.3439E+01
      8.093  0.4755E+00  0.3526E+01
      8.278  0.5454E+00  0.3627E+01
      8.462  0.5326E+00  0.3725E+01
      8.646  0.2651E+00  0.3774E+01
      8.831  0.1881E+00  0.3809E+01
      9.015  0.3000E+00  0.3864E+01
      9.199  0.5397E+00  0.3963E+01
      9.384  0.5912E+00  0.4072E+01
      9.568  0.5199E+00  0.4168E+01
      9.752  0.5503E+00  0.4270E+01
      9.937  0.5839E+00  0.4377E+01
     10.121  0.6382E+00  0.4495E+01
     10.305  0.4978E+00  0.4587E+01
     10.490  0.1242E+00  0.4610E+01
     10.674 -0.1342E-01  0.4607E+01
     10.859 -0.2975E-02  0.4607E+01
     11.043 -0.6989E-04  0.4607E+01
     11.227 -0.2938E-06  0.4607E+01
     11.412 -0.2331E-09  0.4607E+01
     11.596 -0.3502E-13  0.4607E+01
     11.780  0.0000E+00  0.4607E+01
     11.965  0.0000E+00  0.4607E+01
     12.149  0.0000E+00  0.4607E+01
     12.333  0.0000E+00  0.4607E+01
     12.518  0.0000E+00  0.4607E+01
     12.702  0.0000E+00  0.4607E+01
     12.886  0.0000E+00  0.4607E+01
