   97   97  300    1
  0.2315679E+02  0.1293663E-08  0.1293663E-08  0.1549806E-08  0.1000000E-15
  1.000000000000000E-004
  CAR 
 Zr96H TO pre-NEB, four intermediate imag
   1153     26    691
 
  0.0000000E+00  0.0000000E+00  0.0000000E+00  0.2083333E-01
      1        -39.904672   1.000000
      2        -39.872846   1.000000
      3        -39.865517   1.000000
      4        -39.851414   1.000000
      5        -39.851130   1.000000
      6        -39.843424   1.000000
      7        -39.840382   1.000000
      8        -39.839533   1.000000
      9        -39.838659   1.000000
     10        -39.827853   1.000000
     11        -39.827289   1.000000
     12        -39.822510   1.000000
     13        -39.816641   1.000000
     14        -39.814941   1.000000
     15        -39.814142   1.000000
     16        -39.811929   1.000000
     17        -39.811630   1.000000
     18        -39.811569   1.000000
     19        -39.810939   1.000000
     20        -39.810661   1.000000
     21        -39.810516   1.000000
     22        -39.798135   1.000000
     23        -39.791542   1.000000
     24        -39.790139   1.000000
     25        -39.781548   1.000000
     26        -39.778577   1.000000
     27        -39.772977   1.000000
     28        -39.769928   1.000000
     29        -39.768336   1.000000
     30        -39.767506   1.000000
     31        -39.766947   1.000000
     32        -39.766793   1.000000
     33        -39.766225   1.000000
     34        -39.766182   1.000000
     35        -39.765476   1.000000
     36        -39.763759   1.000000
     37        -39.763374   1.000000
     38        -39.763000   1.000000
     39        -39.758857   1.000000
     40        -39.758685   1.000000
     41        -39.757912   1.000000
     42        -39.756978   1.000000
     43        -39.756932   1.000000
     44        -39.756800   1.000000
     45        -39.756601   1.000000
     46        -39.756390   1.000000
     47        -39.756022   1.000000
     48        -39.755731   1.000000
     49        -39.755354   1.000000
     50        -39.755144   1.000000
     51        -39.755100   1.000000
     52        -39.754753   1.000000
     53        -39.754062   1.000000
     54        -39.753674   1.000000
     55        -39.753317   1.000000
     56        -39.752882   1.000000
     57        -39.752480   1.000000
     58        -39.752197   1.000000
     59        -39.751942   1.000000
     60        -39.749763   1.000000
     61        -39.748259   1.000000
     62        -39.747898   1.000000
     63        -39.747271   1.000000
     64        -39.739411   1.000000
     65        -39.739295   1.000000
     66        -39.736671   1.000000
     67        -39.736379   1.000000
     68        -39.733283   1.000000
     69        -39.732221   1.000000
     70        -39.731003   1.000000
     71        -39.730761   1.000000
     72        -39.730725   1.000000
     73        -39.730460   1.000000
     74        -39.729977   1.000000
     75        -39.729863   1.000000
     76        -39.728995   1.000000
     77        -39.728991   1.000000
     78        -39.728624   1.000000
     79        -39.728420   1.000000
     80        -39.728021   1.000000
     81        -39.727874   1.000000
     82        -39.726346   1.000000
     83        -39.725696   1.000000
     84        -39.725353   1.000000
     85        -39.725144   1.000000
     86        -39.723047   1.000000
     87        -39.722438   1.000000
     88        -39.720097   1.000000
     89        -39.719089   1.000000
     90        -39.716569   1.000000
     91        -39.716287   1.000000
     92        -39.715724   1.000000
     93        -39.714727   1.000000
     94        -39.713948   1.000000
     95        -39.713893   1.000000
     96        -39.712994   1.000000
     97        -18.415638   1.000000
     98        -18.339153   1.000000
     99        -18.332427   1.000000
    100        -18.331890   1.000000
    101        -18.331575   1.000000
    102        -18.330981   1.000000
    103        -18.330295   1.000000
    104        -18.256980   1.000000
    105        -18.247692   1.000000
    106        -18.247546   1.000000
    107        -18.244106   1.000000
    108        -18.243640   1.000000
    109        -18.243591   1.000000
    110        -18.242058   1.000000
    111        -18.241526   1.000000
    112        -18.241342   1.000000
    113        -18.238972   1.000000
    114        -18.237129   1.000000
    115        -18.236642   1.000000
    116        -18.236380   1.000000
    117        -18.233678   1.000000
    118        -18.232951   1.000000
    119        -18.208625   1.000000
    120        -18.208244   1.000000
    121        -18.204032   1.000000
    122        -18.203598   1.000000
    123        -18.203039   1.000000
    124        -18.202041   1.000000
    125        -18.201834   1.000000
    126        -18.201244   1.000000
    127        -18.201217   1.000000
    128        -18.200327   1.000000
    129        -18.200144   1.000000
    130        -18.197116   1.000000
    131        -18.185288   1.000000
    132        -18.181511   1.000000
    133        -18.168426   1.000000
    134        -18.168126   1.000000
    135        -18.167287   1.000000
    136        -18.166476   1.000000
    137        -18.165230   1.000000
    138        -18.165119   1.000000
    139        -18.163691   1.000000
    140        -18.163539   1.000000
    141        -18.162624   1.000000
    142        -18.162084   1.000000
    143        -18.160635   1.000000
    144        -18.160277   1.000000
    145        -18.160100   1.000000
    146        -18.160060   1.000000
    147        -18.159986   1.000000
    148        -18.159464   1.000000
    149        -18.159045   1.000000
    150        -18.158826   1.000000
    151        -18.158383   1.000000
    152        -18.157784   1.000000
    153        -18.157074   1.000000
    154        -18.155556   1.000000
    155        -18.154725   1.000000
    156        -18.154631   1.000000
    157        -18.103787   1.000000
    158        -18.102253   1.000000
    159        -18.099605   1.000000
    160        -18.098770   1.000000
    161        -18.098010   1.000000
    162        -18.097787   1.000000
    163        -18.080418   1.000000
    164        -18.075745   1.000000
    165        -18.075532   1.000000
    166        -18.029855   1.000000
    167        -18.029788   1.000000
    168        -18.026235   1.000000
    169        -18.022813   1.000000
    170        -18.022500   1.000000
    171        -18.022005   1.000000
    172        -18.001347   1.000000
    173        -17.998658   1.000000
    174        -17.995829   1.000000
    175        -17.994509   1.000000
    176        -17.991385   1.000000
    177        -17.991066   1.000000
    178        -17.988912   1.000000
    179        -17.988393   1.000000
    180        -17.988364   1.000000
    181        -17.944710   1.000000
    182        -17.944341   1.000000
    183        -17.942939   1.000000
    184        -17.941903   1.000000
    185        -17.941626   1.000000
    186        -17.937784   1.000000
    187        -17.935349   1.000000
    188        -17.934657   1.000000
    189        -17.934598   1.000000
    190        -17.934561   1.000000
    191        -17.933935   1.000000
    192        -17.933612   1.000000
    193        -17.907639   1.000000
    194        -17.907437   1.000000
    195        -17.903028   1.000000
    196        -17.902858   1.000000
    197        -17.901772   1.000000
    198        -17.900141   1.000000
    199        -17.890105   1.000000
    200        -17.883706   1.000000
    201        -17.882288   1.000000
    202        -17.881921   1.000000
    203        -17.880188   1.000000
    204        -17.880115   1.000000
    205        -17.879413   1.000000
    206        -17.878085   1.000000
    207        -17.877895   1.000000
    208        -17.877789   1.000000
    209        -17.876978   1.000000
    210        -17.876619   1.000000
    211        -17.828432   1.000000
    212        -17.827919   1.000000
    213        -17.824521   1.000000
    214        -17.823152   1.000000
    215        -17.822704   1.000000
    216        -17.818828   1.000000
    217        -17.807641   1.000000
    218        -17.802850   1.000000
    219        -17.801428   1.000000
    220        -17.800317   1.000000
    221        -17.799929   1.000000
    222        -17.799581   1.000000
    223        -17.797449   1.000000
    224        -17.796145   1.000000
    225        -17.795426   1.000000
    226        -17.795211   1.000000
    227        -17.794143   1.000000
    228        -17.794076   1.000000
    229        -17.777898   1.000000
    230        -17.777169   1.000000
    231        -17.776851   1.000000
    232        -17.775914   1.000000
    233        -17.775883   1.000000
    234        -17.770767   1.000000
    235        -17.769756   1.000000
    236        -17.769597   1.000000
    237        -17.765897   1.000000
    238        -17.765750   1.000000
    239        -17.763761   1.000000
    240        -17.763682   1.000000
    241        -17.762943   1.000000
    242        -17.762425   1.000000
    243        -17.760643   1.000000
    244        -17.760501   1.000000
    245        -17.760410   1.000000
    246        -17.760049   1.000000
    247        -17.758692   1.000000
    248        -17.758547   1.000000
    249        -17.757331   1.000000
    250        -17.756617   1.000000
    251        -17.755944   1.000000
    252        -17.755674   1.000000
    253        -17.753508   1.000000
    254        -17.752896   1.000000
    255        -17.752896   1.000000
    256        -17.707064   1.000000
    257        -17.706246   1.000000
    258        -17.704913   1.000000
    259        -17.704326   1.000000
    260        -17.703226   1.000000
    261        -17.703217   1.000000
    262        -17.693814   1.000000
    263        -17.690080   1.000000
    264        -17.688798   1.000000
    265        -17.686953   1.000000
    266        -17.686542   1.000000
    267        -17.678868   1.000000
    268        -17.678866   1.000000
    269        -17.678081   1.000000
    270        -17.677990   1.000000
    271        -17.677509   1.000000
    272        -17.671164   1.000000
    273        -17.670936   1.000000
    274        -17.669667   1.000000
    275        -17.669575   1.000000
    276        -17.668337   1.000000
    277        -17.668105   1.000000
    278        -17.667936   1.000000
    279        -17.667636   1.000000
    280        -17.667330   1.000000
    281        -17.667278   1.000000
    282        -17.666880   1.000000
    283        -17.666343   1.000000
    284        -17.665935   1.000000
    285        -17.665805   1.000000
    286        -17.665007   1.000000
    287        -17.664003   1.000000
    288        -17.663491   1.000000
    289        -17.662845   1.000000
    290        -17.662440   1.000000
    291        -17.662357   1.000000
    292        -17.661622   1.000000
    293        -17.660451   1.000000
    294        -17.660113   1.000000
    295        -17.659140   1.000000
    296        -17.659101   1.000000
    297        -17.631279   1.000000
    298        -17.630906   1.000000
    299        -17.629440   1.000000
    300        -17.629196   1.000000
    301        -17.626734   1.000000
    302        -17.621899   1.000000
    303        -17.621526   1.000000
    304        -17.620029   1.000000
    305        -17.618313   1.000000
    306        -17.617509   1.000000
    307        -17.616711   1.000000
    308        -17.614702   1.000000
    309        -17.613628   1.000000
    310        -17.613555   1.000000
    311        -17.613229   1.000000
    312        -17.613071   1.000000
    313        -17.612095   1.000000
    314        -17.609819   1.000000
    315        -17.590141   1.000000
    316        -17.589241   1.000000
    317        -17.588416   1.000000
    318        -17.586406   1.000000
    319        -17.583562   1.000000
    320        -17.583492   1.000000
    321        -17.578450   1.000000
    322        -17.578383   1.000000
    323        -17.576487   1.000000
    324        -17.574801   1.000000
    325        -17.573486   1.000000
    326        -17.573114   1.000000
    327        -17.573016   1.000000
    328        -17.572538   1.000000
    329        -17.572149   1.000000
    330        -17.570236   1.000000
    331        -17.569870   1.000000
    332        -17.569705   1.000000
    333        -17.567015   1.000000
    334        -17.565096   1.000000
    335        -17.564583   1.000000
    336        -17.563854   1.000000
    337        -17.563573   1.000000
    338        -17.562779   1.000000
    339        -17.561300   1.000000
    340        -17.561134   1.000000
    341        -17.560888   1.000000
    342        -17.560028   1.000000
    343        -17.560015   1.000000
    344        -17.559847   1.000000
    345        -17.554790   1.000000
    346        -17.554614   1.000000
    347        -17.528918   1.000000
    348        -17.526868   1.000000
    349        -17.525541   1.000000
    350        -17.525220   1.000000
    351        -17.524674   1.000000
    352        -17.523106   1.000000
    353        -17.522653   1.000000
    354        -17.520196   1.000000
    355        -17.519987   1.000000
    356        -17.518850   1.000000
    357        -17.518574   1.000000
    358        -17.517742   1.000000
    359        -17.517706   1.000000
    360        -17.517155   1.000000
    361        -17.516434   1.000000
    362        -17.516201   1.000000
    363        -17.516123   1.000000
    364        -17.514933   1.000000
    365        -17.514693   1.000000
    366        -17.512544   1.000000
    367        -17.508818   1.000000
    368        -17.507884   1.000000
    369        -17.507172   1.000000
    370        -17.506563   1.000000
    371        -17.505463   1.000000
    372        -17.471576   1.000000
    373        -17.471341   1.000000
    374        -17.469252   1.000000
    375        -17.468393   1.000000
    376        -17.468293   1.000000
    377        -17.465128   1.000000
    378        -17.453530   1.000000
    379        -17.453381   1.000000
    380        -17.451270   1.000000
    381        -17.451221   1.000000
    382        -17.428426   1.000000
    383        -17.418030   1.000000
    384        -17.417895   1.000000
    385          2.478090   1.000000
    386          3.398572   1.000000
    387          4.153858   1.000000
    388          4.234705   1.000000
    389          4.811804   1.000000
    390          4.812606   1.000000
    391          4.817689   1.000000
    392          4.818017   1.000000
    393          4.818454   1.000000
    394          4.946025   1.000000
    395          5.387885   1.000000
    396          5.389468   1.000000
    397          5.392335   1.000000
    398          5.395086   1.000000
    399          5.395227   1.000000
    400          5.395695   1.000000
    401          5.395796   1.000000
    402          5.396997   1.000000
    403          5.397262   1.000000
    404          5.397558   1.000000
    405          5.397755   1.000000
    406          5.604592   1.000000
    407          5.654855   1.000000
    408          5.724772   1.000000
    409          5.903837   1.000000
    410          5.904273   1.000000
    411          5.907479   1.000000
    412          5.910663   1.000000
    413          5.910943   1.000000
    414          5.923007   1.000000
    415          6.011136   1.000000
    416          6.398462   1.000000
    417          6.398988   1.000000
    418          6.402432   1.000000
    419          6.418761   1.000000
    420          6.420619   1.000000
    421          6.426905   1.000000
    422          6.429372   1.000000
    423          6.430050   1.000000
    424          6.438524   1.000000
    425          6.439272   1.000000
    426          6.443108   1.000000
    427          6.488523   1.000000
    428          6.705724   1.000000
    429          6.715594   1.000000
    430          6.716927   1.000000
    431          6.720541   1.000000
    432          6.721437   1.000000
    433          6.723015   1.000000
    434          6.723056   1.000000
    435          6.724940   1.000000
    436          6.725443   1.000000
    437          6.725805   1.000000
    438          6.726400   1.000000
    439          6.751072   1.000000
    440          6.776064   1.000000
    441          6.778118   1.000000
    442          6.791304   1.000000
    443          6.791461   1.000000
    444          6.791928   1.000000
    445          6.793951   1.000000
    446          6.794245   1.000000
    447          6.795268   1.000000
    448          6.795284   1.000000
    449          6.798759   1.000000
    450          6.799247   1.000000
    451          6.812372   1.000000
    452          6.813851   1.000000
    453          6.815014   1.000000
    454          6.847036   1.000000
    455          6.857778   1.000000
    456          6.858579   1.000000
    457          6.865144   1.000000
    458          6.865480   1.000000
    459          6.869144   1.000000
    460          6.883941   1.000000
    461          6.896831   1.000000
    462          6.899901   1.000000
    463          6.902824   1.000000
    464          6.902994   1.000000
    465          6.903645   1.000000
    466          6.903771   1.000000
    467          6.904369   1.000000
    468          6.904787   1.000000
    469          6.906730   1.000000
    470          6.907982   1.000000
    471          6.908138   1.000000
    472          6.931874   1.000000
    473          6.932339   1.000000
    474          6.932801   1.000000
    475          6.933241   1.000000
    476          6.934510   1.000000
    477          6.938821   1.000000
    478          7.011276   1.000000
    479          7.032662   1.000000
    480          7.040003   1.000000
    481          7.040211   1.000000
    482          7.040964   1.000000
    483          7.041364   1.000000
    484          7.457919   1.000000
    485          7.573767   1.000000
    486          7.575345   1.000000
    487          7.576987   1.000000
    488          7.577346   1.000000
    489          7.577889   1.000000
    490          7.658201   1.000000
    491          7.663866   1.000000
    492          7.672237   1.000000
    493          7.673576   1.000000
    494          7.678323   1.000000
    495          7.679479   1.000000
    496          7.688595   1.000000
    497          7.689554   1.000000
    498          7.690530   1.000000
    499          7.691212   1.000000
    500          7.696753   1.000000
    501          7.697944   1.000000
    502          7.717086   1.000000
    503          7.758897   1.000000
    504          7.761415   1.000000
    505          7.765663   1.000000
    506          7.765748   1.000000
    507          7.767834   1.000000
    508          7.769126   1.000000
    509          7.770153   1.000000
    510          7.772791   1.000000
    511          7.773060   1.000000
    512          7.775892   1.000000
    513          7.778736   1.000000
    514          7.811167   1.000000
    515          7.855619   1.000000
    516          7.858510   1.000000
    517          7.864048   1.000000
    518          7.865363   1.000000
    519          7.866734   1.000000
    520          7.868868   1.000000
    521          7.869841   1.000000
    522          7.870709   1.000000
    523          7.871334   1.000000
    524          7.873885   1.000000
    525          7.880622   1.000000
    526          7.974322   1.000000
    527          8.012461   1.000000
    528          8.013002   1.000000
    529          8.013447   1.000000
    530          8.018205   1.000000
    531          8.018481   1.000000
    532          8.021645   1.000000
    533          8.044499   1.000000
    534          8.045740   1.000000
    535          8.047031   1.000000
    536          8.047215   1.000000
    537          8.048928   1.000000
    538          8.320291   1.000031
    539          8.357691   1.000092
    540          8.357848   1.000092
    541          8.360773   1.000100
    542          8.360885   1.000100
    543          8.362213   1.000104
    544          8.363229   1.000107
    545          8.364456   1.000111
    546          8.365814   1.000115
    547          8.367486   1.000120
    548          8.367518   1.000120
    549          8.372440   1.000138
    550          8.402961   1.000308
    551          8.413382   1.000400
    552          8.420316   1.000475
    553          8.423425   1.000512
    554          8.424516   1.000526
    555          8.426094   1.000547
    556          8.551081   1.007096
    557          8.575542   1.010449
    558          8.581547   1.011418
    559          8.585108   1.012020
    560          8.586836   1.012319
    561          8.596957   1.014166
    562          8.598071   1.014378
    563          8.598140   1.014392
    564          8.599721   1.014697
    565          8.599862   1.014724
    566          8.610848   1.016944
    567          8.615914   1.018020
    568          8.701635   1.034966
    569          8.728512   1.034485
    570          8.728802   1.034445
    571          8.839561   0.917273
    572          8.868521   0.840893
    573          8.885002   0.788425
    574          8.887667   0.779376
    575          8.890391   0.769973
    576          8.892310   0.763257
    577          8.892971   0.760926
    578          8.894275   0.756304
    579          8.896717   0.747562
    580          8.897326   0.745364
    581          8.898855   0.739810
    582          8.899216   0.738493
    583          9.020632   0.250085
    584          9.048370   0.158519
    585          9.048727   0.157454
    586          9.067597   0.105568
    587          9.071082   0.096955
    588          9.071918   0.094933
    589          9.082219   0.071489
    590          9.082978   0.069867
    591          9.098122   0.040520
    592          9.106110   0.027303
    593          9.110503   0.020678
    594          9.111902   0.018664
    595          9.118481   0.009782
    596          9.119889   0.008007
    597          9.120283   0.007518
    598          9.122516   0.004810
    599          9.122538   0.004784
    600          9.125118   0.001792
    601          9.128426  -0.001840
    602          9.128638  -0.002064
    603          9.156680  -0.024240
    604          9.162283  -0.027051
    605          9.164736  -0.028132
    606          9.172356  -0.030952
    607          9.173025  -0.031162
    608          9.174144  -0.031501
    609          9.174774  -0.031685
    610          9.176098  -0.032055
    611          9.180107  -0.033045
    612          9.180881  -0.033215
    613          9.189080  -0.034602
    614          9.191966  -0.034924
    615          9.329306  -0.012416
    616          9.346194  -0.009681
    617          9.488018  -0.000582
    618          9.493322  -0.000512
    619          9.501361  -0.000420
    620          9.600556  -0.000027
    621          9.614624  -0.000018
    622          9.616903  -0.000017
    623          9.619164  -0.000015
    624          9.623249  -0.000014
    625          9.626163  -0.000012
    626          9.628482  -0.000012
    627          9.630458  -0.000011
    628          9.632604  -0.000010
    629          9.632710  -0.000010
    630          9.694255  -0.000001
    631          9.697339  -0.000001
    632          9.705091  -0.000001
    633          9.748584  -0.000000
    634          9.763271  -0.000000
    635          9.768710  -0.000000
    636          9.770429  -0.000000
    637          9.779453  -0.000000
    638          9.787506  -0.000000
    639          9.806564  -0.000000
    640          9.809581  -0.000000
    641          9.834591  -0.000000
    642          9.843733  -0.000000
    643          9.847441  -0.000000
    644          9.848859  -0.000000
    645          9.850673  -0.000000
    646          9.851237  -0.000000
    647          9.857528  -0.000000
    648          9.858234  -0.000000
    649          9.861416  -0.000000
    650          9.862079  -0.000000
    651          9.865085  -0.000000
    652          9.871750  -0.000000
    653          9.928475  -0.000000
    654          9.980132  -0.000000
    655          9.992771  -0.000000
    656          9.995095  -0.000000
    657          9.995224  -0.000000
    658         10.005224  -0.000000
    659         10.045749  -0.000000
    660         10.054254  -0.000000
    661         10.054868  -0.000000
    662         10.063299  -0.000000
    663         10.064046  -0.000000
    664         10.074523  -0.000000
    665         10.126140  -0.000000
    666         10.128622  -0.000000
    667         10.131437  -0.000000
    668         10.134659  -0.000000
    669         10.136812  -0.000000
    670         10.139300  -0.000000
    671         10.152513  -0.000000
    672         10.184619  -0.000000
    673         10.194391  -0.000000
    674         10.198692  -0.000000
    675         10.204812  -0.000000
    676         10.209152  -0.000000
    677         10.209572  -0.000000
    678         10.213172  -0.000000
    679         10.216990  -0.000000
    680         10.218645  -0.000000
    681         10.221524  -0.000000
    682         10.229944  -0.000000
    683         10.242864  -0.000000
    684         10.245101  -0.000000
    685         10.252049  -0.000000
    686         10.252906  -0.000000
    687         10.253986  -0.000000
    688         10.254507  -0.000000
    689         10.259727  -0.000000
    690         10.266581  -0.000000
    691         10.269664  -0.000000
 
  0.2500000E+00 -0.8988716E-17  0.0000000E+00  0.4166667E-01
      1        -39.900677   1.000000
      2        -39.873289   1.000000
      3        -39.863645   1.000000
      4        -39.861363   1.000000
      5        -39.855511   1.000000
      6        -39.852152   1.000000
      7        -39.839523   1.000000
      8        -39.835850   1.000000
      9        -39.835142   1.000000
     10        -39.829449   1.000000
     11        -39.824859   1.000000
     12        -39.823907   1.000000
     13        -39.822783   1.000000
     14        -39.820117   1.000000
     15        -39.817027   1.000000
     16        -39.807789   1.000000
     17        -39.807717   1.000000
     18        -39.805549   1.000000
     19        -39.800321   1.000000
     20        -39.798276   1.000000
     21        -39.794062   1.000000
     22        -39.792949   1.000000
     23        -39.792324   1.000000
     24        -39.788882   1.000000
     25        -39.786972   1.000000
     26        -39.782628   1.000000
     27        -39.780365   1.000000
     28        -39.777844   1.000000
     29        -39.773421   1.000000
     30        -39.772430   1.000000
     31        -39.771944   1.000000
     32        -39.770188   1.000000
     33        -39.769691   1.000000
     34        -39.769313   1.000000
     35        -39.767402   1.000000
     36        -39.766899   1.000000
     37        -39.765299   1.000000
     38        -39.764977   1.000000
     39        -39.762474   1.000000
     40        -39.762296   1.000000
     41        -39.761716   1.000000
     42        -39.761282   1.000000
     43        -39.759494   1.000000
     44        -39.758608   1.000000
     45        -39.758124   1.000000
     46        -39.756323   1.000000
     47        -39.755472   1.000000
     48        -39.754054   1.000000
     49        -39.753993   1.000000
     50        -39.753616   1.000000
     51        -39.753090   1.000000
     52        -39.752997   1.000000
     53        -39.750897   1.000000
     54        -39.750522   1.000000
     55        -39.749788   1.000000
     56        -39.748913   1.000000
     57        -39.748158   1.000000
     58        -39.746786   1.000000
     59        -39.746486   1.000000
     60        -39.745374   1.000000
     61        -39.744577   1.000000
     62        -39.742677   1.000000
     63        -39.741776   1.000000
     64        -39.740142   1.000000
     65        -39.738189   1.000000
     66        -39.737469   1.000000
     67        -39.735984   1.000000
     68        -39.735844   1.000000
     69        -39.733844   1.000000
     70        -39.733087   1.000000
     71        -39.732780   1.000000
     72        -39.731980   1.000000
     73        -39.731610   1.000000
     74        -39.730219   1.000000
     75        -39.729924   1.000000
     76        -39.729783   1.000000
     77        -39.729058   1.000000
     78        -39.728790   1.000000
     79        -39.728378   1.000000
     80        -39.728309   1.000000
     81        -39.727435   1.000000
     82        -39.727149   1.000000
     83        -39.725982   1.000000
     84        -39.725223   1.000000
     85        -39.723132   1.000000
     86        -39.723113   1.000000
     87        -39.721361   1.000000
     88        -39.719897   1.000000
     89        -39.718315   1.000000
     90        -39.718089   1.000000
     91        -39.716532   1.000000
     92        -39.715779   1.000000
     93        -39.714887   1.000000
     94        -39.714459   1.000000
     95        -39.714415   1.000000
     96        -39.712949   1.000000
     97        -18.403900   1.000000
     98        -18.325369   1.000000
     99        -18.318752   1.000000
    100        -18.318177   1.000000
    101        -18.317490   1.000000
    102        -18.315458   1.000000
    103        -18.313440   1.000000
    104        -18.310806   1.000000
    105        -18.274151   1.000000
    106        -18.273382   1.000000
    107        -18.241871   1.000000
    108        -18.235029   1.000000
    109        -18.232987   1.000000
    110        -18.231012   1.000000
    111        -18.230673   1.000000
    112        -18.229234   1.000000
    113        -18.224977   1.000000
    114        -18.224420   1.000000
    115        -18.223709   1.000000
    116        -18.221769   1.000000
    117        -18.219849   1.000000
    118        -18.216285   1.000000
    119        -18.213601   1.000000
    120        -18.206778   1.000000
    121        -18.206509   1.000000
    122        -18.206058   1.000000
    123        -18.203644   1.000000
    124        -18.202592   1.000000
    125        -18.201898   1.000000
    126        -18.201672   1.000000
    127        -18.200651   1.000000
    128        -18.200080   1.000000
    129        -18.199831   1.000000
    130        -18.196901   1.000000
    131        -18.196444   1.000000
    132        -18.182856   1.000000
    133        -18.178856   1.000000
    134        -18.178853   1.000000
    135        -18.176792   1.000000
    136        -18.175696   1.000000
    137        -18.173332   1.000000
    138        -18.167622   1.000000
    139        -18.166096   1.000000
    140        -18.165513   1.000000
    141        -18.165367   1.000000
    142        -18.164758   1.000000
    143        -18.163997   1.000000
    144        -18.162832   1.000000
    145        -18.162164   1.000000
    146        -18.162057   1.000000
    147        -18.158664   1.000000
    148        -18.157514   1.000000
    149        -18.156071   1.000000
    150        -18.154067   1.000000
    151        -18.153554   1.000000
    152        -18.152109   1.000000
    153        -18.137920   1.000000
    154        -18.136220   1.000000
    155        -18.130295   1.000000
    156        -18.129347   1.000000
    157        -18.124269   1.000000
    158        -18.123945   1.000000
    159        -18.122336   1.000000
    160        -18.121490   1.000000
    161        -18.069226   1.000000
    162        -18.068634   1.000000
    163        -18.067128   1.000000
    164        -18.063984   1.000000
    165        -18.063026   1.000000
    166        -18.062560   1.000000
    167        -18.054821   1.000000
    168        -18.053688   1.000000
    169        -18.052013   1.000000
    170        -18.034870   1.000000
    171        -18.019386   1.000000
    172        -18.017148   1.000000
    173        -18.013653   1.000000
    174        -18.012727   1.000000
    175        -18.009781   1.000000
    176        -18.003296   1.000000
    177        -18.003035   1.000000
    178        -18.001422   1.000000
    179        -18.001376   1.000000
    180        -17.997904   1.000000
    181        -17.997901   1.000000
    182        -17.996402   1.000000
    183        -17.992686   1.000000
    184        -17.989419   1.000000
    185        -17.988734   1.000000
    186        -17.970211   1.000000
    187        -17.967516   1.000000
    188        -17.950210   1.000000
    189        -17.947531   1.000000
    190        -17.947264   1.000000
    191        -17.946745   1.000000
    192        -17.925363   1.000000
    193        -17.925326   1.000000
    194        -17.894363   1.000000
    195        -17.891955   1.000000
    196        -17.889814   1.000000
    197        -17.889606   1.000000
    198        -17.887800   1.000000
    199        -17.887459   1.000000
    200        -17.884995   1.000000
    201        -17.873974   1.000000
    202        -17.870837   1.000000
    203        -17.869158   1.000000
    204        -17.867237   1.000000
    205        -17.846870   1.000000
    206        -17.845253   1.000000
    207        -17.838583   1.000000
    208        -17.836901   1.000000
    209        -17.831015   1.000000
    210        -17.830657   1.000000
    211        -17.827800   1.000000
    212        -17.827710   1.000000
    213        -17.825226   1.000000
    214        -17.824967   1.000000
    215        -17.824815   1.000000
    216        -17.823736   1.000000
    217        -17.814561   1.000000
    218        -17.813760   1.000000
    219        -17.813259   1.000000
    220        -17.811477   1.000000
    221        -17.799902   1.000000
    222        -17.797723   1.000000
    223        -17.797109   1.000000
    224        -17.795166   1.000000
    225        -17.794012   1.000000
    226        -17.792577   1.000000
    227        -17.785535   1.000000
    228        -17.784256   1.000000
    229        -17.783001   1.000000
    230        -17.782760   1.000000
    231        -17.781845   1.000000
    232        -17.779924   1.000000
    233        -17.775638   1.000000
    234        -17.775546   1.000000
    235        -17.771673   1.000000
    236        -17.771592   1.000000
    237        -17.769147   1.000000
    238        -17.768570   1.000000
    239        -17.768147   1.000000
    240        -17.767191   1.000000
    241        -17.766637   1.000000
    242        -17.766220   1.000000
    243        -17.764662   1.000000
    244        -17.764290   1.000000
    245        -17.760634   1.000000
    246        -17.754089   1.000000
    247        -17.737745   1.000000
    248        -17.732247   1.000000
    249        -17.730152   1.000000
    250        -17.729185   1.000000
    251        -17.727343   1.000000
    252        -17.727270   1.000000
    253        -17.726411   1.000000
    254        -17.725151   1.000000
    255        -17.724057   1.000000
    256        -17.721996   1.000000
    257        -17.703686   1.000000
    258        -17.702428   1.000000
    259        -17.701371   1.000000
    260        -17.701228   1.000000
    261        -17.700061   1.000000
    262        -17.699110   1.000000
    263        -17.697627   1.000000
    264        -17.697348   1.000000
    265        -17.696468   1.000000
    266        -17.690327   1.000000
    267        -17.686249   1.000000
    268        -17.685464   1.000000
    269        -17.681544   1.000000
    270        -17.680436   1.000000
    271        -17.671940   1.000000
    272        -17.671477   1.000000
    273        -17.669324   1.000000
    274        -17.669153   1.000000
    275        -17.667938   1.000000
    276        -17.667145   1.000000
    277        -17.665025   1.000000
    278        -17.660961   1.000000
    279        -17.660107   1.000000
    280        -17.659338   1.000000
    281        -17.659053   1.000000
    282        -17.655496   1.000000
    283        -17.655154   1.000000
    284        -17.652842   1.000000
    285        -17.652736   1.000000
    286        -17.652066   1.000000
    287        -17.651024   1.000000
    288        -17.649575   1.000000
    289        -17.648900   1.000000
    290        -17.648208   1.000000
    291        -17.647839   1.000000
    292        -17.646424   1.000000
    293        -17.646048   1.000000
    294        -17.645446   1.000000
    295        -17.644575   1.000000
    296        -17.644466   1.000000
    297        -17.643413   1.000000
    298        -17.643040   1.000000
    299        -17.634579   1.000000
    300        -17.630957   1.000000
    301        -17.627610   1.000000
    302        -17.623644   1.000000
    303        -17.623113   1.000000
    304        -17.620250   1.000000
    305        -17.617531   1.000000
    306        -17.616839   1.000000
    307        -17.616206   1.000000
    308        -17.614779   1.000000
    309        -17.614274   1.000000
    310        -17.613424   1.000000
    311        -17.611916   1.000000
    312        -17.611472   1.000000
    313        -17.593846   1.000000
    314        -17.592362   1.000000
    315        -17.590419   1.000000
    316        -17.589393   1.000000
    317        -17.584347   1.000000
    318        -17.584288   1.000000
    319        -17.582907   1.000000
    320        -17.582476   1.000000
    321        -17.582188   1.000000
    322        -17.581893   1.000000
    323        -17.580672   1.000000
    324        -17.579697   1.000000
    325        -17.579367   1.000000
    326        -17.578286   1.000000
    327        -17.578285   1.000000
    328        -17.575654   1.000000
    329        -17.575377   1.000000
    330        -17.573973   1.000000
    331        -17.572737   1.000000
    332        -17.572117   1.000000
    333        -17.571221   1.000000
    334        -17.570723   1.000000
    335        -17.569396   1.000000
    336        -17.564290   1.000000
    337        -17.560686   1.000000
    338        -17.559483   1.000000
    339        -17.558759   1.000000
    340        -17.557185   1.000000
    341        -17.555069   1.000000
    342        -17.549208   1.000000
    343        -17.547082   1.000000
    344        -17.546970   1.000000
    345        -17.545070   1.000000
    346        -17.544813   1.000000
    347        -17.544067   1.000000
    348        -17.542335   1.000000
    349        -17.542098   1.000000
    350        -17.541304   1.000000
    351        -17.541279   1.000000
    352        -17.538452   1.000000
    353        -17.536268   1.000000
    354        -17.535637   1.000000
    355        -17.535403   1.000000
    356        -17.535091   1.000000
    357        -17.534535   1.000000
    358        -17.532934   1.000000
    359        -17.532699   1.000000
    360        -17.528703   1.000000
    361        -17.527266   1.000000
    362        -17.521311   1.000000
    363        -17.515301   1.000000
    364        -17.513369   1.000000
    365        -17.512304   1.000000
    366        -17.511313   1.000000
    367        -17.496754   1.000000
    368        -17.495756   1.000000
    369        -17.493941   1.000000
    370        -17.492965   1.000000
    371        -17.491758   1.000000
    372        -17.490905   1.000000
    373        -17.488962   1.000000
    374        -17.473710   1.000000
    375        -17.472573   1.000000
    376        -17.469234   1.000000
    377        -17.467459   1.000000
    378        -17.466131   1.000000
    379        -17.458723   1.000000
    380        -17.456119   1.000000
    381        -17.448144   1.000000
    382        -17.445031   1.000000
    383        -17.433307   1.000000
    384        -17.421445   1.000000
    385          2.487078   1.000000
    386          3.491435   1.000000
    387          4.224922   1.000000
    388          4.253059   1.000000
    389          4.344108   1.000000
    390          4.577444   1.000000
    391          4.645305   1.000000
    392          4.946754   1.000000
    393          4.989950   1.000000
    394          5.202119   1.000000
    395          5.210990   1.000000
    396          5.234674   1.000000
    397          5.235622   1.000000
    398          5.237044   1.000000
    399          5.342011   1.000000
    400          5.462114   1.000000
    401          5.653748   1.000000
    402          5.656825   1.000000
    403          5.657076   1.000000
    404          5.698323   1.000000
    405          5.744291   1.000000
    406          5.757778   1.000000
    407          5.759796   1.000000
    408          5.822228   1.000000
    409          5.915636   1.000000
    410          5.938572   1.000000
    411          5.977795   1.000000
    412          5.981005   1.000000
    413          5.984187   1.000000
    414          6.022195   1.000000
    415          6.051065   1.000000
    416          6.267988   1.000000
    417          6.306719   1.000000
    418          6.317918   1.000000
    419          6.393624   1.000000
    420          6.398496   1.000000
    421          6.399992   1.000000
    422          6.411699   1.000000
    423          6.434060   1.000000
    424          6.436632   1.000000
    425          6.439836   1.000000
    426          6.452121   1.000000
    427          6.463453   1.000000
    428          6.480893   1.000000
    429          6.501257   1.000000
    430          6.505169   1.000000
    431          6.507740   1.000000
    432          6.512363   1.000000
    433          6.517445   1.000000
    434          6.520687   1.000000
    435          6.524789   1.000000
    436          6.540148   1.000000
    437          6.554991   1.000000
    438          6.557549   1.000000
    439          6.602683   1.000000
    440          6.669263   1.000000
    441          6.678850   1.000000
    442          6.680426   1.000000
    443          6.682737   1.000000
    444          6.696803   1.000000
    445          6.704482   1.000000
    446          6.737503   1.000000
    447          6.769639   1.000000
    448          6.780799   1.000000
    449          6.803760   1.000000
    450          6.803974   1.000000
    451          6.808514   1.000000
    452          6.824895   1.000000
    453          6.842335   1.000000
    454          6.855791   1.000000
    455          6.864309   1.000000
    456          6.865026   1.000000
    457          6.868678   1.000000
    458          6.882406   1.000000
    459          6.893130   1.000000
    460          6.901346   1.000000
    461          6.902321   1.000000
    462          6.903721   1.000000
    463          6.905258   1.000000
    464          6.910290   1.000000
    465          6.911479   1.000000
    466          6.913248   1.000000
    467          6.917280   1.000000
    468          6.971236   1.000000
    469          6.994412   1.000000
    470          6.995173   1.000000
    471          6.999267   1.000000
    472          7.001000   1.000000
    473          7.001119   1.000000
    474          7.030120   1.000000
    475          7.030782   1.000000
    476          7.154558   1.000000
    477          7.201474   1.000000
    478          7.204027   1.000000
    479          7.205342   1.000000
    480          7.207622   1.000000
    481          7.208452   1.000000
    482          7.215611   1.000000
    483          7.219963   1.000000
    484          7.224736   1.000000
    485          7.229723   1.000000
    486          7.398832   1.000000
    487          7.408823   1.000000
    488          7.455976   1.000000
    489          7.485696   1.000000
    490          7.516461   1.000000
    491          7.615508   1.000000
    492          7.641520   1.000000
    493          7.643314   1.000000
    494          7.648879   1.000000
    495          7.658299   1.000000
    496          7.675224   1.000000
    497          7.676016   1.000000
    498          7.682200   1.000000
    499          7.687790   1.000000
    500          7.690091   1.000000
    501          7.692953   1.000000
    502          7.693744   1.000000
    503          7.700838   1.000000
    504          7.710632   1.000000
    505          7.711452   1.000000
    506          7.713712   1.000000
    507          7.724567   1.000000
    508          7.751778   1.000000
    509          7.772810   1.000000
    510          7.792572   1.000000
    511          7.792769   1.000000
    512          7.797599   1.000000
    513          7.817101   1.000000
    514          7.837441   1.000000
    515          7.839522   1.000000
    516          7.840052   1.000000
    517          7.841743   1.000000
    518          7.846223   1.000000
    519          7.847897   1.000000
    520          7.852195   1.000000
    521          7.857501   1.000000
    522          7.862991   1.000000
    523          7.877627   1.000000
    524          7.883860   1.000000
    525          8.017089   1.000000
    526          8.048211   1.000000
    527          8.055274   1.000000
    528          8.055957   1.000000
    529          8.079530   1.000000
    530          8.084015   1.000000
    531          8.089734   1.000000
    532          8.090269   1.000000
    533          8.092843   1.000000
    534          8.096141   1.000000
    535          8.180742   1.000000
    536          8.207895   1.000001
    537          8.211667   1.000001
    538          8.213672   1.000001
    539          8.255190   1.000004
    540          8.297877   1.000016
    541          8.301074   1.000017
    542          8.301793   1.000018
    543          8.317103   1.000028
    544          8.320789   1.000031
    545          8.324091   1.000035
    546          8.324291   1.000035
    547          8.401442   1.000296
    548          8.412113   1.000388
    549          8.415041   1.000417
    550          8.433509   1.000653
    551          8.442288   1.000803
    552          8.446633   1.000888
    553          8.449287   1.000944
    554          8.449505   1.000948
    555          8.451310   1.000988
    556          8.489008   1.002234
    557          8.492211   1.002386
    558          8.495947   1.002573
    559          8.499832   1.002781
    560          8.594597   1.013721
    561          8.630628   1.021291
    562          8.637857   1.022952
    563          8.644719   1.024541
    564          8.649097   1.025551
    565          8.649949   1.025747
    566          8.652061   1.026231
    567          8.658677   1.027725
    568          8.665186   1.029146
    569          8.799843   0.988110
    570          8.808854   0.975362
    571          8.816157   0.963638
    572          8.816696   0.962723
    573          8.831108   0.935596
    574          8.841970   0.911721
    575          8.849749   0.892791
    576          8.878239   0.810700
    577          8.896750   0.747440
    578          8.903889   0.721233
    579          8.907121   0.709074
    580          8.911657   0.691721
    581          9.056799   0.134184
    582          9.060852   0.123102
    583          9.068343   0.103697
    584          9.089445   0.056639
    585          9.090180   0.055200
    586          9.094774   0.046520
    587          9.094915   0.046262
    588          9.100140   0.037037
    589          9.106709   0.026373
    590          9.107002   0.025922
    591          9.116454   0.012414
    592          9.123760   0.003349
    593          9.124008   0.003062
    594          9.132151  -0.005658
    595          9.132696  -0.006193
    596          9.150675  -0.020674
    597          9.162739  -0.027259
    598          9.164158  -0.027885
    599          9.166194  -0.028734
    600          9.171777  -0.030765
    601          9.184344  -0.033889
    602          9.189793  -0.034689
    603          9.192106  -0.034938
    604          9.199277  -0.035394
    605          9.266422  -0.025821
    606          9.275333  -0.023763
    607          9.280847  -0.022489
    608          9.285084  -0.021516
    609          9.290838  -0.020211
    610          9.299644  -0.018266
    611          9.301553  -0.017854
    612          9.317448  -0.014605
    613          9.360795  -0.007683
    614          9.371005  -0.006481
    615          9.372579  -0.006310
    616          9.379997  -0.005548
    617          9.438972  -0.001766
    618          9.455908  -0.001223
    619          9.490157  -0.000553
    620          9.507388  -0.000361
    621          9.517142  -0.000282
    622          9.517360  -0.000280
    623          9.523786  -0.000238
    624          9.539505  -0.000157
    625          9.599638  -0.000028
    626          9.615570  -0.000017
    627          9.619440  -0.000015
    628          9.630199  -0.000011
    629          9.632981  -0.000010
    630          9.633872  -0.000010
    631          9.684125  -0.000002
    632          9.686245  -0.000002
    633          9.689824  -0.000001
    634          9.697818  -0.000001
    635          9.702054  -0.000001
    636          9.707184  -0.000001
    637          9.712777  -0.000001
    638          9.731716  -0.000000
    639          9.749998  -0.000000
    640          9.754522  -0.000000
    641          9.770167  -0.000000
    642          9.771283  -0.000000
    643          9.779712  -0.000000
    644          9.790141  -0.000000
    645          9.791466  -0.000000
    646          9.794445  -0.000000
    647          9.805827  -0.000000
    648          9.809535  -0.000000
    649          9.810724  -0.000000
    650          9.814481  -0.000000
    651          9.819335  -0.000000
    652          9.833530  -0.000000
    653          9.870303  -0.000000
    654          9.893405  -0.000000
    655          9.907535  -0.000000
    656          9.907632  -0.000000
    657          9.911002  -0.000000
    658          9.912843  -0.000000
    659          9.941652  -0.000000
    660          9.949995  -0.000000
    661          9.973237  -0.000000
    662          9.981057  -0.000000
    663         10.001639  -0.000000
    664         10.014496  -0.000000
    665         10.015386  -0.000000
    666         10.031560  -0.000000
    667         10.032461  -0.000000
    668         10.033371  -0.000000
    669         10.038881  -0.000000
    670         10.074925  -0.000000
    671         10.077646  -0.000000
    672         10.154537  -0.000000
    673         10.163891  -0.000000
    674         10.168783  -0.000000
    675         10.175723  -0.000000
    676         10.180069  -0.000000
    677         10.190169  -0.000000
    678         10.195738  -0.000000
    679         10.243212  -0.000000
    680         10.246647  -0.000000
    681         10.265061  -0.000000
    682         10.266825  -0.000000
    683         10.276947  -0.000000
    684         10.278846  -0.000000
    685         10.290050  -0.000000
    686         10.322600  -0.000000
    687         10.330024  -0.000000
    688         10.337540  -0.000000
    689         10.338204  -0.000000
    690         10.366863  -0.000000
    691         10.372508  -0.000000
 
  0.1345275E-16  0.2500000E+00  0.0000000E+00  0.4166667E-01
      1        -39.900634   1.000000
      2        -39.873228   1.000000
      3        -39.864653   1.000000
      4        -39.861747   1.000000
      5        -39.853221   1.000000
      6        -39.852347   1.000000
      7        -39.840785   1.000000
      8        -39.835951   1.000000
      9        -39.834731   1.000000
     10        -39.828476   1.000000
     11        -39.824957   1.000000
     12        -39.823804   1.000000
     13        -39.822293   1.000000
     14        -39.821431   1.000000
     15        -39.817323   1.000000
     16        -39.810509   1.000000
     17        -39.805328   1.000000
     18        -39.803625   1.000000
     19        -39.801541   1.000000
     20        -39.797260   1.000000
     21        -39.796356   1.000000
     22        -39.793208   1.000000
     23        -39.791467   1.000000
     24        -39.788265   1.000000
     25        -39.787025   1.000000
     26        -39.783410   1.000000
     27        -39.778819   1.000000
     28        -39.777187   1.000000
     29        -39.774168   1.000000
     30        -39.772783   1.000000
     31        -39.771820   1.000000
     32        -39.770582   1.000000
     33        -39.770082   1.000000
     34        -39.768923   1.000000
     35        -39.767207   1.000000
     36        -39.766917   1.000000
     37        -39.765740   1.000000
     38        -39.764536   1.000000
     39        -39.763263   1.000000
     40        -39.762592   1.000000
     41        -39.761860   1.000000
     42        -39.760453   1.000000
     43        -39.759485   1.000000
     44        -39.758427   1.000000
     45        -39.758202   1.000000
     46        -39.756448   1.000000
     47        -39.755608   1.000000
     48        -39.754356   1.000000
     49        -39.754307   1.000000
     50        -39.753378   1.000000
     51        -39.753233   1.000000
     52        -39.751648   1.000000
     53        -39.751198   1.000000
     54        -39.750510   1.000000
     55        -39.749381   1.000000
     56        -39.748913   1.000000
     57        -39.748238   1.000000
     58        -39.747365   1.000000
     59        -39.746114   1.000000
     60        -39.745597   1.000000
     61        -39.744738   1.000000
     62        -39.742746   1.000000
     63        -39.741679   1.000000
     64        -39.740065   1.000000
     65        -39.737944   1.000000
     66        -39.737774   1.000000
     67        -39.736337   1.000000
     68        -39.735234   1.000000
     69        -39.734138   1.000000
     70        -39.733362   1.000000
     71        -39.732779   1.000000
     72        -39.732105   1.000000
     73        -39.731101   1.000000
     74        -39.730549   1.000000
     75        -39.729889   1.000000
     76        -39.729432   1.000000
     77        -39.729154   1.000000
     78        -39.728979   1.000000
     79        -39.728549   1.000000
     80        -39.728261   1.000000
     81        -39.727457   1.000000
     82        -39.726701   1.000000
     83        -39.725887   1.000000
     84        -39.725100   1.000000
     85        -39.723633   1.000000
     86        -39.722618   1.000000
     87        -39.721757   1.000000
     88        -39.719603   1.000000
     89        -39.718647   1.000000
     90        -39.717735   1.000000
     91        -39.716624   1.000000
     92        -39.716095   1.000000
     93        -39.715175   1.000000
     94        -39.714632   1.000000
     95        -39.713831   1.000000
     96        -39.712912   1.000000
     97        -18.403903   1.000000
     98        -18.325306   1.000000
     99        -18.318920   1.000000
    100        -18.318382   1.000000
    101        -18.317316   1.000000
    102        -18.315183   1.000000
    103        -18.313491   1.000000
    104        -18.310868   1.000000
    105        -18.274315   1.000000
    106        -18.273120   1.000000
    107        -18.240823   1.000000
    108        -18.235469   1.000000
    109        -18.233035   1.000000
    110        -18.231447   1.000000
    111        -18.231242   1.000000
    112        -18.229250   1.000000
    113        -18.225300   1.000000
    114        -18.224661   1.000000
    115        -18.223630   1.000000
    116        -18.221820   1.000000
    117        -18.219579   1.000000
    118        -18.216148   1.000000
    119        -18.213231   1.000000
    120        -18.207287   1.000000
    121        -18.206460   1.000000
    122        -18.205797   1.000000
    123        -18.203144   1.000000
    124        -18.202667   1.000000
    125        -18.202133   1.000000
    126        -18.201602   1.000000
    127        -18.200804   1.000000
    128        -18.199965   1.000000
    129        -18.199496   1.000000
    130        -18.196871   1.000000
    131        -18.196447   1.000000
    132        -18.183102   1.000000
    133        -18.179185   1.000000
    134        -18.178474   1.000000
    135        -18.176865   1.000000
    136        -18.175560   1.000000
    137        -18.173349   1.000000
    138        -18.167559   1.000000
    139        -18.166113   1.000000
    140        -18.165686   1.000000
    141        -18.165211   1.000000
    142        -18.164712   1.000000
    143        -18.163890   1.000000
    144        -18.162833   1.000000
    145        -18.162464   1.000000
    146        -18.162178   1.000000
    147        -18.158940   1.000000
    148        -18.157179   1.000000
    149        -18.155792   1.000000
    150        -18.154290   1.000000
    151        -18.153800   1.000000
    152        -18.151987   1.000000
    153        -18.137925   1.000000
    154        -18.136018   1.000000
    155        -18.130600   1.000000
    156        -18.129255   1.000000
    157        -18.124197   1.000000
    158        -18.123771   1.000000
    159        -18.122581   1.000000
    160        -18.121340   1.000000
    161        -18.069428   1.000000
    162        -18.068519   1.000000
    163        -18.067232   1.000000
    164        -18.064316   1.000000
    165        -18.062956   1.000000
    166        -18.062084   1.000000
    167        -18.054653   1.000000
    168        -18.053469   1.000000
    169        -18.052208   1.000000
    170        -18.034987   1.000000
    171        -18.019495   1.000000
    172        -18.017390   1.000000
    173        -18.013757   1.000000
    174        -18.012400   1.000000
    175        -18.010008   1.000000
    176        -18.003713   1.000000
    177        -18.002501   1.000000
    178        -18.002094   1.000000
    179        -18.000959   1.000000
    180        -17.998213   1.000000
    181        -17.997493   1.000000
    182        -17.995561   1.000000
    183        -17.992481   1.000000
    184        -17.989480   1.000000
    185        -17.988910   1.000000
    186        -17.970449   1.000000
    187        -17.967370   1.000000
    188        -17.950761   1.000000
    189        -17.947775   1.000000
    190        -17.947378   1.000000
    191        -17.946308   1.000000
    192        -17.926024   1.000000
    193        -17.925123   1.000000
    194        -17.894091   1.000000
    195        -17.891890   1.000000
    196        -17.890449   1.000000
    197        -17.889764   1.000000
    198        -17.888464   1.000000
    199        -17.887098   1.000000
    200        -17.884879   1.000000
    201        -17.872963   1.000000
    202        -17.870545   1.000000
    203        -17.869229   1.000000
    204        -17.867318   1.000000
    205        -17.847579   1.000000
    206        -17.845190   1.000000
    207        -17.838729   1.000000
    208        -17.836563   1.000000
    209        -17.831252   1.000000
    210        -17.829902   1.000000
    211        -17.827766   1.000000
    212        -17.827483   1.000000
    213        -17.825888   1.000000
    214        -17.825135   1.000000
    215        -17.824503   1.000000
    216        -17.823639   1.000000
    217        -17.814986   1.000000
    218        -17.813673   1.000000
    219        -17.812957   1.000000
    220        -17.811478   1.000000
    221        -17.800124   1.000000
    222        -17.797806   1.000000
    223        -17.796669   1.000000
    224        -17.794894   1.000000
    225        -17.794186   1.000000
    226        -17.792594   1.000000
    227        -17.785518   1.000000
    228        -17.784631   1.000000
    229        -17.783450   1.000000
    230        -17.782298   1.000000
    231        -17.781665   1.000000
    232        -17.780506   1.000000
    233        -17.776622   1.000000
    234        -17.775102   1.000000
    235        -17.771786   1.000000
    236        -17.771054   1.000000
    237        -17.769159   1.000000
    238        -17.768521   1.000000
    239        -17.768061   1.000000
    240        -17.767314   1.000000
    241        -17.766706   1.000000
    242        -17.766114   1.000000
    243        -17.764902   1.000000
    244        -17.763983   1.000000
    245        -17.760643   1.000000
    246        -17.753641   1.000000
    247        -17.737721   1.000000
    248        -17.732126   1.000000
    249        -17.730968   1.000000
    250        -17.729367   1.000000
    251        -17.727346   1.000000
    252        -17.726691   1.000000
    253        -17.726140   1.000000
    254        -17.724800   1.000000
    255        -17.723863   1.000000
    256        -17.721247   1.000000
    257        -17.704235   1.000000
    258        -17.702782   1.000000
    259        -17.702284   1.000000
    260        -17.700616   1.000000
    261        -17.699621   1.000000
    262        -17.699186   1.000000
    263        -17.697691   1.000000
    264        -17.697303   1.000000
    265        -17.696248   1.000000
    266        -17.689618   1.000000
    267        -17.686385   1.000000
    268        -17.684578   1.000000
    269        -17.681370   1.000000
    270        -17.680958   1.000000
    271        -17.673299   1.000000
    272        -17.671153   1.000000
    273        -17.669844   1.000000
    274        -17.669122   1.000000
    275        -17.667857   1.000000
    276        -17.667563   1.000000
    277        -17.665169   1.000000
    278        -17.661331   1.000000
    279        -17.660277   1.000000
    280        -17.659586   1.000000
    281        -17.659150   1.000000
    282        -17.655472   1.000000
    283        -17.654846   1.000000
    284        -17.652823   1.000000
    285        -17.652348   1.000000
    286        -17.651581   1.000000
    287        -17.650641   1.000000
    288        -17.649880   1.000000
    289        -17.648967   1.000000
    290        -17.648201   1.000000
    291        -17.647520   1.000000
    292        -17.646612   1.000000
    293        -17.646258   1.000000
    294        -17.645936   1.000000
    295        -17.644705   1.000000
    296        -17.644362   1.000000
    297        -17.643710   1.000000
    298        -17.643105   1.000000
    299        -17.634872   1.000000
    300        -17.630819   1.000000
    301        -17.627479   1.000000
    302        -17.623644   1.000000
    303        -17.623128   1.000000
    304        -17.620044   1.000000
    305        -17.617917   1.000000
    306        -17.616386   1.000000
    307        -17.615907   1.000000
    308        -17.614524   1.000000
    309        -17.614330   1.000000
    310        -17.613187   1.000000
    311        -17.611885   1.000000
    312        -17.611356   1.000000
    313        -17.594234   1.000000
    314        -17.591584   1.000000
    315        -17.590840   1.000000
    316        -17.588891   1.000000
    317        -17.584497   1.000000
    318        -17.583961   1.000000
    319        -17.583025   1.000000
    320        -17.582292   1.000000
    321        -17.582136   1.000000
    322        -17.581634   1.000000
    323        -17.580940   1.000000
    324        -17.579726   1.000000
    325        -17.579328   1.000000
    326        -17.578606   1.000000
    327        -17.578007   1.000000
    328        -17.575771   1.000000
    329        -17.575218   1.000000
    330        -17.574223   1.000000
    331        -17.572804   1.000000
    332        -17.572094   1.000000
    333        -17.571446   1.000000
    334        -17.570568   1.000000
    335        -17.569188   1.000000
    336        -17.564205   1.000000
    337        -17.560555   1.000000
    338        -17.559748   1.000000
    339        -17.558754   1.000000
    340        -17.556996   1.000000
    341        -17.554944   1.000000
    342        -17.549617   1.000000
    343        -17.547027   1.000000
    344        -17.546722   1.000000
    345        -17.545058   1.000000
    346        -17.544430   1.000000
    347        -17.543905   1.000000
    348        -17.542661   1.000000
    349        -17.542304   1.000000
    350        -17.541569   1.000000
    351        -17.541248   1.000000
    352        -17.538424   1.000000
    353        -17.536668   1.000000
    354        -17.536004   1.000000
    355        -17.535503   1.000000
    356        -17.535049   1.000000
    357        -17.534224   1.000000
    358        -17.533410   1.000000
    359        -17.532171   1.000000
    360        -17.528782   1.000000
    361        -17.527252   1.000000
    362        -17.521159   1.000000
    363        -17.515341   1.000000
    364        -17.513233   1.000000
    365        -17.512565   1.000000
    366        -17.511295   1.000000
    367        -17.496584   1.000000
    368        -17.496218   1.000000
    369        -17.494155   1.000000
    370        -17.492805   1.000000
    371        -17.491776   1.000000
    372        -17.490831   1.000000
    373        -17.488780   1.000000
    374        -17.473628   1.000000
    375        -17.472641   1.000000
    376        -17.469267   1.000000
    377        -17.467485   1.000000
    378        -17.466263   1.000000
    379        -17.458658   1.000000
    380        -17.456111   1.000000
    381        -17.448042   1.000000
    382        -17.445139   1.000000
    383        -17.433307   1.000000
    384        -17.421361   1.000000
    385          2.487312   1.000000
    386          3.491316   1.000000
    387          4.224800   1.000000
    388          4.253061   1.000000
    389          4.342924   1.000000
    390          4.577051   1.000000
    391          4.646931   1.000000
    392          4.946838   1.000000
    393          4.988916   1.000000
    394          5.201786   1.000000
    395          5.211478   1.000000
    396          5.234104   1.000000
    397          5.235601   1.000000
    398          5.236986   1.000000
    399          5.345814   1.000000
    400          5.459775   1.000000
    401          5.653079   1.000000
    402          5.656788   1.000000
    403          5.656992   1.000000
    404          5.700906   1.000000
    405          5.744662   1.000000
    406          5.757128   1.000000
    407          5.759971   1.000000
    408          5.822105   1.000000
    409          5.915587   1.000000
    410          5.936698   1.000000
    411          5.977425   1.000000
    412          5.981089   1.000000
    413          5.984400   1.000000
    414          6.022411   1.000000
    415          6.051181   1.000000
    416          6.265970   1.000000
    417          6.306665   1.000000
    418          6.318090   1.000000
    419          6.392855   1.000000
    420          6.398246   1.000000
    421          6.400528   1.000000
    422          6.412263   1.000000
    423          6.433425   1.000000
    424          6.438944   1.000000
    425          6.439710   1.000000
    426          6.452910   1.000000
    427          6.463860   1.000000
    428          6.480024   1.000000
    429          6.500071   1.000000
    430          6.505331   1.000000
    431          6.508040   1.000000
    432          6.511957   1.000000
    433          6.517283   1.000000
    434          6.520244   1.000000
    435          6.524353   1.000000
    436          6.541026   1.000000
    437          6.554097   1.000000
    438          6.556914   1.000000
    439          6.604459   1.000000
    440          6.669792   1.000000
    441          6.678878   1.000000
    442          6.680108   1.000000
    443          6.683166   1.000000
    444          6.697187   1.000000
    445          6.704692   1.000000
    446          6.736345   1.000000
    447          6.769271   1.000000
    448          6.780613   1.000000
    449          6.802955   1.000000
    450          6.804038   1.000000
    451          6.808543   1.000000
    452          6.826169   1.000000
    453          6.843036   1.000000
    454          6.855644   1.000000
    455          6.864031   1.000000
    456          6.865318   1.000000
    457          6.868421   1.000000
    458          6.881818   1.000000
    459          6.892865   1.000000
    460          6.900375   1.000000
    461          6.901639   1.000000
    462          6.903408   1.000000
    463          6.905598   1.000000
    464          6.909716   1.000000
    465          6.911725   1.000000
    466          6.913560   1.000000
    467          6.916759   1.000000
    468          6.972688   1.000000
    469          6.993747   1.000000
    470          6.996208   1.000000
    471          6.999427   1.000000
    472          7.001026   1.000000
    473          7.001758   1.000000
    474          7.029465   1.000000
    475          7.031072   1.000000
    476          7.152955   1.000000
    477          7.200886   1.000000
    478          7.203564   1.000000
    479          7.206750   1.000000
    480          7.207813   1.000000
    481          7.209272   1.000000
    482          7.215892   1.000000
    483          7.219644   1.000000
    484          7.224362   1.000000
    485          7.229225   1.000000
    486          7.397715   1.000000
    487          7.408442   1.000000
    488          7.461401   1.000000
    489          7.485285   1.000000
    490          7.512589   1.000000
    491          7.612278   1.000000
    492          7.641906   1.000000
    493          7.646123   1.000000
    494          7.649904   1.000000
    495          7.660796   1.000000
    496          7.673281   1.000000
    497          7.675857   1.000000
    498          7.682482   1.000000
    499          7.687913   1.000000
    500          7.689806   1.000000
    501          7.692253   1.000000
    502          7.694018   1.000000
    503          7.700299   1.000000
    504          7.709268   1.000000
    505          7.711288   1.000000
    506          7.713639   1.000000
    507          7.727904   1.000000
    508          7.752326   1.000000
    509          7.773803   1.000000
    510          7.791462   1.000000
    511          7.794262   1.000000
    512          7.797664   1.000000
    513          7.819231   1.000000
    514          7.837646   1.000000
    515          7.838210   1.000000
    516          7.840119   1.000000
    517          7.841875   1.000000
    518          7.846114   1.000000
    519          7.848274   1.000000
    520          7.851560   1.000000
    521          7.856750   1.000000
    522          7.863840   1.000000
    523          7.875768   1.000000
    524          7.883848   1.000000
    525          8.018203   1.000000
    526          8.047421   1.000000
    527          8.054787   1.000000
    528          8.055674   1.000000
    529          8.078989   1.000000
    530          8.083800   1.000000
    531          8.089465   1.000000
    532          8.090999   1.000000
    533          8.094067   1.000000
    534          8.096315   1.000000
    535          8.182697   1.000000
    536          8.206861   1.000001
    537          8.211023   1.000001
    538          8.213957   1.000001
    539          8.259227   1.000004
    540          8.297059   1.000015
    541          8.301738   1.000018
    542          8.302647   1.000018
    543          8.319111   1.000030
    544          8.320451   1.000031
    545          8.323836   1.000034
    546          8.324844   1.000036
    547          8.393149   1.000239
    548          8.412399   1.000390
    549          8.417578   1.000444
    550          8.433649   1.000655
    551          8.441076   1.000781
    552          8.446894   1.000893
    553          8.449748   1.000954
    554          8.451412   1.000990
    555          8.452636   1.001018
    556          8.489091   1.002238
    557          8.494145   1.002481
    558          8.496095   1.002580
    559          8.500527   1.002819
    560          8.588939   1.012690
    561          8.630209   1.021196
    562          8.636956   1.022744
    563          8.645426   1.024704
    564          8.648847   1.025493
    565          8.650708   1.025921
    566          8.653189   1.026488
    567          8.659536   1.027916
    568          8.665386   1.029189
    569          8.797575   0.991029
    570          8.812312   0.969970
    571          8.816292   0.963411
    572          8.817465   0.961404
    573          8.832029   0.933687
    574          8.841531   0.912744
    575          8.847301   0.898912
    576          8.877528   0.812982
    577          8.895689   0.751254
    578          8.902431   0.726662
    579          8.906749   0.710481
    580          8.911566   0.692072
    581          9.043238   0.174170
    582          9.066547   0.108223
    583          9.077984   0.080803
    584          9.088010   0.059484
    585          9.091139   0.053346
    586          9.094942   0.046212
    587          9.095973   0.044339
    588          9.098620   0.039652
    589          9.105582   0.028129
    590          9.107552   0.025079
    591          9.119510   0.008481
    592          9.121960   0.005475
    593          9.124474   0.002526
    594          9.130655  -0.004159
    595          9.132701  -0.006198
    596          9.150034  -0.020258
    597          9.157217  -0.024531
    598          9.164001  -0.027817
    599          9.168232  -0.029525
    600          9.172713  -0.031065
    601          9.182847  -0.033614
    602          9.190925  -0.034817
    603          9.191746  -0.034902
    604          9.200723  -0.035432
    605          9.266893  -0.025713
    606          9.276694  -0.023448
    607          9.283090  -0.021973
    608          9.284708  -0.021602
    609          9.292231  -0.019899
    610          9.300770  -0.018023
    611          9.301048  -0.017963
    612          9.317297  -0.014634
    613          9.359756  -0.007814
    614          9.369133  -0.006690
    615          9.371283  -0.006451
    616          9.379902  -0.005558
    617          9.443222  -0.001613
    618          9.455128  -0.001244
    619          9.494395  -0.000499
    620          9.508264  -0.000353
    621          9.515576  -0.000294
    622          9.517927  -0.000276
    623          9.524545  -0.000233
    624          9.537831  -0.000164
    625          9.595183  -0.000032
    626          9.610934  -0.000020
    627          9.621385  -0.000014
    628          9.628604  -0.000011
    629          9.632568  -0.000010
    630          9.634063  -0.000010
    631          9.674825  -0.000002
    632          9.683534  -0.000002
    633          9.692646  -0.000001
    634          9.697855  -0.000001
    635          9.702516  -0.000001
    636          9.706745  -0.000001
    637          9.714060  -0.000001
    638          9.735664  -0.000000
    639          9.744033  -0.000000
    640          9.754149  -0.000000
    641          9.769370  -0.000000
    642          9.771530  -0.000000
    643          9.787181  -0.000000
    644          9.789053  -0.000000
    645          9.791963  -0.000000
    646          9.793342  -0.000000
    647          9.803966  -0.000000
    648          9.807409  -0.000000
    649          9.811836  -0.000000
    650          9.813964  -0.000000
    651          9.819026  -0.000000
    652          9.836178  -0.000000
    653          9.870731  -0.000000
    654          9.894092  -0.000000
    655          9.906493  -0.000000
    656          9.908769  -0.000000
    657          9.911268  -0.000000
    658          9.912081  -0.000000
    659          9.942886  -0.000000
    660          9.953492  -0.000000
    661          9.975213  -0.000000
    662          9.979993  -0.000000
    663         10.004750  -0.000000
    664         10.010292  -0.000000
    665         10.019795  -0.000000
    666         10.029926  -0.000000
    667         10.032573  -0.000000
    668         10.033869  -0.000000
    669         10.038119  -0.000000
    670         10.075840  -0.000000
    671         10.077508  -0.000000
    672         10.156967  -0.000000
    673         10.161324  -0.000000
    674         10.169636  -0.000000
    675         10.175264  -0.000000
    676         10.179304  -0.000000
    677         10.189825  -0.000000
    678         10.196149  -0.000000
    679         10.240976  -0.000000
    680         10.246710  -0.000000
    681         10.262112  -0.000000
    682         10.267714  -0.000000
    683         10.277343  -0.000000
    684         10.278853  -0.000000
    685         10.291684  -0.000000
    686         10.329021  -0.000000
    687         10.330168  -0.000000
    688         10.336472  -0.000000
    689         10.337883  -0.000000
    690         10.363911  -0.000000
    691         10.368098  -0.000000
 
 -0.2500000E+00  0.2500000E+00  0.0000000E+00  0.4166667E-01
      1        -39.900634   1.000000
      2        -39.873228   1.000000
      3        -39.864653   1.000000
      4        -39.861747   1.000000
      5        -39.853221   1.000000
      6        -39.852347   1.000000
      7        -39.840785   1.000000
      8        -39.835951   1.000000
      9        -39.834731   1.000000
     10        -39.828476   1.000000
     11        -39.824957   1.000000
     12        -39.823804   1.000000
     13        -39.822293   1.000000
     14        -39.821431   1.000000
     15        -39.817323   1.000000
     16        -39.810509   1.000000
     17        -39.805328   1.000000
     18        -39.803625   1.000000
     19        -39.801541   1.000000
     20        -39.797260   1.000000
     21        -39.796356   1.000000
     22        -39.793208   1.000000
     23        -39.791467   1.000000
     24        -39.788265   1.000000
     25        -39.787025   1.000000
     26        -39.783410   1.000000
     27        -39.778819   1.000000
     28        -39.777187   1.000000
     29        -39.774168   1.000000
     30        -39.772783   1.000000
     31        -39.771820   1.000000
     32        -39.770582   1.000000
     33        -39.770082   1.000000
     34        -39.768923   1.000000
     35        -39.767207   1.000000
     36        -39.766917   1.000000
     37        -39.765740   1.000000
     38        -39.764536   1.000000
     39        -39.763263   1.000000
     40        -39.762592   1.000000
     41        -39.761860   1.000000
     42        -39.760453   1.000000
     43        -39.759485   1.000000
     44        -39.758427   1.000000
     45        -39.758202   1.000000
     46        -39.756448   1.000000
     47        -39.755608   1.000000
     48        -39.754356   1.000000
     49        -39.754307   1.000000
     50        -39.753378   1.000000
     51        -39.753233   1.000000
     52        -39.751648   1.000000
     53        -39.751198   1.000000
     54        -39.750510   1.000000
     55        -39.749381   1.000000
     56        -39.748913   1.000000
     57        -39.748238   1.000000
     58        -39.747365   1.000000
     59        -39.746114   1.000000
     60        -39.745597   1.000000
     61        -39.744738   1.000000
     62        -39.742746   1.000000
     63        -39.741679   1.000000
     64        -39.740065   1.000000
     65        -39.737944   1.000000
     66        -39.737774   1.000000
     67        -39.736337   1.000000
     68        -39.735234   1.000000
     69        -39.734138   1.000000
     70        -39.733362   1.000000
     71        -39.732779   1.000000
     72        -39.732105   1.000000
     73        -39.731101   1.000000
     74        -39.730549   1.000000
     75        -39.729889   1.000000
     76        -39.729432   1.000000
     77        -39.729154   1.000000
     78        -39.728979   1.000000
     79        -39.728549   1.000000
     80        -39.728261   1.000000
     81        -39.727457   1.000000
     82        -39.726701   1.000000
     83        -39.725887   1.000000
     84        -39.725100   1.000000
     85        -39.723633   1.000000
     86        -39.722618   1.000000
     87        -39.721757   1.000000
     88        -39.719603   1.000000
     89        -39.718647   1.000000
     90        -39.717735   1.000000
     91        -39.716624   1.000000
     92        -39.716095   1.000000
     93        -39.715175   1.000000
     94        -39.714632   1.000000
     95        -39.713831   1.000000
     96        -39.712912   1.000000
     97        -18.403903   1.000000
     98        -18.325306   1.000000
     99        -18.318920   1.000000
    100        -18.318382   1.000000
    101        -18.317316   1.000000
    102        -18.315183   1.000000
    103        -18.313491   1.000000
    104        -18.310868   1.000000
    105        -18.274315   1.000000
    106        -18.273120   1.000000
    107        -18.240823   1.000000
    108        -18.235469   1.000000
    109        -18.233035   1.000000
    110        -18.231447   1.000000
    111        -18.231242   1.000000
    112        -18.229250   1.000000
    113        -18.225300   1.000000
    114        -18.224661   1.000000
    115        -18.223630   1.000000
    116        -18.221820   1.000000
    117        -18.219579   1.000000
    118        -18.216148   1.000000
    119        -18.213231   1.000000
    120        -18.207287   1.000000
    121        -18.206460   1.000000
    122        -18.205797   1.000000
    123        -18.203144   1.000000
    124        -18.202667   1.000000
    125        -18.202133   1.000000
    126        -18.201602   1.000000
    127        -18.200804   1.000000
    128        -18.199965   1.000000
    129        -18.199496   1.000000
    130        -18.196871   1.000000
    131        -18.196447   1.000000
    132        -18.183102   1.000000
    133        -18.179185   1.000000
    134        -18.178474   1.000000
    135        -18.176865   1.000000
    136        -18.175560   1.000000
    137        -18.173349   1.000000
    138        -18.167559   1.000000
    139        -18.166113   1.000000
    140        -18.165686   1.000000
    141        -18.165211   1.000000
    142        -18.164712   1.000000
    143        -18.163890   1.000000
    144        -18.162833   1.000000
    145        -18.162464   1.000000
    146        -18.162178   1.000000
    147        -18.158940   1.000000
    148        -18.157179   1.000000
    149        -18.155792   1.000000
    150        -18.154290   1.000000
    151        -18.153800   1.000000
    152        -18.151987   1.000000
    153        -18.137925   1.000000
    154        -18.136018   1.000000
    155        -18.130600   1.000000
    156        -18.129255   1.000000
    157        -18.124197   1.000000
    158        -18.123771   1.000000
    159        -18.122581   1.000000
    160        -18.121340   1.000000
    161        -18.069428   1.000000
    162        -18.068519   1.000000
    163        -18.067232   1.000000
    164        -18.064316   1.000000
    165        -18.062956   1.000000
    166        -18.062084   1.000000
    167        -18.054653   1.000000
    168        -18.053469   1.000000
    169        -18.052208   1.000000
    170        -18.034987   1.000000
    171        -18.019495   1.000000
    172        -18.017390   1.000000
    173        -18.013757   1.000000
    174        -18.012400   1.000000
    175        -18.010008   1.000000
    176        -18.003713   1.000000
    177        -18.002501   1.000000
    178        -18.002094   1.000000
    179        -18.000959   1.000000
    180        -17.998213   1.000000
    181        -17.997493   1.000000
    182        -17.995561   1.000000
    183        -17.992481   1.000000
    184        -17.989480   1.000000
    185        -17.988910   1.000000
    186        -17.970449   1.000000
    187        -17.967370   1.000000
    188        -17.950761   1.000000
    189        -17.947775   1.000000
    190        -17.947378   1.000000
    191        -17.946308   1.000000
    192        -17.926024   1.000000
    193        -17.925123   1.000000
    194        -17.894091   1.000000
    195        -17.891890   1.000000
    196        -17.890449   1.000000
    197        -17.889764   1.000000
    198        -17.888464   1.000000
    199        -17.887098   1.000000
    200        -17.884879   1.000000
    201        -17.872963   1.000000
    202        -17.870545   1.000000
    203        -17.869229   1.000000
    204        -17.867318   1.000000
    205        -17.847579   1.000000
    206        -17.845190   1.000000
    207        -17.838729   1.000000
    208        -17.836563   1.000000
    209        -17.831252   1.000000
    210        -17.829902   1.000000
    211        -17.827766   1.000000
    212        -17.827483   1.000000
    213        -17.825888   1.000000
    214        -17.825135   1.000000
    215        -17.824503   1.000000
    216        -17.823639   1.000000
    217        -17.814986   1.000000
    218        -17.813673   1.000000
    219        -17.812957   1.000000
    220        -17.811478   1.000000
    221        -17.800124   1.000000
    222        -17.797806   1.000000
    223        -17.796669   1.000000
    224        -17.794894   1.000000
    225        -17.794186   1.000000
    226        -17.792594   1.000000
    227        -17.785518   1.000000
    228        -17.784631   1.000000
    229        -17.783450   1.000000
    230        -17.782298   1.000000
    231        -17.781665   1.000000
    232        -17.780506   1.000000
    233        -17.776622   1.000000
    234        -17.775102   1.000000
    235        -17.771786   1.000000
    236        -17.771054   1.000000
    237        -17.769159   1.000000
    238        -17.768521   1.000000
    239        -17.768061   1.000000
    240        -17.767314   1.000000
    241        -17.766706   1.000000
    242        -17.766114   1.000000
    243        -17.764902   1.000000
    244        -17.763983   1.000000
    245        -17.760643   1.000000
    246        -17.753641   1.000000
    247        -17.737721   1.000000
    248        -17.732126   1.000000
    249        -17.730968   1.000000
    250        -17.729367   1.000000
    251        -17.727346   1.000000
    252        -17.726691   1.000000
    253        -17.726140   1.000000
    254        -17.724800   1.000000
    255        -17.723863   1.000000
    256        -17.721247   1.000000
    257        -17.704235   1.000000
    258        -17.702782   1.000000
    259        -17.702284   1.000000
    260        -17.700616   1.000000
    261        -17.699621   1.000000
    262        -17.699186   1.000000
    263        -17.697691   1.000000
    264        -17.697303   1.000000
    265        -17.696248   1.000000
    266        -17.689618   1.000000
    267        -17.686385   1.000000
    268        -17.684578   1.000000
    269        -17.681370   1.000000
    270        -17.680958   1.000000
    271        -17.673299   1.000000
    272        -17.671153   1.000000
    273        -17.669844   1.000000
    274        -17.669122   1.000000
    275        -17.667857   1.000000
    276        -17.667563   1.000000
    277        -17.665169   1.000000
    278        -17.661331   1.000000
    279        -17.660277   1.000000
    280        -17.659586   1.000000
    281        -17.659150   1.000000
    282        -17.655472   1.000000
    283        -17.654846   1.000000
    284        -17.652823   1.000000
    285        -17.652348   1.000000
    286        -17.651581   1.000000
    287        -17.650641   1.000000
    288        -17.649880   1.000000
    289        -17.648967   1.000000
    290        -17.648201   1.000000
    291        -17.647520   1.000000
    292        -17.646612   1.000000
    293        -17.646258   1.000000
    294        -17.645936   1.000000
    295        -17.644705   1.000000
    296        -17.644362   1.000000
    297        -17.643710   1.000000
    298        -17.643105   1.000000
    299        -17.634872   1.000000
    300        -17.630819   1.000000
    301        -17.627479   1.000000
    302        -17.623644   1.000000
    303        -17.623128   1.000000
    304        -17.620044   1.000000
    305        -17.617917   1.000000
    306        -17.616386   1.000000
    307        -17.615907   1.000000
    308        -17.614524   1.000000
    309        -17.614330   1.000000
    310        -17.613187   1.000000
    311        -17.611885   1.000000
    312        -17.611356   1.000000
    313        -17.594234   1.000000
    314        -17.591584   1.000000
    315        -17.590840   1.000000
    316        -17.588891   1.000000
    317        -17.584497   1.000000
    318        -17.583961   1.000000
    319        -17.583025   1.000000
    320        -17.582292   1.000000
    321        -17.582136   1.000000
    322        -17.581634   1.000000
    323        -17.580940   1.000000
    324        -17.579726   1.000000
    325        -17.579328   1.000000
    326        -17.578606   1.000000
    327        -17.578007   1.000000
    328        -17.575771   1.000000
    329        -17.575218   1.000000
    330        -17.574223   1.000000
    331        -17.572804   1.000000
    332        -17.572094   1.000000
    333        -17.571446   1.000000
    334        -17.570568   1.000000
    335        -17.569188   1.000000
    336        -17.564205   1.000000
    337        -17.560555   1.000000
    338        -17.559748   1.000000
    339        -17.558754   1.000000
    340        -17.556996   1.000000
    341        -17.554944   1.000000
    342        -17.549617   1.000000
    343        -17.547027   1.000000
    344        -17.546722   1.000000
    345        -17.545058   1.000000
    346        -17.544430   1.000000
    347        -17.543905   1.000000
    348        -17.542661   1.000000
    349        -17.542304   1.000000
    350        -17.541569   1.000000
    351        -17.541248   1.000000
    352        -17.538424   1.000000
    353        -17.536668   1.000000
    354        -17.536004   1.000000
    355        -17.535503   1.000000
    356        -17.535049   1.000000
    357        -17.534224   1.000000
    358        -17.533410   1.000000
    359        -17.532171   1.000000
    360        -17.528782   1.000000
    361        -17.527252   1.000000
    362        -17.521159   1.000000
    363        -17.515341   1.000000
    364        -17.513233   1.000000
    365        -17.512565   1.000000
    366        -17.511295   1.000000
    367        -17.496584   1.000000
    368        -17.496218   1.000000
    369        -17.494154   1.000000
    370        -17.492805   1.000000
    371        -17.491776   1.000000
    372        -17.490831   1.000000
    373        -17.488780   1.000000
    374        -17.473628   1.000000
    375        -17.472641   1.000000
    376        -17.469267   1.000000
    377        -17.467485   1.000000
    378        -17.466263   1.000000
    379        -17.458658   1.000000
    380        -17.456111   1.000000
    381        -17.448042   1.000000
    382        -17.445139   1.000000
    383        -17.433307   1.000000
    384        -17.421361   1.000000
    385          2.487312   1.000000
    386          3.491316   1.000000
    387          4.224800   1.000000
    388          4.253061   1.000000
    389          4.342924   1.000000
    390          4.577051   1.000000
    391          4.646931   1.000000
    392          4.946838   1.000000
    393          4.988916   1.000000
    394          5.201786   1.000000
    395          5.211478   1.000000
    396          5.234104   1.000000
    397          5.235601   1.000000
    398          5.236986   1.000000
    399          5.345814   1.000000
    400          5.459775   1.000000
    401          5.653079   1.000000
    402          5.656788   1.000000
    403          5.656992   1.000000
    404          5.700906   1.000000
    405          5.744662   1.000000
    406          5.757128   1.000000
    407          5.759971   1.000000
    408          5.822105   1.000000
    409          5.915587   1.000000
    410          5.936698   1.000000
    411          5.977425   1.000000
    412          5.981089   1.000000
    413          5.984400   1.000000
    414          6.022411   1.000000
    415          6.051181   1.000000
    416          6.265970   1.000000
    417          6.306665   1.000000
    418          6.318090   1.000000
    419          6.392855   1.000000
    420          6.398246   1.000000
    421          6.400528   1.000000
    422          6.412263   1.000000
    423          6.433425   1.000000
    424          6.438944   1.000000
    425          6.439710   1.000000
    426          6.452910   1.000000
    427          6.463860   1.000000
    428          6.480024   1.000000
    429          6.500071   1.000000
    430          6.505331   1.000000
    431          6.508040   1.000000
    432          6.511957   1.000000
    433          6.517283   1.000000
    434          6.520244   1.000000
    435          6.524353   1.000000
    436          6.541026   1.000000
    437          6.554097   1.000000
    438          6.556914   1.000000
    439          6.604459   1.000000
    440          6.669792   1.000000
    441          6.678878   1.000000
    442          6.680108   1.000000
    443          6.683166   1.000000
    444          6.697187   1.000000
    445          6.704692   1.000000
    446          6.736345   1.000000
    447          6.769271   1.000000
    448          6.780613   1.000000
    449          6.802955   1.000000
    450          6.804038   1.000000
    451          6.808543   1.000000
    452          6.826169   1.000000
    453          6.843036   1.000000
    454          6.855644   1.000000
    455          6.864031   1.000000
    456          6.865318   1.000000
    457          6.868421   1.000000
    458          6.881818   1.000000
    459          6.892865   1.000000
    460          6.900375   1.000000
    461          6.901639   1.000000
    462          6.903408   1.000000
    463          6.905598   1.000000
    464          6.909716   1.000000
    465          6.911725   1.000000
    466          6.913560   1.000000
    467          6.916759   1.000000
    468          6.972688   1.000000
    469          6.993747   1.000000
    470          6.996208   1.000000
    471          6.999427   1.000000
    472          7.001026   1.000000
    473          7.001758   1.000000
    474          7.029465   1.000000
    475          7.031072   1.000000
    476          7.152955   1.000000
    477          7.200886   1.000000
    478          7.203564   1.000000
    479          7.206750   1.000000
    480          7.207813   1.000000
    481          7.209272   1.000000
    482          7.215892   1.000000
    483          7.219644   1.000000
    484          7.224362   1.000000
    485          7.229225   1.000000
    486          7.397715   1.000000
    487          7.408442   1.000000
    488          7.461400   1.000000
    489          7.485285   1.000000
    490          7.512589   1.000000
    491          7.612278   1.000000
    492          7.641906   1.000000
    493          7.646123   1.000000
    494          7.649904   1.000000
    495          7.660796   1.000000
    496          7.673281   1.000000
    497          7.675857   1.000000
    498          7.682482   1.000000
    499          7.687913   1.000000
    500          7.689806   1.000000
    501          7.692253   1.000000
    502          7.694018   1.000000
    503          7.700299   1.000000
    504          7.709268   1.000000
    505          7.711288   1.000000
    506          7.713639   1.000000
    507          7.727904   1.000000
    508          7.752326   1.000000
    509          7.773803   1.000000
    510          7.791462   1.000000
    511          7.794262   1.000000
    512          7.797664   1.000000
    513          7.819231   1.000000
    514          7.837647   1.000000
    515          7.838210   1.000000
    516          7.840119   1.000000
    517          7.841875   1.000000
    518          7.846114   1.000000
    519          7.848274   1.000000
    520          7.851560   1.000000
    521          7.856750   1.000000
    522          7.863840   1.000000
    523          7.875768   1.000000
    524          7.883848   1.000000
    525          8.018203   1.000000
    526          8.047421   1.000000
    527          8.054787   1.000000
    528          8.055674   1.000000
    529          8.078989   1.000000
    530          8.083799   1.000000
    531          8.089465   1.000000
    532          8.090999   1.000000
    533          8.094067   1.000000
    534          8.096315   1.000000
    535          8.182697   1.000000
    536          8.206861   1.000001
    537          8.211023   1.000001
    538          8.213957   1.000001
    539          8.259227   1.000004
    540          8.297059   1.000015
    541          8.301738   1.000018
    542          8.302647   1.000018
    543          8.319111   1.000030
    544          8.320451   1.000031
    545          8.323836   1.000034
    546          8.324844   1.000036
    547          8.393149   1.000239
    548          8.412399   1.000390
    549          8.417578   1.000444
    550          8.433648   1.000655
    551          8.441076   1.000781
    552          8.446894   1.000893
    553          8.449748   1.000954
    554          8.451412   1.000990
    555          8.452636   1.001018
    556          8.489091   1.002238
    557          8.494145   1.002481
    558          8.496095   1.002580
    559          8.500527   1.002819
    560          8.588939   1.012690
    561          8.630209   1.021196
    562          8.636956   1.022744
    563          8.645426   1.024704
    564          8.648847   1.025493
    565          8.650708   1.025921
    566          8.653189   1.026488
    567          8.659536   1.027916
    568          8.665386   1.029189
    569          8.797575   0.991030
    570          8.812312   0.969970
    571          8.816292   0.963411
    572          8.817465   0.961404
    573          8.832029   0.933687
    574          8.841531   0.912744
    575          8.847301   0.898913
    576          8.877528   0.812982
    577          8.895689   0.751254
    578          8.902431   0.726662
    579          8.906749   0.710481
    580          8.911566   0.692071
    581          9.043238   0.174170
    582          9.066547   0.108223
    583          9.077984   0.080803
    584          9.088010   0.059484
    585          9.091139   0.053346
    586          9.094942   0.046212
    587          9.095973   0.044339
    588          9.098620   0.039652
    589          9.105582   0.028129
    590          9.107552   0.025079
    591          9.119510   0.008481
    592          9.121960   0.005475
    593          9.124474   0.002526
    594          9.130655  -0.004159
    595          9.132701  -0.006198
    596          9.150034  -0.020258
    597          9.157217  -0.024531
    598          9.164001  -0.027817
    599          9.168232  -0.029525
    600          9.172713  -0.031065
    601          9.182847  -0.033614
    602          9.190925  -0.034817
    603          9.191746  -0.034902
    604          9.200723  -0.035432
    605          9.266893  -0.025713
    606          9.276694  -0.023448
    607          9.283090  -0.021973
    608          9.284708  -0.021602
    609          9.292231  -0.019899
    610          9.300770  -0.018023
    611          9.301048  -0.017963
    612          9.317297  -0.014634
    613          9.359756  -0.007814
    614          9.369133  -0.006690
    615          9.371283  -0.006451
    616          9.379902  -0.005558
    617          9.443222  -0.001613
    618          9.455128  -0.001244
    619          9.494395  -0.000499
    620          9.508264  -0.000353
    621          9.515576  -0.000294
    622          9.517927  -0.000276
    623          9.524545  -0.000233
    624          9.537831  -0.000164
    625          9.595183  -0.000032
    626          9.610934  -0.000020
    627          9.621385  -0.000014
    628          9.628604  -0.000011
    629          9.632568  -0.000010
    630          9.634063  -0.000010
    631          9.674825  -0.000002
    632          9.683534  -0.000002
    633          9.692646  -0.000001
    634          9.697855  -0.000001
    635          9.702516  -0.000001
    636          9.706745  -0.000001
    637          9.714060  -0.000001
    638          9.735664  -0.000000
    639          9.744033  -0.000000
    640          9.754149  -0.000000
    641          9.769370  -0.000000
    642          9.771530  -0.000000
    643          9.787181  -0.000000
    644          9.789053  -0.000000
    645          9.791963  -0.000000
    646          9.793342  -0.000000
    647          9.803966  -0.000000
    648          9.807409  -0.000000
    649          9.811836  -0.000000
    650          9.813964  -0.000000
    651          9.819026  -0.000000
    652          9.836178  -0.000000
    653          9.870731  -0.000000
    654          9.894092  -0.000000
    655          9.906493  -0.000000
    656          9.908769  -0.000000
    657          9.911268  -0.000000
    658          9.912081  -0.000000
    659          9.942886  -0.000000
    660          9.953492  -0.000000
    661          9.975213  -0.000000
    662          9.979993  -0.000000
    663         10.004750  -0.000000
    664         10.010292  -0.000000
    665         10.019795  -0.000000
    666         10.029926  -0.000000
    667         10.032573  -0.000000
    668         10.033869  -0.000000
    669         10.038119  -0.000000
    670         10.075840  -0.000000
    671         10.077508  -0.000000
    672         10.156967  -0.000000
    673         10.161324  -0.000000
    674         10.169636  -0.000000
    675         10.175264  -0.000000
    676         10.179304  -0.000000
    677         10.189825  -0.000000
    678         10.196149  -0.000000
    679         10.240977  -0.000000
    680         10.246710  -0.000000
    681         10.262112  -0.000000
    682         10.267714  -0.000000
    683         10.277343  -0.000000
    684         10.278853  -0.000000
    685         10.291684  -0.000000
    686         10.329021  -0.000000
    687         10.330168  -0.000000
    688         10.336471  -0.000000
    689         10.337883  -0.000000
    690         10.364233  -0.000000
    691         10.368063  -0.000000
 
  0.5000000E+00 -0.1797743E-16  0.0000000E+00  0.2083333E-01
      1        -39.892712   1.000000
      2        -39.883248   1.000000
      3        -39.863825   1.000000
      4        -39.858194   1.000000
      5        -39.854499   1.000000
      6        -39.852100   1.000000
      7        -39.849072   1.000000
      8        -39.847953   1.000000
      9        -39.835867   1.000000
     10        -39.827481   1.000000
     11        -39.826814   1.000000
     12        -39.823666   1.000000
     13        -39.815016   1.000000
     14        -39.813625   1.000000
     15        -39.810444   1.000000
     16        -39.806918   1.000000
     17        -39.804116   1.000000
     18        -39.799217   1.000000
     19        -39.796120   1.000000
     20        -39.792123   1.000000
     21        -39.790128   1.000000
     22        -39.788305   1.000000
     23        -39.787910   1.000000
     24        -39.787126   1.000000
     25        -39.784908   1.000000
     26        -39.784774   1.000000
     27        -39.783022   1.000000
     28        -39.782199   1.000000
     29        -39.780258   1.000000
     30        -39.778513   1.000000
     31        -39.776775   1.000000
     32        -39.775937   1.000000
     33        -39.773959   1.000000
     34        -39.773032   1.000000
     35        -39.772559   1.000000
     36        -39.770126   1.000000
     37        -39.769736   1.000000
     38        -39.768013   1.000000
     39        -39.765938   1.000000
     40        -39.764579   1.000000
     41        -39.763943   1.000000
     42        -39.763799   1.000000
     43        -39.760469   1.000000
     44        -39.759457   1.000000
     45        -39.758618   1.000000
     46        -39.756309   1.000000
     47        -39.755385   1.000000
     48        -39.753682   1.000000
     49        -39.753240   1.000000
     50        -39.752996   1.000000
     51        -39.751267   1.000000
     52        -39.750782   1.000000
     53        -39.747148   1.000000
     54        -39.747063   1.000000
     55        -39.746364   1.000000
     56        -39.745025   1.000000
     57        -39.744063   1.000000
     58        -39.743711   1.000000
     59        -39.742363   1.000000
     60        -39.742131   1.000000
     61        -39.741028   1.000000
     62        -39.740644   1.000000
     63        -39.739441   1.000000
     64        -39.738933   1.000000
     65        -39.738655   1.000000
     66        -39.738002   1.000000
     67        -39.736551   1.000000
     68        -39.735888   1.000000
     69        -39.735678   1.000000
     70        -39.734883   1.000000
     71        -39.734626   1.000000
     72        -39.732706   1.000000
     73        -39.732129   1.000000
     74        -39.730972   1.000000
     75        -39.730864   1.000000
     76        -39.730113   1.000000
     77        -39.729575   1.000000
     78        -39.728726   1.000000
     79        -39.728643   1.000000
     80        -39.728282   1.000000
     81        -39.727631   1.000000
     82        -39.727127   1.000000
     83        -39.726605   1.000000
     84        -39.725006   1.000000
     85        -39.724349   1.000000
     86        -39.723095   1.000000
     87        -39.721614   1.000000
     88        -39.719259   1.000000
     89        -39.717706   1.000000
     90        -39.717643   1.000000
     91        -39.716547   1.000000
     92        -39.716213   1.000000
     93        -39.715612   1.000000
     94        -39.715351   1.000000
     95        -39.714315   1.000000
     96        -39.713072   1.000000
     97        -18.371968   1.000000
     98        -18.366997   1.000000
     99        -18.294234   1.000000
    100        -18.287362   1.000000
    101        -18.285158   1.000000
    102        -18.282121   1.000000
    103        -18.282002   1.000000
    104        -18.279894   1.000000
    105        -18.279626   1.000000
    106        -18.279003   1.000000
    107        -18.278664   1.000000
    108        -18.277431   1.000000
    109        -18.265677   1.000000
    110        -18.263878   1.000000
    111        -18.261265   1.000000
    112        -18.260297   1.000000
    113        -18.211076   1.000000
    114        -18.208713   1.000000
    115        -18.207220   1.000000
    116        -18.205883   1.000000
    117        -18.204801   1.000000
    118        -18.198945   1.000000
    119        -18.198916   1.000000
    120        -18.194584   1.000000
    121        -18.194196   1.000000
    122        -18.193995   1.000000
    123        -18.193425   1.000000
    124        -18.193136   1.000000
    125        -18.192606   1.000000
    126        -18.192546   1.000000
    127        -18.192106   1.000000
    128        -18.191641   1.000000
    129        -18.191437   1.000000
    130        -18.190911   1.000000
    131        -18.190744   1.000000
    132        -18.190297   1.000000
    133        -18.190112   1.000000
    134        -18.189020   1.000000
    135        -18.188346   1.000000
    136        -18.187885   1.000000
    137        -18.170957   1.000000
    138        -18.167153   1.000000
    139        -18.164862   1.000000
    140        -18.164007   1.000000
    141        -18.158602   1.000000
    142        -18.156940   1.000000
    143        -18.156089   1.000000
    144        -18.155701   1.000000
    145        -18.153635   1.000000
    146        -18.153622   1.000000
    147        -18.152856   1.000000
    148        -18.152340   1.000000
    149        -18.151679   1.000000
    150        -18.150113   1.000000
    151        -18.148264   1.000000
    152        -18.147117   1.000000
    153        -18.146029   1.000000
    154        -18.143936   1.000000
    155        -18.140448   1.000000
    156        -18.139767   1.000000
    157        -18.138777   1.000000
    158        -18.137520   1.000000
    159        -18.135858   1.000000
    160        -18.135591   1.000000
    161        -18.086316   1.000000
    162        -18.082309   1.000000
    163        -18.070752   1.000000
    164        -18.070343   1.000000
    165        -18.068649   1.000000
    166        -18.068362   1.000000
    167        -18.067150   1.000000
    168        -18.067037   1.000000
    169        -18.066132   1.000000
    170        -18.065939   1.000000
    171        -18.041117   1.000000
    172        -18.033829   1.000000
    173        -18.032837   1.000000
    174        -18.032089   1.000000
    175        -18.025807   1.000000
    176        -18.022764   1.000000
    177        -18.022492   1.000000
    178        -18.021380   1.000000
    179        -17.997493   1.000000
    180        -17.992382   1.000000
    181        -17.990865   1.000000
    182        -17.989454   1.000000
    183        -17.989216   1.000000
    184        -17.986496   1.000000
    185        -17.982325   1.000000
    186        -17.980941   1.000000
    187        -17.980785   1.000000
    188        -17.977701   1.000000
    189        -17.977597   1.000000
    190        -17.977024   1.000000
    191        -17.936484   1.000000
    192        -17.932818   1.000000
    193        -17.931285   1.000000
    194        -17.930003   1.000000
    195        -17.928114   1.000000
    196        -17.927894   1.000000
    197        -17.889453   1.000000
    198        -17.888206   1.000000
    199        -17.872765   1.000000
    200        -17.871549   1.000000
    201        -17.871535   1.000000
    202        -17.871329   1.000000
    203        -17.845577   1.000000
    204        -17.841439   1.000000
    205        -17.840454   1.000000
    206        -17.837568   1.000000
    207        -17.837303   1.000000
    208        -17.837236   1.000000
    209        -17.836116   1.000000
    210        -17.834130   1.000000
    211        -17.833391   1.000000
    212        -17.832723   1.000000
    213        -17.831721   1.000000
    214        -17.830179   1.000000
    215        -17.811316   1.000000
    216        -17.810033   1.000000
    217        -17.804966   1.000000
    218        -17.803902   1.000000
    219        -17.803468   1.000000
    220        -17.802024   1.000000
    221        -17.800288   1.000000
    222        -17.796454   1.000000
    223        -17.795537   1.000000
    224        -17.794648   1.000000
    225        -17.794211   1.000000
    226        -17.792339   1.000000
    227        -17.791910   1.000000
    228        -17.791249   1.000000
    229        -17.790669   1.000000
    230        -17.790110   1.000000
    231        -17.789468   1.000000
    232        -17.788599   1.000000
    233        -17.760887   1.000000
    234        -17.753954   1.000000
    235        -17.751726   1.000000
    236        -17.748576   1.000000
    237        -17.746418   1.000000
    238        -17.745207   1.000000
    239        -17.744466   1.000000
    240        -17.743123   1.000000
    241        -17.742361   1.000000
    242        -17.740005   1.000000
    243        -17.736921   1.000000
    244        -17.733597   1.000000
    245        -17.725586   1.000000
    246        -17.722307   1.000000
    247        -17.720522   1.000000
    248        -17.720470   1.000000
    249        -17.718559   1.000000
    250        -17.718205   1.000000
    251        -17.716947   1.000000
    252        -17.715096   1.000000
    253        -17.714568   1.000000
    254        -17.713909   1.000000
    255        -17.713736   1.000000
    256        -17.713260   1.000000
    257        -17.712970   1.000000
    258        -17.712276   1.000000
    259        -17.711875   1.000000
    260        -17.710919   1.000000
    261        -17.710740   1.000000
    262        -17.709815   1.000000
    263        -17.708112   1.000000
    264        -17.707879   1.000000
    265        -17.705902   1.000000
    266        -17.705549   1.000000
    267        -17.704301   1.000000
    268        -17.702645   1.000000
    269        -17.685043   1.000000
    270        -17.682398   1.000000
    271        -17.678128   1.000000
    272        -17.677079   1.000000
    273        -17.675993   1.000000
    274        -17.675419   1.000000
    275        -17.671587   1.000000
    276        -17.671394   1.000000
    277        -17.669903   1.000000
    278        -17.668890   1.000000
    279        -17.668350   1.000000
    280        -17.667822   1.000000
    281        -17.667558   1.000000
    282        -17.666914   1.000000
    283        -17.666578   1.000000
    284        -17.664881   1.000000
    285        -17.661557   1.000000
    286        -17.654125   1.000000
    287        -17.651769   1.000000
    288        -17.650580   1.000000
    289        -17.649969   1.000000
    290        -17.649851   1.000000
    291        -17.630152   1.000000
    292        -17.629184   1.000000
    293        -17.627478   1.000000
    294        -17.625485   1.000000
    295        -17.617352   1.000000
    296        -17.612221   1.000000
    297        -17.611118   1.000000
    298        -17.610534   1.000000
    299        -17.607891   1.000000
    300        -17.607813   1.000000
    301        -17.605972   1.000000
    302        -17.605584   1.000000
    303        -17.605390   1.000000
    304        -17.604779   1.000000
    305        -17.604475   1.000000
    306        -17.603997   1.000000
    307        -17.603455   1.000000
    308        -17.602839   1.000000
    309        -17.601976   1.000000
    310        -17.601935   1.000000
    311        -17.600826   1.000000
    312        -17.600674   1.000000
    313        -17.600331   1.000000
    314        -17.598428   1.000000
    315        -17.597811   1.000000
    316        -17.597518   1.000000
    317        -17.596488   1.000000
    318        -17.595787   1.000000
    319        -17.594009   1.000000
    320        -17.589466   1.000000
    321        -17.587459   1.000000
    322        -17.586163   1.000000
    323        -17.584303   1.000000
    324        -17.584047   1.000000
    325        -17.579973   1.000000
    326        -17.577579   1.000000
    327        -17.575859   1.000000
    328        -17.575420   1.000000
    329        -17.574068   1.000000
    330        -17.573703   1.000000
    331        -17.572614   1.000000
    332        -17.572164   1.000000
    333        -17.570777   1.000000
    334        -17.570633   1.000000
    335        -17.569321   1.000000
    336        -17.568190   1.000000
    337        -17.566884   1.000000
    338        -17.566105   1.000000
    339        -17.564680   1.000000
    340        -17.563135   1.000000
    341        -17.553801   1.000000
    342        -17.553117   1.000000
    343        -17.551185   1.000000
    344        -17.550489   1.000000
    345        -17.549559   1.000000
    346        -17.549240   1.000000
    347        -17.548551   1.000000
    348        -17.548356   1.000000
    349        -17.548346   1.000000
    350        -17.547158   1.000000
    351        -17.546472   1.000000
    352        -17.546280   1.000000
    353        -17.545451   1.000000
    354        -17.544186   1.000000
    355        -17.544180   1.000000
    356        -17.543391   1.000000
    357        -17.530957   1.000000
    358        -17.526202   1.000000
    359        -17.525267   1.000000
    360        -17.525192   1.000000
    361        -17.524731   1.000000
    362        -17.523406   1.000000
    363        -17.522084   1.000000
    364        -17.521363   1.000000
    365        -17.519666   1.000000
    366        -17.518138   1.000000
    367        -17.510657   1.000000
    368        -17.506588   1.000000
    369        -17.504570   1.000000
    370        -17.503054   1.000000
    371        -17.501327   1.000000
    372        -17.499974   1.000000
    373        -17.490272   1.000000
    374        -17.487719   1.000000
    375        -17.479851   1.000000
    376        -17.478396   1.000000
    377        -17.475546   1.000000
    378        -17.471522   1.000000
    379        -17.469223   1.000000
    380        -17.468635   1.000000
    381        -17.450665   1.000000
    382        -17.446006   1.000000
    383        -17.433924   1.000000
    384        -17.429851   1.000000
    385          2.495993   1.000000
    386          3.724012   1.000000
    387          3.836771   1.000000
    388          4.497467   1.000000
    389          4.510142   1.000000
    390          4.533303   1.000000
    391          4.535274   1.000000
    392          4.535705   1.000000
    393          4.724171   1.000000
    394          5.181520   1.000000
    395          5.182569   1.000000
    396          5.184132   1.000000
    397          5.284046   1.000000
    398          5.712547   1.000000
    399          5.713710   1.000000
    400          5.719317   1.000000
    401          5.752896   1.000000
    402          5.892388   1.000000
    403          5.902285   1.000000
    404          5.903821   1.000000
    405          5.919261   1.000000
    406          5.943811   1.000000
    407          5.958789   1.000000
    408          5.994297   1.000000
    409          5.997854   1.000000
    410          6.001182   1.000000
    411          6.001826   1.000000
    412          6.003095   1.000000
    413          6.004910   1.000000
    414          6.005497   1.000000
    415          6.041209   1.000000
    416          6.045315   1.000000
    417          6.055815   1.000000
    418          6.056379   1.000000
    419          6.128893   1.000000
    420          6.184335   1.000000
    421          6.189383   1.000000
    422          6.192945   1.000000
    423          6.193576   1.000000
    424          6.194016   1.000000
    425          6.195917   1.000000
    426          6.196998   1.000000
    427          6.297578   1.000000
    428          6.305792   1.000000
    429          6.337010   1.000000
    430          6.565289   1.000000
    431          6.571256   1.000000
    432          6.573871   1.000000
    433          6.576565   1.000000
    434          6.581454   1.000000
    435          6.584819   1.000000
    436          6.586465   1.000000
    437          6.616111   1.000000
    438          6.665747   1.000000
    439          6.673245   1.000000
    440          6.673638   1.000000
    441          6.695438   1.000000
    442          6.706833   1.000000
    443          6.717178   1.000000
    444          6.764796   1.000000
    445          6.769294   1.000000
    446          6.769975   1.000000
    447          6.771497   1.000000
    448          6.773054   1.000000
    449          6.773596   1.000000
    450          6.777388   1.000000
    451          6.810641   1.000000
    452          6.827561   1.000000
    453          6.831740   1.000000
    454          6.833592   1.000000
    455          6.833845   1.000000
    456          6.861505   1.000000
    457          6.863062   1.000000
    458          6.868476   1.000000
    459          6.869919   1.000000
    460          6.870489   1.000000
    461          6.878623   1.000000
    462          6.883450   1.000000
    463          6.884992   1.000000
    464          6.886315   1.000000
    465          6.887513   1.000000
    466          6.887740   1.000000
    467          6.887783   1.000000
    468          6.892229   1.000000
    469          6.908726   1.000000
    470          6.910366   1.000000
    471          6.912222   1.000000
    472          6.915646   1.000000
    473          6.918761   1.000000
    474          6.920671   1.000000
    475          7.119354   1.000000
    476          7.138234   1.000000
    477          7.198754   1.000000
    478          7.201221   1.000000
    479          7.201291   1.000000
    480          7.202792   1.000000
    481          7.306878   1.000000
    482          7.325863   1.000000
    483          7.346988   1.000000
    484          7.425268   1.000000
    485          7.428201   1.000000
    486          7.428755   1.000000
    487          7.429280   1.000000
    488          7.432818   1.000000
    489          7.456384   1.000000
    490          7.471032   1.000000
    491          7.472888   1.000000
    492          7.474059   1.000000
    493          7.604721   1.000000
    494          7.610103   1.000000
    495          7.613440   1.000000
    496          7.615890   1.000000
    497          7.657479   1.000000
    498          7.672252   1.000000
    499          7.673398   1.000000
    500          7.677230   1.000000
    501          7.680235   1.000000
    502          7.680775   1.000000
    503          7.682144   1.000000
    504          7.684007   1.000000
    505          7.701296   1.000000
    506          7.706310   1.000000
    507          7.707381   1.000000
    508          7.708798   1.000000
    509          7.713987   1.000000
    510          7.715393   1.000000
    511          7.717179   1.000000
    512          7.717697   1.000000
    513          7.774881   1.000000
    514          7.804386   1.000000
    515          7.807240   1.000000
    516          7.808528   1.000000
    517          7.853203   1.000000
    518          7.885617   1.000000
    519          7.890055   1.000000
    520          7.897698   1.000000
    521          7.918031   1.000000
    522          7.939918   1.000000
    523          7.940685   1.000000
    524          7.946022   1.000000
    525          7.994566   1.000000
    526          8.011134   1.000000
    527          8.057375   1.000000
    528          8.081379   1.000000
    529          8.081405   1.000000
    530          8.086125   1.000000
    531          8.215237   1.000001
    532          8.245686   1.000003
    533          8.248984   1.000003
    534          8.252857   1.000004
    535          8.260249   1.000005
    536          8.288903   1.000012
    537          8.289764   1.000012
    538          8.293319   1.000014
    539          8.293986   1.000014
    540          8.295579   1.000015
    541          8.295901   1.000015
    542          8.296912   1.000015
    543          8.324322   1.000035
    544          8.376025   1.000152
    545          8.387700   1.000207
    546          8.391110   1.000227
    547          8.391843   1.000231
    548          8.396827   1.000263
    549          8.399183   1.000279
    550          8.400774   1.000291
    551          8.401935   1.000300
    552          8.404450   1.000320
    553          8.409622   1.000364
    554          8.409948   1.000367
    555          8.411191   1.000379
    556          8.411407   1.000381
    557          8.416588   1.000433
    558          8.416685   1.000434
    559          8.446045   1.000876
    560          8.461420   1.001240
    561          8.465242   1.001349
    562          8.475251   1.001675
    563          8.493969   1.002472
    564          8.513171   1.003605
    565          8.625502   1.020131
    566          8.638817   1.023174
    567          8.644941   1.024592
    568          8.647322   1.025142
    569          8.869130   0.839066
    570          8.875597   0.819124
    571          8.879373   0.807034
    572          8.881922   0.798695
    573          8.979209   0.412258
    574          9.045726   0.166503
    575          9.053635   0.143116
    576          9.057837   0.131309
    577          9.066993   0.107091
    578          9.069515   0.100789
    579          9.073839   0.090358
    580          9.075387   0.086739
    581          9.076712   0.083690
    582          9.077705   0.081433
    583          9.092227   0.051267
    584          9.121549   0.005970
    585          9.125100   0.001813
    586          9.136922  -0.010143
    587          9.139286  -0.012202
    588          9.141158  -0.013756
    589          9.144007  -0.015997
    590          9.145407  -0.017044
    591          9.146168  -0.017599
    592          9.147170  -0.018313
    593          9.150923  -0.020833
    594          9.151643  -0.021289
    595          9.152110  -0.021580
    596          9.152727  -0.021960
    597          9.153627  -0.022501
    598          9.155785  -0.023746
    599          9.158847  -0.025384
    600          9.159453  -0.025692
    601          9.163676  -0.027676
    602          9.163722  -0.027696
    603          9.170554  -0.030356
    604          9.173258  -0.031234
    605          9.264603  -0.026238
    606          9.288516  -0.020735
    607          9.304215  -0.017288
    608          9.310815  -0.015920
    609          9.311509  -0.015780
    610          9.313883  -0.015304
    611          9.316202  -0.014847
    612          9.316570  -0.014776
    613          9.318645  -0.014374
    614          9.321464  -0.013840
    615          9.373917  -0.006167
    616          9.383085  -0.005253
    617          9.406511  -0.003405
    618          9.421729  -0.002522
    619          9.426869  -0.002272
    620          9.427159  -0.002259
    621          9.561071  -0.000087
    622          9.578797  -0.000052
    623          9.587393  -0.000041
    624          9.589704  -0.000038
    625          9.591790  -0.000036
    626          9.595984  -0.000031
    627          9.600283  -0.000028
    628          9.601560  -0.000027
    629          9.660285  -0.000004
    630          9.667699  -0.000003
    631          9.679715  -0.000002
    632          9.686094  -0.000002
    633          9.707733  -0.000001
    634          9.709978  -0.000001
    635          9.710473  -0.000001
    636          9.716039  -0.000001
    637          9.716157  -0.000001
    638          9.717542  -0.000001
    639          9.718471  -0.000001
    640          9.722413  -0.000000
    641          9.723882  -0.000000
    642          9.724767  -0.000000
    643          9.731546  -0.000000
    644          9.742586  -0.000000
    645          9.767747  -0.000000
    646          9.770302  -0.000000
    647          9.771049  -0.000000
    648          9.773053  -0.000000
    649          9.826973  -0.000000
    650          9.841654  -0.000000
    651          9.904772  -0.000000
    652          9.907292  -0.000000
    653          9.912923  -0.000000
    654          9.915967  -0.000000
    655          9.917032  -0.000000
    656          9.938469  -0.000000
    657          9.941382  -0.000000
    658          9.960813  -0.000000
    659          9.962155  -0.000000
    660          9.968795  -0.000000
    661          9.969498  -0.000000
    662          9.969727  -0.000000
    663          9.973742  -0.000000
    664          9.977308  -0.000000
    665         10.000300  -0.000000
    666         10.003230  -0.000000
    667         10.019033  -0.000000
    668         10.019680  -0.000000
    669         10.024094  -0.000000
    670         10.035028  -0.000000
    671         10.110737  -0.000000
    672         10.125421  -0.000000
    673         10.183091  -0.000000
    674         10.206178  -0.000000
    675         10.207632  -0.000000
    676         10.210789  -0.000000
    677         10.218403  -0.000000
    678         10.220745  -0.000000
    679         10.220954  -0.000000
    680         10.223621  -0.000000
    681         10.244516  -0.000000
    682         10.253032  -0.000000
    683         10.268041  -0.000000
    684         10.270452  -0.000000
    685         10.275077  -0.000000
    686         10.276656  -0.000000
    687         10.282602  -0.000000
    688         10.282952  -0.000000
    689         10.285322  -0.000000
    690         10.288494  -0.000000
    691         10.305466  -0.000000
 
  0.2690550E-16  0.5000000E+00  0.0000000E+00  0.2083333E-01
      1        -39.892290   1.000000
      2        -39.883933   1.000000
      3        -39.864670   1.000000
      4        -39.856072   1.000000
      5        -39.854081   1.000000
      6        -39.852295   1.000000
      7        -39.850979   1.000000
      8        -39.847934   1.000000
      9        -39.831295   1.000000
     10        -39.830397   1.000000
     11        -39.825870   1.000000
     12        -39.824424   1.000000
     13        -39.819926   1.000000
     14        -39.811226   1.000000
     15        -39.809302   1.000000
     16        -39.808083   1.000000
     17        -39.801888   1.000000
     18        -39.800024   1.000000
     19        -39.795534   1.000000
     20        -39.791793   1.000000
     21        -39.791394   1.000000
     22        -39.788435   1.000000
     23        -39.787523   1.000000
     24        -39.787310   1.000000
     25        -39.785455   1.000000
     26        -39.784685   1.000000
     27        -39.782580   1.000000
     28        -39.781986   1.000000
     29        -39.780686   1.000000
     30        -39.778734   1.000000
     31        -39.777229   1.000000
     32        -39.774160   1.000000
     33        -39.773158   1.000000
     34        -39.772888   1.000000
     35        -39.772034   1.000000
     36        -39.771507   1.000000
     37        -39.770032   1.000000
     38        -39.767897   1.000000
     39        -39.766236   1.000000
     40        -39.765198   1.000000
     41        -39.763934   1.000000
     42        -39.763430   1.000000
     43        -39.760250   1.000000
     44        -39.759640   1.000000
     45        -39.758711   1.000000
     46        -39.756446   1.000000
     47        -39.755666   1.000000
     48        -39.754227   1.000000
     49        -39.753325   1.000000
     50        -39.752663   1.000000
     51        -39.752117   1.000000
     52        -39.748951   1.000000
     53        -39.747312   1.000000
     54        -39.746531   1.000000
     55        -39.746290   1.000000
     56        -39.744838   1.000000
     57        -39.744039   1.000000
     58        -39.743275   1.000000
     59        -39.742838   1.000000
     60        -39.742175   1.000000
     61        -39.741750   1.000000
     62        -39.740862   1.000000
     63        -39.739604   1.000000
     64        -39.739111   1.000000
     65        -39.738599   1.000000
     66        -39.738088   1.000000
     67        -39.736507   1.000000
     68        -39.736109   1.000000
     69        -39.735654   1.000000
     70        -39.735066   1.000000
     71        -39.734104   1.000000
     72        -39.732922   1.000000
     73        -39.731650   1.000000
     74        -39.730878   1.000000
     75        -39.730639   1.000000
     76        -39.729914   1.000000
     77        -39.729710   1.000000
     78        -39.729245   1.000000
     79        -39.728861   1.000000
     80        -39.728347   1.000000
     81        -39.727896   1.000000
     82        -39.726624   1.000000
     83        -39.726074   1.000000
     84        -39.724962   1.000000
     85        -39.724731   1.000000
     86        -39.722338   1.000000
     87        -39.721568   1.000000
     88        -39.720010   1.000000
     89        -39.717821   1.000000
     90        -39.717344   1.000000
     91        -39.716629   1.000000
     92        -39.716413   1.000000
     93        -39.716162   1.000000
     94        -39.715364   1.000000
     95        -39.713742   1.000000
     96        -39.713013   1.000000
     97        -18.371932   1.000000
     98        -18.367070   1.000000
     99        -18.293910   1.000000
    100        -18.286986   1.000000
    101        -18.285247   1.000000
    102        -18.282674   1.000000
    103        -18.281705   1.000000
    104        -18.279907   1.000000
    105        -18.279546   1.000000
    106        -18.278886   1.000000
    107        -18.278679   1.000000
    108        -18.277727   1.000000
    109        -18.265059   1.000000
    110        -18.264103   1.000000
    111        -18.261636   1.000000
    112        -18.260241   1.000000
    113        -18.211289   1.000000
    114        -18.209272   1.000000
    115        -18.207790   1.000000
    116        -18.205045   1.000000
    117        -18.203265   1.000000
    118        -18.199996   1.000000
    119        -18.199518   1.000000
    120        -18.195448   1.000000
    121        -18.194482   1.000000
    122        -18.193810   1.000000
    123        -18.193646   1.000000
    124        -18.193117   1.000000
    125        -18.192693   1.000000
    126        -18.192497   1.000000
    127        -18.192184   1.000000
    128        -18.191425   1.000000
    129        -18.191238   1.000000
    130        -18.190897   1.000000
    131        -18.190674   1.000000
    132        -18.190061   1.000000
    133        -18.189514   1.000000
    134        -18.188922   1.000000
    135        -18.188728   1.000000
    136        -18.187946   1.000000
    137        -18.170484   1.000000
    138        -18.167498   1.000000
    139        -18.165068   1.000000
    140        -18.163477   1.000000
    141        -18.159044   1.000000
    142        -18.156656   1.000000
    143        -18.156247   1.000000
    144        -18.154898   1.000000
    145        -18.153666   1.000000
    146        -18.153618   1.000000
    147        -18.152866   1.000000
    148        -18.152455   1.000000
    149        -18.150752   1.000000
    150        -18.149759   1.000000
    151        -18.148945   1.000000
    152        -18.147134   1.000000
    153        -18.146235   1.000000
    154        -18.143949   1.000000
    155        -18.140342   1.000000
    156        -18.139514   1.000000
    157        -18.139051   1.000000
    158        -18.137501   1.000000
    159        -18.135887   1.000000
    160        -18.135754   1.000000
    161        -18.086863   1.000000
    162        -18.082140   1.000000
    163        -18.070662   1.000000
    164        -18.070459   1.000000
    165        -18.068689   1.000000
    166        -18.068167   1.000000
    167        -18.067654   1.000000
    168        -18.066840   1.000000
    169        -18.066678   1.000000
    170        -18.065410   1.000000
    171        -18.040673   1.000000
    172        -18.034238   1.000000
    173        -18.033217   1.000000
    174        -18.031930   1.000000
    175        -18.025971   1.000000
    176        -18.023076   1.000000
    177        -18.022350   1.000000
    178        -18.020888   1.000000
    179        -17.996275   1.000000
    180        -17.992565   1.000000
    181        -17.990919   1.000000
    182        -17.989754   1.000000
    183        -17.989329   1.000000
    184        -17.986506   1.000000
    185        -17.982001   1.000000
    186        -17.981467   1.000000
    187        -17.980790   1.000000
    188        -17.978192   1.000000
    189        -17.977517   1.000000
    190        -17.976666   1.000000
    191        -17.936528   1.000000
    192        -17.932364   1.000000
    193        -17.931019   1.000000
    194        -17.930246   1.000000
    195        -17.928381   1.000000
    196        -17.928077   1.000000
    197        -17.890086   1.000000
    198        -17.888357   1.000000
    199        -17.873077   1.000000
    200        -17.872101   1.000000
    201        -17.871471   1.000000
    202        -17.871125   1.000000
    203        -17.846069   1.000000
    204        -17.840532   1.000000
    205        -17.839905   1.000000
    206        -17.838513   1.000000
    207        -17.837863   1.000000
    208        -17.836679   1.000000
    209        -17.835279   1.000000
    210        -17.834024   1.000000
    211        -17.833557   1.000000
    212        -17.833167   1.000000
    213        -17.831043   1.000000
    214        -17.829836   1.000000
    215        -17.811116   1.000000
    216        -17.809384   1.000000
    217        -17.806009   1.000000
    218        -17.804016   1.000000
    219        -17.803018   1.000000
    220        -17.802085   1.000000
    221        -17.800858   1.000000
    222        -17.796996   1.000000
    223        -17.795804   1.000000
    224        -17.794874   1.000000
    225        -17.793730   1.000000
    226        -17.792346   1.000000
    227        -17.791609   1.000000
    228        -17.791344   1.000000
    229        -17.790862   1.000000
    230        -17.790299   1.000000
    231        -17.789598   1.000000
    232        -17.788844   1.000000
    233        -17.760645   1.000000
    234        -17.753063   1.000000
    235        -17.751025   1.000000
    236        -17.748822   1.000000
    237        -17.746728   1.000000
    238        -17.746311   1.000000
    239        -17.743750   1.000000
    240        -17.743098   1.000000
    241        -17.742234   1.000000
    242        -17.740197   1.000000
    243        -17.735736   1.000000
    244        -17.734320   1.000000
    245        -17.725269   1.000000
    246        -17.721795   1.000000
    247        -17.720685   1.000000
    248        -17.718624   1.000000
    249        -17.718384   1.000000
    250        -17.717448   1.000000
    251        -17.716144   1.000000
    252        -17.715850   1.000000
    253        -17.714367   1.000000
    254        -17.714163   1.000000
    255        -17.713872   1.000000
    256        -17.713802   1.000000
    257        -17.713066   1.000000
    258        -17.712531   1.000000
    259        -17.711564   1.000000
    260        -17.711149   1.000000
    261        -17.710795   1.000000
    262        -17.710509   1.000000
    263        -17.709024   1.000000
    264        -17.708006   1.000000
    265        -17.705745   1.000000
    266        -17.705440   1.000000
    267        -17.703914   1.000000
    268        -17.702618   1.000000
    269        -17.684413   1.000000
    270        -17.681496   1.000000
    271        -17.678481   1.000000
    272        -17.676998   1.000000
    273        -17.675794   1.000000
    274        -17.674827   1.000000
    275        -17.673678   1.000000
    276        -17.672067   1.000000
    277        -17.670893   1.000000
    278        -17.669322   1.000000
    279        -17.668265   1.000000
    280        -17.668145   1.000000
    281        -17.667519   1.000000
    282        -17.667340   1.000000
    283        -17.667239   1.000000
    284        -17.664384   1.000000
    285        -17.661029   1.000000
    286        -17.654248   1.000000
    287        -17.651980   1.000000
    288        -17.650657   1.000000
    289        -17.650427   1.000000
    290        -17.649948   1.000000
    291        -17.631099   1.000000
    292        -17.628709   1.000000
    293        -17.626261   1.000000
    294        -17.625408   1.000000
    295        -17.616251   1.000000
    296        -17.611922   1.000000
    297        -17.610674   1.000000
    298        -17.610022   1.000000
    299        -17.609180   1.000000
    300        -17.607323   1.000000
    301        -17.606019   1.000000
    302        -17.605497   1.000000
    303        -17.605171   1.000000
    304        -17.604714   1.000000
    305        -17.604215   1.000000
    306        -17.603988   1.000000
    307        -17.603497   1.000000
    308        -17.602914   1.000000
    309        -17.602566   1.000000
    310        -17.601936   1.000000
    311        -17.601445   1.000000
    312        -17.600466   1.000000
    313        -17.599128   1.000000
    314        -17.598462   1.000000
    315        -17.597733   1.000000
    316        -17.596689   1.000000
    317        -17.596455   1.000000
    318        -17.595719   1.000000
    319        -17.593604   1.000000
    320        -17.589383   1.000000
    321        -17.588057   1.000000
    322        -17.586201   1.000000
    323        -17.584579   1.000000
    324        -17.584264   1.000000
    325        -17.579793   1.000000
    326        -17.577463   1.000000
    327        -17.575851   1.000000
    328        -17.575814   1.000000
    329        -17.574192   1.000000
    330        -17.573933   1.000000
    331        -17.572449   1.000000
    332        -17.572243   1.000000
    333        -17.570595   1.000000
    334        -17.569983   1.000000
    335        -17.569208   1.000000
    336        -17.568806   1.000000
    337        -17.566786   1.000000
    338        -17.566287   1.000000
    339        -17.564665   1.000000
    340        -17.563292   1.000000
    341        -17.554189   1.000000
    342        -17.552335   1.000000
    343        -17.551271   1.000000
    344        -17.550540   1.000000
    345        -17.550088   1.000000
    346        -17.549324   1.000000
    347        -17.548628   1.000000
    348        -17.548511   1.000000
    349        -17.547839   1.000000
    350        -17.547269   1.000000
    351        -17.546578   1.000000
    352        -17.546212   1.000000
    353        -17.544775   1.000000
    354        -17.544612   1.000000
    355        -17.544011   1.000000
    356        -17.543147   1.000000
    357        -17.531440   1.000000
    358        -17.526600   1.000000
    359        -17.525464   1.000000
    360        -17.525043   1.000000
    361        -17.524488   1.000000
    362        -17.523645   1.000000
    363        -17.522161   1.000000
    364        -17.520992   1.000000
    365        -17.519513   1.000000
    366        -17.518880   1.000000
    367        -17.510337   1.000000
    368        -17.506688   1.000000
    369        -17.504183   1.000000
    370        -17.503216   1.000000
    371        -17.501687   1.000000
    372        -17.500255   1.000000
    373        -17.490724   1.000000
    374        -17.487411   1.000000
    375        -17.480503   1.000000
    376        -17.477920   1.000000
    377        -17.475534   1.000000
    378        -17.470966   1.000000
    379        -17.469590   1.000000
    380        -17.468750   1.000000
    381        -17.450380   1.000000
    382        -17.446189   1.000000
    383        -17.433705   1.000000
    384        -17.429900   1.000000
    385          2.496471   1.000000
    386          3.724165   1.000000
    387          3.835532   1.000000
    388          4.497039   1.000000
    389          4.510514   1.000000
    390          4.533368   1.000000
    391          4.535459   1.000000
    392          4.535760   1.000000
    393          4.723432   1.000000
    394          5.180879   1.000000
    395          5.182533   1.000000
    396          5.184079   1.000000
    397          5.286268   1.000000
    398          5.713258   1.000000
    399          5.713683   1.000000
    400          5.719427   1.000000
    401          5.754812   1.000000
    402          5.893247   1.000000
    403          5.902331   1.000000
    404          5.903585   1.000000
    405          5.918546   1.000000
    406          5.943041   1.000000
    407          5.957284   1.000000
    408          5.993311   1.000000
    409          5.998650   1.000000
    410          6.001129   1.000000
    411          6.001679   1.000000
    412          6.002893   1.000000
    413          6.004854   1.000000
    414          6.005344   1.000000
    415          6.041887   1.000000
    416          6.044837   1.000000
    417          6.055984   1.000000
    418          6.056234   1.000000
    419          6.127482   1.000000
    420          6.183482   1.000000
    421          6.189696   1.000000
    422          6.193251   1.000000
    423          6.193658   1.000000
    424          6.194384   1.000000
    425          6.195652   1.000000
    426          6.196889   1.000000
    427          6.298049   1.000000
    428          6.305990   1.000000
    429          6.335817   1.000000
    430          6.567103   1.000000
    431          6.571586   1.000000
    432          6.573686   1.000000
    433          6.575363   1.000000
    434          6.582321   1.000000
    435          6.585065   1.000000
    436          6.586654   1.000000
    437          6.615095   1.000000
    438          6.666213   1.000000
    439          6.672781   1.000000
    440          6.674349   1.000000
    441          6.696171   1.000000
    442          6.706207   1.000000
    443          6.714456   1.000000
    444          6.762986   1.000000
    445          6.769938   1.000000
    446          6.770301   1.000000
    447          6.771061   1.000000
    448          6.773179   1.000000
    449          6.773671   1.000000
    450          6.776501   1.000000
    451          6.808311   1.000000
    452          6.827521   1.000000
    453          6.831564   1.000000
    454          6.834616   1.000000
    455          6.836626   1.000000
    456          6.861606   1.000000
    457          6.862619   1.000000
    458          6.868049   1.000000
    459          6.869563   1.000000
    460          6.870348   1.000000
    461          6.878359   1.000000
    462          6.883356   1.000000
    463          6.883991   1.000000
    464          6.885798   1.000000
    465          6.886894   1.000000
    466          6.887732   1.000000
    467          6.888670   1.000000
    468          6.891902   1.000000
    469          6.909660   1.000000
    470          6.911060   1.000000
    471          6.911625   1.000000
    472          6.917030   1.000000
    473          6.919265   1.000000
    474          6.920873   1.000000
    475          7.114858   1.000000
    476          7.137487   1.000000
    477          7.197201   1.000000
    478          7.200645   1.000000
    479          7.201505   1.000000
    480          7.202895   1.000000
    481          7.317660   1.000000
    482          7.325817   1.000000
    483          7.344758   1.000000
    484          7.426272   1.000000
    485          7.427126   1.000000
    486          7.429082   1.000000
    487          7.429812   1.000000
    488          7.432357   1.000000
    489          7.456930   1.000000
    490          7.471167   1.000000
    491          7.472008   1.000000
    492          7.474530   1.000000
    493          7.599858   1.000000
    494          7.610144   1.000000
    495          7.615644   1.000000
    496          7.615784   1.000000
    497          7.661074   1.000000
    498          7.669224   1.000000
    499          7.672620   1.000000
    500          7.675883   1.000000
    501          7.681461   1.000000
    502          7.681595   1.000000
    503          7.681959   1.000000
    504          7.684174   1.000000
    505          7.701333   1.000000
    506          7.706598   1.000000
    507          7.707227   1.000000
    508          7.710301   1.000000
    509          7.713794   1.000000
    510          7.715200   1.000000
    511          7.716905   1.000000
    512          7.718111   1.000000
    513          7.782571   1.000000
    514          7.802669   1.000000
    515          7.807804   1.000000
    516          7.808825   1.000000
    517          7.853351   1.000000
    518          7.884788   1.000000
    519          7.889096   1.000000
    520          7.898237   1.000000
    521          7.918275   1.000000
    522          7.938904   1.000000
    523          7.939433   1.000000
    524          7.946114   1.000000
    525          7.993197   1.000000
    526          8.011100   1.000000
    527          8.062882   1.000000
    528          8.080363   1.000000
    529          8.083397   1.000000
    530          8.085388   1.000000
    531          8.212522   1.000001
    532          8.245572   1.000003
    533          8.249322   1.000003
    534          8.253300   1.000004
    535          8.262963   1.000005
    536          8.288762   1.000012
    537          8.290031   1.000012
    538          8.294072   1.000014
    539          8.295033   1.000014
    540          8.296166   1.000015
    541          8.296386   1.000015
    542          8.297501   1.000015
    543          8.323906   1.000035
    544          8.374712   1.000146
    545          8.388224   1.000210
    546          8.391311   1.000228
    547          8.392210   1.000233
    548          8.396843   1.000263
    549          8.398660   1.000276
    550          8.400545   1.000289
    551          8.402388   1.000303
    552          8.406555   1.000337
    553          8.408395   1.000353
    554          8.409959   1.000367
    555          8.411110   1.000378
    556          8.413589   1.000402
    557          8.416468   1.000432
    558          8.418206   1.000451
    559          8.444056   1.000837
    560          8.461671   1.001247
    561          8.464898   1.001339
    562          8.475281   1.001676
    563          8.493111   1.002430
    564          8.512722   1.003574
    565          8.618877   1.018663
    566          8.637870   1.022955
    567          8.647764   1.025244
    568          8.648917   1.025510
    569          8.859411   0.867163
    570          8.877403   0.813382
    571          8.878371   0.810275
    572          8.883050   0.794956
    573          8.994930   0.348043
    574          9.045730   0.166491
    575          9.050545   0.152076
    576          9.057447   0.132385
    577          9.067446   0.105947
    578          9.068923   0.102255
    579          9.073878   0.090267
    580          9.074851   0.087985
    581          9.076742   0.083621
    582          9.078045   0.080666
    583          9.098949   0.039081
    584          9.111641   0.019037
    585          9.124705   0.002261
    586          9.133601  -0.007069
    587          9.138942  -0.011909
    588          9.142634  -0.014936
    589          9.143481  -0.015594
    590          9.144925  -0.016688
    591          9.147630  -0.018635
    592          9.148090  -0.018953
    593          9.150149  -0.020333
    594          9.150642  -0.020653
    595          9.152036  -0.021534
    596          9.152448  -0.021789
    597          9.154115  -0.022789
    598          9.155811  -0.023761
    599          9.159586  -0.025758
    600          9.161101  -0.026497
    601          9.162658  -0.027222
    602          9.164338  -0.027963
    603          9.169276  -0.029908
    604          9.172922  -0.031130
    605          9.271372  -0.024680
    606          9.283799  -0.021810
    607          9.304388  -0.017251
    608          9.309657  -0.016156
    609          9.310276  -0.016030
    610          9.313551  -0.015370
    611          9.315436  -0.014997
    612          9.317515  -0.014592
    613          9.318299  -0.014441
    614          9.322106  -0.013719
    615          9.377062  -0.005840
    616          9.384173  -0.005153
    617          9.400924  -0.003788
    618          9.421738  -0.002522
    619          9.424953  -0.002363
    620          9.426710  -0.002280
    621          9.566278  -0.000075
    622          9.579234  -0.000051
    623          9.585968  -0.000042
    624          9.586801  -0.000041
    625          9.593481  -0.000034
    626          9.596219  -0.000031
    627          9.599099  -0.000029
    628          9.602467  -0.000026
    629          9.650405  -0.000006
    630          9.667698  -0.000003
    631          9.674797  -0.000002
    632          9.693450  -0.000001
    633          9.705543  -0.000001
    634          9.708805  -0.000001
    635          9.710558  -0.000001
    636          9.712912  -0.000001
    637          9.715379  -0.000001
    638          9.715927  -0.000001
    639          9.717565  -0.000001
    640          9.721592  -0.000000
    641          9.723034  -0.000000
    642          9.724875  -0.000000
    643          9.732142  -0.000000
    644          9.743501  -0.000000
    645          9.765008  -0.000000
    646          9.769423  -0.000000
    647          9.772957  -0.000000
    648          9.773182  -0.000000
    649          9.834002  -0.000000
    650          9.844357  -0.000000
    651          9.892255  -0.000000
    652          9.911658  -0.000000
    653          9.914478  -0.000000
    654          9.916060  -0.000000
    655          9.924945  -0.000000
    656          9.933750  -0.000000
    657          9.941135  -0.000000
    658          9.959396  -0.000000
    659          9.962216  -0.000000
    660          9.968271  -0.000000
    661          9.969567  -0.000000
    662          9.970338  -0.000000
    663          9.973158  -0.000000
    664          9.977228  -0.000000
    665          9.999881  -0.000000
    666         10.003889  -0.000000
    667         10.018691  -0.000000
    668         10.022530  -0.000000
    669         10.023411  -0.000000
    670         10.034690  -0.000000
    671         10.109996  -0.000000
    672         10.126324  -0.000000
    673         10.190508  -0.000000
    674         10.204132  -0.000000
    675         10.207329  -0.000000
    676         10.208112  -0.000000
    677         10.218267  -0.000000
    678         10.219869  -0.000000
    679         10.222421  -0.000000
    680         10.224964  -0.000000
    681         10.245823  -0.000000
    682         10.253238  -0.000000
    683         10.265776  -0.000000
    684         10.272792  -0.000000
    685         10.273832  -0.000000
    686         10.275479  -0.000000
    687         10.281675  -0.000000
    688         10.282579  -0.000000
    689         10.285778  -0.000000
    690         10.286985  -0.000000
    691         10.307940  -0.000000
 
  0.5000000E+00  0.5000000E+00  0.0000000E+00  0.2083333E-01
      1        -39.892290   1.000000
      2        -39.883933   1.000000
      3        -39.864670   1.000000
      4        -39.856072   1.000000
      5        -39.854081   1.000000
      6        -39.852295   1.000000
      7        -39.850979   1.000000
      8        -39.847934   1.000000
      9        -39.831295   1.000000
     10        -39.830397   1.000000
     11        -39.825870   1.000000
     12        -39.824424   1.000000
     13        -39.819926   1.000000
     14        -39.811226   1.000000
     15        -39.809302   1.000000
     16        -39.808083   1.000000
     17        -39.801888   1.000000
     18        -39.800024   1.000000
     19        -39.795534   1.000000
     20        -39.791793   1.000000
     21        -39.791394   1.000000
     22        -39.788435   1.000000
     23        -39.787523   1.000000
     24        -39.787310   1.000000
     25        -39.785455   1.000000
     26        -39.784685   1.000000
     27        -39.782580   1.000000
     28        -39.781986   1.000000
     29        -39.780686   1.000000
     30        -39.778734   1.000000
     31        -39.777229   1.000000
     32        -39.774160   1.000000
     33        -39.773158   1.000000
     34        -39.772888   1.000000
     35        -39.772034   1.000000
     36        -39.771507   1.000000
     37        -39.770032   1.000000
     38        -39.767897   1.000000
     39        -39.766236   1.000000
     40        -39.765198   1.000000
     41        -39.763934   1.000000
     42        -39.763430   1.000000
     43        -39.760250   1.000000
     44        -39.759640   1.000000
     45        -39.758711   1.000000
     46        -39.756446   1.000000
     47        -39.755666   1.000000
     48        -39.754227   1.000000
     49        -39.753325   1.000000
     50        -39.752663   1.000000
     51        -39.752117   1.000000
     52        -39.748951   1.000000
     53        -39.747312   1.000000
     54        -39.746531   1.000000
     55        -39.746290   1.000000
     56        -39.744838   1.000000
     57        -39.744039   1.000000
     58        -39.743275   1.000000
     59        -39.742838   1.000000
     60        -39.742175   1.000000
     61        -39.741750   1.000000
     62        -39.740862   1.000000
     63        -39.739604   1.000000
     64        -39.739111   1.000000
     65        -39.738599   1.000000
     66        -39.738088   1.000000
     67        -39.736507   1.000000
     68        -39.736109   1.000000
     69        -39.735654   1.000000
     70        -39.735066   1.000000
     71        -39.734104   1.000000
     72        -39.732922   1.000000
     73        -39.731650   1.000000
     74        -39.730878   1.000000
     75        -39.730639   1.000000
     76        -39.729914   1.000000
     77        -39.729710   1.000000
     78        -39.729245   1.000000
     79        -39.728861   1.000000
     80        -39.728347   1.000000
     81        -39.727896   1.000000
     82        -39.726624   1.000000
     83        -39.726074   1.000000
     84        -39.724962   1.000000
     85        -39.724731   1.000000
     86        -39.722338   1.000000
     87        -39.721568   1.000000
     88        -39.720010   1.000000
     89        -39.717821   1.000000
     90        -39.717344   1.000000
     91        -39.716629   1.000000
     92        -39.716413   1.000000
     93        -39.716162   1.000000
     94        -39.715364   1.000000
     95        -39.713742   1.000000
     96        -39.713013   1.000000
     97        -18.371932   1.000000
     98        -18.367070   1.000000
     99        -18.293910   1.000000
    100        -18.286986   1.000000
    101        -18.285247   1.000000
    102        -18.282674   1.000000
    103        -18.281705   1.000000
    104        -18.279907   1.000000
    105        -18.279546   1.000000
    106        -18.278886   1.000000
    107        -18.278679   1.000000
    108        -18.277727   1.000000
    109        -18.265059   1.000000
    110        -18.264103   1.000000
    111        -18.261636   1.000000
    112        -18.260241   1.000000
    113        -18.211289   1.000000
    114        -18.209272   1.000000
    115        -18.207790   1.000000
    116        -18.205045   1.000000
    117        -18.203265   1.000000
    118        -18.199996   1.000000
    119        -18.199518   1.000000
    120        -18.195448   1.000000
    121        -18.194482   1.000000
    122        -18.193810   1.000000
    123        -18.193646   1.000000
    124        -18.193117   1.000000
    125        -18.192693   1.000000
    126        -18.192497   1.000000
    127        -18.192184   1.000000
    128        -18.191425   1.000000
    129        -18.191238   1.000000
    130        -18.190897   1.000000
    131        -18.190674   1.000000
    132        -18.190061   1.000000
    133        -18.189514   1.000000
    134        -18.188923   1.000000
    135        -18.188728   1.000000
    136        -18.187946   1.000000
    137        -18.170484   1.000000
    138        -18.167498   1.000000
    139        -18.165068   1.000000
    140        -18.163477   1.000000
    141        -18.159044   1.000000
    142        -18.156656   1.000000
    143        -18.156247   1.000000
    144        -18.154898   1.000000
    145        -18.153666   1.000000
    146        -18.153618   1.000000
    147        -18.152866   1.000000
    148        -18.152455   1.000000
    149        -18.150752   1.000000
    150        -18.149759   1.000000
    151        -18.148945   1.000000
    152        -18.147134   1.000000
    153        -18.146235   1.000000
    154        -18.143949   1.000000
    155        -18.140342   1.000000
    156        -18.139514   1.000000
    157        -18.139051   1.000000
    158        -18.137501   1.000000
    159        -18.135887   1.000000
    160        -18.135754   1.000000
    161        -18.086863   1.000000
    162        -18.082140   1.000000
    163        -18.070662   1.000000
    164        -18.070459   1.000000
    165        -18.068689   1.000000
    166        -18.068167   1.000000
    167        -18.067654   1.000000
    168        -18.066840   1.000000
    169        -18.066678   1.000000
    170        -18.065410   1.000000
    171        -18.040673   1.000000
    172        -18.034238   1.000000
    173        -18.033217   1.000000
    174        -18.031930   1.000000
    175        -18.025971   1.000000
    176        -18.023076   1.000000
    177        -18.022350   1.000000
    178        -18.020888   1.000000
    179        -17.996275   1.000000
    180        -17.992565   1.000000
    181        -17.990919   1.000000
    182        -17.989754   1.000000
    183        -17.989329   1.000000
    184        -17.986506   1.000000
    185        -17.982001   1.000000
    186        -17.981467   1.000000
    187        -17.980790   1.000000
    188        -17.978192   1.000000
    189        -17.977517   1.000000
    190        -17.976666   1.000000
    191        -17.936528   1.000000
    192        -17.932364   1.000000
    193        -17.931019   1.000000
    194        -17.930246   1.000000
    195        -17.928381   1.000000
    196        -17.928077   1.000000
    197        -17.890086   1.000000
    198        -17.888357   1.000000
    199        -17.873077   1.000000
    200        -17.872101   1.000000
    201        -17.871471   1.000000
    202        -17.871125   1.000000
    203        -17.846069   1.000000
    204        -17.840532   1.000000
    205        -17.839905   1.000000
    206        -17.838513   1.000000
    207        -17.837863   1.000000
    208        -17.836679   1.000000
    209        -17.835279   1.000000
    210        -17.834024   1.000000
    211        -17.833557   1.000000
    212        -17.833167   1.000000
    213        -17.831043   1.000000
    214        -17.829836   1.000000
    215        -17.811116   1.000000
    216        -17.809384   1.000000
    217        -17.806009   1.000000
    218        -17.804016   1.000000
    219        -17.803018   1.000000
    220        -17.802085   1.000000
    221        -17.800858   1.000000
    222        -17.796996   1.000000
    223        -17.795804   1.000000
    224        -17.794874   1.000000
    225        -17.793730   1.000000
    226        -17.792346   1.000000
    227        -17.791609   1.000000
    228        -17.791344   1.000000
    229        -17.790862   1.000000
    230        -17.790299   1.000000
    231        -17.789598   1.000000
    232        -17.788844   1.000000
    233        -17.760645   1.000000
    234        -17.753063   1.000000
    235        -17.751025   1.000000
    236        -17.748822   1.000000
    237        -17.746728   1.000000
    238        -17.746311   1.000000
    239        -17.743750   1.000000
    240        -17.743098   1.000000
    241        -17.742234   1.000000
    242        -17.740197   1.000000
    243        -17.735736   1.000000
    244        -17.734320   1.000000
    245        -17.725269   1.000000
    246        -17.721795   1.000000
    247        -17.720685   1.000000
    248        -17.718624   1.000000
    249        -17.718384   1.000000
    250        -17.717448   1.000000
    251        -17.716144   1.000000
    252        -17.715850   1.000000
    253        -17.714367   1.000000
    254        -17.714163   1.000000
    255        -17.713872   1.000000
    256        -17.713802   1.000000
    257        -17.713066   1.000000
    258        -17.712531   1.000000
    259        -17.711564   1.000000
    260        -17.711149   1.000000
    261        -17.710795   1.000000
    262        -17.710509   1.000000
    263        -17.709024   1.000000
    264        -17.708006   1.000000
    265        -17.705745   1.000000
    266        -17.705440   1.000000
    267        -17.703914   1.000000
    268        -17.702618   1.000000
    269        -17.684413   1.000000
    270        -17.681496   1.000000
    271        -17.678482   1.000000
    272        -17.676998   1.000000
    273        -17.675794   1.000000
    274        -17.674827   1.000000
    275        -17.673678   1.000000
    276        -17.672067   1.000000
    277        -17.670893   1.000000
    278        -17.669322   1.000000
    279        -17.668265   1.000000
    280        -17.668145   1.000000
    281        -17.667519   1.000000
    282        -17.667340   1.000000
    283        -17.667239   1.000000
    284        -17.664384   1.000000
    285        -17.661029   1.000000
    286        -17.654248   1.000000
    287        -17.651980   1.000000
    288        -17.650657   1.000000
    289        -17.650427   1.000000
    290        -17.649948   1.000000
    291        -17.631099   1.000000
    292        -17.628709   1.000000
    293        -17.626261   1.000000
    294        -17.625408   1.000000
    295        -17.616251   1.000000
    296        -17.611922   1.000000
    297        -17.610675   1.000000
    298        -17.610022   1.000000
    299        -17.609180   1.000000
    300        -17.607323   1.000000
    301        -17.606019   1.000000
    302        -17.605497   1.000000
    303        -17.605171   1.000000
    304        -17.604714   1.000000
    305        -17.604215   1.000000
    306        -17.603988   1.000000
    307        -17.603497   1.000000
    308        -17.602914   1.000000
    309        -17.602566   1.000000
    310        -17.601936   1.000000
    311        -17.601445   1.000000
    312        -17.600466   1.000000
    313        -17.599128   1.000000
    314        -17.598462   1.000000
    315        -17.597733   1.000000
    316        -17.596689   1.000000
    317        -17.596455   1.000000
    318        -17.595719   1.000000
    319        -17.593604   1.000000
    320        -17.589383   1.000000
    321        -17.588057   1.000000
    322        -17.586201   1.000000
    323        -17.584579   1.000000
    324        -17.584264   1.000000
    325        -17.579793   1.000000
    326        -17.577463   1.000000
    327        -17.575851   1.000000
    328        -17.575814   1.000000
    329        -17.574192   1.000000
    330        -17.573933   1.000000
    331        -17.572449   1.000000
    332        -17.572243   1.000000
    333        -17.570595   1.000000
    334        -17.569983   1.000000
    335        -17.569208   1.000000
    336        -17.568806   1.000000
    337        -17.566786   1.000000
    338        -17.566287   1.000000
    339        -17.564665   1.000000
    340        -17.563292   1.000000
    341        -17.554189   1.000000
    342        -17.552335   1.000000
    343        -17.551271   1.000000
    344        -17.550540   1.000000
    345        -17.550088   1.000000
    346        -17.549324   1.000000
    347        -17.548628   1.000000
    348        -17.548511   1.000000
    349        -17.547839   1.000000
    350        -17.547269   1.000000
    351        -17.546578   1.000000
    352        -17.546212   1.000000
    353        -17.544775   1.000000
    354        -17.544612   1.000000
    355        -17.544011   1.000000
    356        -17.543147   1.000000
    357        -17.531440   1.000000
    358        -17.526600   1.000000
    359        -17.525464   1.000000
    360        -17.525043   1.000000
    361        -17.524488   1.000000
    362        -17.523645   1.000000
    363        -17.522161   1.000000
    364        -17.520992   1.000000
    365        -17.519513   1.000000
    366        -17.518880   1.000000
    367        -17.510337   1.000000
    368        -17.506688   1.000000
    369        -17.504183   1.000000
    370        -17.503216   1.000000
    371        -17.501687   1.000000
    372        -17.500255   1.000000
    373        -17.490724   1.000000
    374        -17.487411   1.000000
    375        -17.480503   1.000000
    376        -17.477920   1.000000
    377        -17.475534   1.000000
    378        -17.470966   1.000000
    379        -17.469590   1.000000
    380        -17.468750   1.000000
    381        -17.450380   1.000000
    382        -17.446189   1.000000
    383        -17.433705   1.000000
    384        -17.429900   1.000000
    385          2.496471   1.000000
    386          3.724165   1.000000
    387          3.835532   1.000000
    388          4.497039   1.000000
    389          4.510514   1.000000
    390          4.533368   1.000000
    391          4.535459   1.000000
    392          4.535760   1.000000
    393          4.723432   1.000000
    394          5.180879   1.000000
    395          5.182533   1.000000
    396          5.184079   1.000000
    397          5.286268   1.000000
    398          5.713258   1.000000
    399          5.713683   1.000000
    400          5.719427   1.000000
    401          5.754812   1.000000
    402          5.893247   1.000000
    403          5.902331   1.000000
    404          5.903585   1.000000
    405          5.918546   1.000000
    406          5.943041   1.000000
    407          5.957284   1.000000
    408          5.993311   1.000000
    409          5.998650   1.000000
    410          6.001129   1.000000
    411          6.001679   1.000000
    412          6.002893   1.000000
    413          6.004854   1.000000
    414          6.005344   1.000000
    415          6.041887   1.000000
    416          6.044837   1.000000
    417          6.055984   1.000000
    418          6.056234   1.000000
    419          6.127482   1.000000
    420          6.183482   1.000000
    421          6.189696   1.000000
    422          6.193251   1.000000
    423          6.193658   1.000000
    424          6.194384   1.000000
    425          6.195652   1.000000
    426          6.196889   1.000000
    427          6.298049   1.000000
    428          6.305990   1.000000
    429          6.335817   1.000000
    430          6.567103   1.000000
    431          6.571586   1.000000
    432          6.573686   1.000000
    433          6.575363   1.000000
    434          6.582321   1.000000
    435          6.585065   1.000000
    436          6.586654   1.000000
    437          6.615095   1.000000
    438          6.666213   1.000000
    439          6.672781   1.000000
    440          6.674349   1.000000
    441          6.696171   1.000000
    442          6.706207   1.000000
    443          6.714456   1.000000
    444          6.762986   1.000000
    445          6.769938   1.000000
    446          6.770301   1.000000
    447          6.771061   1.000000
    448          6.773179   1.000000
    449          6.773671   1.000000
    450          6.776501   1.000000
    451          6.808311   1.000000
    452          6.827521   1.000000
    453          6.831564   1.000000
    454          6.834616   1.000000
    455          6.836626   1.000000
    456          6.861606   1.000000
    457          6.862619   1.000000
    458          6.868049   1.000000
    459          6.869563   1.000000
    460          6.870348   1.000000
    461          6.878359   1.000000
    462          6.883356   1.000000
    463          6.883991   1.000000
    464          6.885798   1.000000
    465          6.886894   1.000000
    466          6.887732   1.000000
    467          6.888670   1.000000
    468          6.891902   1.000000
    469          6.909660   1.000000
    470          6.911060   1.000000
    471          6.911625   1.000000
    472          6.917030   1.000000
    473          6.919265   1.000000
    474          6.920873   1.000000
    475          7.114858   1.000000
    476          7.137487   1.000000
    477          7.197201   1.000000
    478          7.200645   1.000000
    479          7.201505   1.000000
    480          7.202895   1.000000
    481          7.317660   1.000000
    482          7.325817   1.000000
    483          7.344758   1.000000
    484          7.426272   1.000000
    485          7.427126   1.000000
    486          7.429082   1.000000
    487          7.429812   1.000000
    488          7.432357   1.000000
    489          7.456930   1.000000
    490          7.471167   1.000000
    491          7.472008   1.000000
    492          7.474530   1.000000
    493          7.599858   1.000000
    494          7.610144   1.000000
    495          7.615644   1.000000
    496          7.615783   1.000000
    497          7.661074   1.000000
    498          7.669224   1.000000
    499          7.672620   1.000000
    500          7.675883   1.000000
    501          7.681461   1.000000
    502          7.681595   1.000000
    503          7.681959   1.000000
    504          7.684174   1.000000
    505          7.701333   1.000000
    506          7.706598   1.000000
    507          7.707227   1.000000
    508          7.710301   1.000000
    509          7.713794   1.000000
    510          7.715200   1.000000
    511          7.716905   1.000000
    512          7.718111   1.000000
    513          7.782571   1.000000
    514          7.802669   1.000000
    515          7.807804   1.000000
    516          7.808825   1.000000
    517          7.853351   1.000000
    518          7.884788   1.000000
    519          7.889096   1.000000
    520          7.898237   1.000000
    521          7.918275   1.000000
    522          7.938904   1.000000
    523          7.939433   1.000000
    524          7.946114   1.000000
    525          7.993197   1.000000
    526          8.011100   1.000000
    527          8.062882   1.000000
    528          8.080363   1.000000
    529          8.083397   1.000000
    530          8.085388   1.000000
    531          8.212522   1.000001
    532          8.245572   1.000003
    533          8.249322   1.000003
    534          8.253300   1.000004
    535          8.262963   1.000005
    536          8.288762   1.000012
    537          8.290031   1.000012
    538          8.294072   1.000014
    539          8.295033   1.000014
    540          8.296166   1.000015
    541          8.296386   1.000015
    542          8.297501   1.000015
    543          8.323906   1.000035
    544          8.374712   1.000146
    545          8.388224   1.000210
    546          8.391311   1.000228
    547          8.392210   1.000233
    548          8.396843   1.000263
    549          8.398660   1.000276
    550          8.400545   1.000289
    551          8.402388   1.000303
    552          8.406555   1.000337
    553          8.408395   1.000353
    554          8.409959   1.000367
    555          8.411110   1.000378
    556          8.413589   1.000402
    557          8.416468   1.000432
    558          8.418206   1.000451
    559          8.444056   1.000837
    560          8.461671   1.001247
    561          8.464898   1.001339
    562          8.475281   1.001676
    563          8.493111   1.002430
    564          8.512722   1.003574
    565          8.618877   1.018663
    566          8.637870   1.022955
    567          8.647764   1.025244
    568          8.648918   1.025510
    569          8.859411   0.867163
    570          8.877403   0.813382
    571          8.878371   0.810275
    572          8.883050   0.794956
    573          8.994930   0.348043
    574          9.045730   0.166491
    575          9.050545   0.152076
    576          9.057447   0.132385
    577          9.067446   0.105947
    578          9.068923   0.102255
    579          9.073878   0.090267
    580          9.074851   0.087985
    581          9.076742   0.083621
    582          9.078045   0.080666
    583          9.098949   0.039082
    584          9.111641   0.019037
    585          9.124705   0.002261
    586          9.133601  -0.007069
    587          9.138942  -0.011909
    588          9.142634  -0.014936
    589          9.143481  -0.015594
    590          9.144925  -0.016688
    591          9.147630  -0.018635
    592          9.148090  -0.018953
    593          9.150149  -0.020333
    594          9.150642  -0.020653
    595          9.152036  -0.021534
    596          9.152448  -0.021789
    597          9.154115  -0.022789
    598          9.155811  -0.023761
    599          9.159586  -0.025758
    600          9.161101  -0.026497
    601          9.162658  -0.027222
    602          9.164338  -0.027963
    603          9.169276  -0.029908
    604          9.172922  -0.031130
    605          9.271372  -0.024680
    606          9.283799  -0.021810
    607          9.304388  -0.017251
    608          9.309657  -0.016156
    609          9.310276  -0.016030
    610          9.313550  -0.015370
    611          9.315436  -0.014997
    612          9.317515  -0.014592
    613          9.318300  -0.014441
    614          9.322106  -0.013719
    615          9.377062  -0.005840
    616          9.384173  -0.005153
    617          9.400924  -0.003788
    618          9.421738  -0.002522
    619          9.424953  -0.002363
    620          9.426710  -0.002280
    621          9.566278  -0.000075
    622          9.579234  -0.000051
    623          9.585968  -0.000042
    624          9.586801  -0.000041
    625          9.593481  -0.000034
    626          9.596219  -0.000031
    627          9.599099  -0.000029
    628          9.602467  -0.000026
    629          9.650405  -0.000006
    630          9.667698  -0.000003
    631          9.674797  -0.000002
    632          9.693450  -0.000001
    633          9.705543  -0.000001
    634          9.708805  -0.000001
    635          9.710558  -0.000001
    636          9.712912  -0.000001
    637          9.715379  -0.000001
    638          9.715927  -0.000001
    639          9.717566  -0.000001
    640          9.721592  -0.000000
    641          9.723034  -0.000000
    642          9.724875  -0.000000
    643          9.732142  -0.000000
    644          9.743501  -0.000000
    645          9.765008  -0.000000
    646          9.769423  -0.000000
    647          9.772957  -0.000000
    648          9.773183  -0.000000
    649          9.834001  -0.000000
    650          9.844357  -0.000000
    651          9.892255  -0.000000
    652          9.911658  -0.000000
    653          9.914478  -0.000000
    654          9.916060  -0.000000
    655          9.924945  -0.000000
    656          9.933750  -0.000000
    657          9.941135  -0.000000
    658          9.959396  -0.000000
    659          9.962216  -0.000000
    660          9.968271  -0.000000
    661          9.969567  -0.000000
    662          9.970338  -0.000000
    663          9.973158  -0.000000
    664          9.977228  -0.000000
    665          9.999881  -0.000000
    666         10.003889  -0.000000
    667         10.018691  -0.000000
    668         10.022530  -0.000000
    669         10.023411  -0.000000
    670         10.034690  -0.000000
    671         10.109996  -0.000000
    672         10.126324  -0.000000
    673         10.190508  -0.000000
    674         10.204132  -0.000000
    675         10.207329  -0.000000
    676         10.208112  -0.000000
    677         10.218267  -0.000000
    678         10.219870  -0.000000
    679         10.222421  -0.000000
    680         10.224964  -0.000000
    681         10.245823  -0.000000
    682         10.253238  -0.000000
    683         10.265776  -0.000000
    684         10.272792  -0.000000
    685         10.273832  -0.000000
    686         10.275479  -0.000000
    687         10.281674  -0.000000
    688         10.282578  -0.000000
    689         10.285787  -0.000000
    690         10.286963  -0.000000
    691         10.307646  -0.000000
 
  0.2500000E+00  0.2500000E+00  0.0000000E+00  0.4166667E-01
      1        -39.893649   1.000000
      2        -39.878072   1.000000
      3        -39.872248   1.000000
      4        -39.860587   1.000000
      5        -39.854848   1.000000
      6        -39.847093   1.000000
      7        -39.843455   1.000000
      8        -39.842016   1.000000
      9        -39.838316   1.000000
     10        -39.834702   1.000000
     11        -39.832616   1.000000
     12        -39.819765   1.000000
     13        -39.815134   1.000000
     14        -39.811961   1.000000
     15        -39.808780   1.000000
     16        -39.804881   1.000000
     17        -39.803687   1.000000
     18        -39.801027   1.000000
     19        -39.799217   1.000000
     20        -39.794850   1.000000
     21        -39.792340   1.000000
     22        -39.788503   1.000000
     23        -39.786727   1.000000
     24        -39.784827   1.000000
     25        -39.783964   1.000000
     26        -39.782843   1.000000
     27        -39.781631   1.000000
     28        -39.780209   1.000000
     29        -39.779582   1.000000
     30        -39.779044   1.000000
     31        -39.777622   1.000000
     32        -39.776858   1.000000
     33        -39.775157   1.000000
     34        -39.772873   1.000000
     35        -39.771486   1.000000
     36        -39.769858   1.000000
     37        -39.768688   1.000000
     38        -39.767906   1.000000
     39        -39.766786   1.000000
     40        -39.765875   1.000000
     41        -39.765177   1.000000
     42        -39.763586   1.000000
     43        -39.761790   1.000000
     44        -39.760438   1.000000
     45        -39.757740   1.000000
     46        -39.755535   1.000000
     47        -39.754885   1.000000
     48        -39.754311   1.000000
     49        -39.752969   1.000000
     50        -39.751607   1.000000
     51        -39.750889   1.000000
     52        -39.750063   1.000000
     53        -39.748581   1.000000
     54        -39.747016   1.000000
     55        -39.746263   1.000000
     56        -39.745827   1.000000
     57        -39.745131   1.000000
     58        -39.744313   1.000000
     59        -39.742815   1.000000
     60        -39.742750   1.000000
     61        -39.741557   1.000000
     62        -39.740813   1.000000
     63        -39.739739   1.000000
     64        -39.738814   1.000000
     65        -39.737574   1.000000
     66        -39.736698   1.000000
     67        -39.736326   1.000000
     68        -39.735223   1.000000
     69        -39.734930   1.000000
     70        -39.734429   1.000000
     71        -39.733707   1.000000
     72        -39.732901   1.000000
     73        -39.732201   1.000000
     74        -39.731537   1.000000
     75        -39.730899   1.000000
     76        -39.730170   1.000000
     77        -39.729510   1.000000
     78        -39.729207   1.000000
     79        -39.728764   1.000000
     80        -39.728328   1.000000
     81        -39.727527   1.000000
     82        -39.727077   1.000000
     83        -39.726565   1.000000
     84        -39.725000   1.000000
     85        -39.724283   1.000000
     86        -39.723106   1.000000
     87        -39.721240   1.000000
     88        -39.720319   1.000000
     89        -39.718064   1.000000
     90        -39.717791   1.000000
     91        -39.716563   1.000000
     92        -39.716343   1.000000
     93        -39.715698   1.000000
     94        -39.714640   1.000000
     95        -39.714114   1.000000
     96        -39.713101   1.000000
     97        -18.380967   1.000000
     98        -18.338687   1.000000
     99        -18.333978   1.000000
    100        -18.300855   1.000000
    101        -18.297131   1.000000
    102        -18.287016   1.000000
    103        -18.283814   1.000000
    104        -18.283212   1.000000
    105        -18.282508   1.000000
    106        -18.258307   1.000000
    107        -18.255077   1.000000
    108        -18.253264   1.000000
    109        -18.252337   1.000000
    110        -18.242687   1.000000
    111        -18.242047   1.000000
    112        -18.239374   1.000000
    113        -18.238101   1.000000
    114        -18.230595   1.000000
    115        -18.229412   1.000000
    116        -18.226369   1.000000
    117        -18.225026   1.000000
    118        -18.216399   1.000000
    119        -18.215700   1.000000
    120        -18.214222   1.000000
    121        -18.210668   1.000000
    122        -18.208669   1.000000
    123        -18.190725   1.000000
    124        -18.187309   1.000000
    125        -18.186778   1.000000
    126        -18.182131   1.000000
    127        -18.181737   1.000000
    128        -18.181264   1.000000
    129        -18.180464   1.000000
    130        -18.179425   1.000000
    131        -18.179221   1.000000
    132        -18.179001   1.000000
    133        -18.177592   1.000000
    134        -18.177053   1.000000
    135        -18.175919   1.000000
    136        -18.173228   1.000000
    137        -18.171572   1.000000
    138        -18.169550   1.000000
    139        -18.165506   1.000000
    140        -18.164143   1.000000
    141        -18.163174   1.000000
    142        -18.162237   1.000000
    143        -18.161841   1.000000
    144        -18.160548   1.000000
    145        -18.159016   1.000000
    146        -18.157618   1.000000
    147        -18.156606   1.000000
    148        -18.155297   1.000000
    149        -18.152457   1.000000
    150        -18.151125   1.000000
    151        -18.146392   1.000000
    152        -18.146051   1.000000
    153        -18.145071   1.000000
    154        -18.143917   1.000000
    155        -18.142921   1.000000
    156        -18.125561   1.000000
    157        -18.123238   1.000000
    158        -18.118375   1.000000
    159        -18.116504   1.000000
    160        -18.115223   1.000000
    161        -18.108589   1.000000
    162        -18.106883   1.000000
    163        -18.103835   1.000000
    164        -18.103221   1.000000
    165        -18.089653   1.000000
    166        -18.088048   1.000000
    167        -18.061797   1.000000
    168        -18.057048   1.000000
    169        -18.054645   1.000000
    170        -18.052936   1.000000
    171        -18.049666   1.000000
    172        -18.041853   1.000000
    173        -18.041281   1.000000
    174        -18.025042   1.000000
    175        -18.022596   1.000000
    176        -18.019393   1.000000
    177        -18.017949   1.000000
    178        -18.017115   1.000000
    179        -18.016561   1.000000
    180        -17.993590   1.000000
    181        -17.992376   1.000000
    182        -17.983238   1.000000
    183        -17.973222   1.000000
    184        -17.970723   1.000000
    185        -17.970220   1.000000
    186        -17.968630   1.000000
    187        -17.964861   1.000000
    188        -17.963138   1.000000
    189        -17.957690   1.000000
    190        -17.946690   1.000000
    191        -17.945266   1.000000
    192        -17.941768   1.000000
    193        -17.939455   1.000000
    194        -17.938557   1.000000
    195        -17.906735   1.000000
    196        -17.904836   1.000000
    197        -17.904140   1.000000
    198        -17.902462   1.000000
    199        -17.901399   1.000000
    200        -17.901001   1.000000
    201        -17.874032   1.000000
    202        -17.871018   1.000000
    203        -17.869628   1.000000
    204        -17.867844   1.000000
    205        -17.859006   1.000000
    206        -17.850220   1.000000
    207        -17.849954   1.000000
    208        -17.841761   1.000000
    209        -17.841155   1.000000
    210        -17.822200   1.000000
    211        -17.819899   1.000000
    212        -17.816609   1.000000
    213        -17.815792   1.000000
    214        -17.813056   1.000000
    215        -17.807347   1.000000
    216        -17.804977   1.000000
    217        -17.803298   1.000000
    218        -17.801100   1.000000
    219        -17.800079   1.000000
    220        -17.797781   1.000000
    221        -17.797531   1.000000
    222        -17.796234   1.000000
    223        -17.794207   1.000000
    224        -17.791566   1.000000
    225        -17.790769   1.000000
    226        -17.790022   1.000000
    227        -17.787171   1.000000
    228        -17.782560   1.000000
    229        -17.778124   1.000000
    230        -17.774796   1.000000
    231        -17.773367   1.000000
    232        -17.772701   1.000000
    233        -17.771447   1.000000
    234        -17.770347   1.000000
    235        -17.769456   1.000000
    236        -17.766882   1.000000
    237        -17.762004   1.000000
    238        -17.760775   1.000000
    239        -17.759739   1.000000
    240        -17.758276   1.000000
    241        -17.755788   1.000000
    242        -17.753378   1.000000
    243        -17.740457   1.000000
    244        -17.739335   1.000000
    245        -17.733341   1.000000
    246        -17.729112   1.000000
    247        -17.728165   1.000000
    248        -17.727014   1.000000
    249        -17.726374   1.000000
    250        -17.725020   1.000000
    251        -17.723570   1.000000
    252        -17.722994   1.000000
    253        -17.718811   1.000000
    254        -17.717558   1.000000
    255        -17.713796   1.000000
    256        -17.712125   1.000000
    257        -17.706076   1.000000
    258        -17.704648   1.000000
    259        -17.702317   1.000000
    260        -17.699826   1.000000
    261        -17.697974   1.000000
    262        -17.697318   1.000000
    263        -17.694700   1.000000
    264        -17.693864   1.000000
    265        -17.687518   1.000000
    266        -17.686551   1.000000
    267        -17.683312   1.000000
    268        -17.682440   1.000000
    269        -17.681341   1.000000
    270        -17.680872   1.000000
    271        -17.675734   1.000000
    272        -17.674558   1.000000
    273        -17.673959   1.000000
    274        -17.672186   1.000000
    275        -17.671947   1.000000
    276        -17.670661   1.000000
    277        -17.669088   1.000000
    278        -17.667722   1.000000
    279        -17.665358   1.000000
    280        -17.662675   1.000000
    281        -17.659418   1.000000
    282        -17.654535   1.000000
    283        -17.653689   1.000000
    284        -17.651555   1.000000
    285        -17.650647   1.000000
    286        -17.649515   1.000000
    287        -17.644958   1.000000
    288        -17.644278   1.000000
    289        -17.641304   1.000000
    290        -17.640458   1.000000
    291        -17.639751   1.000000
    292        -17.639110   1.000000
    293        -17.638473   1.000000
    294        -17.637551   1.000000
    295        -17.636985   1.000000
    296        -17.632936   1.000000
    297        -17.629483   1.000000
    298        -17.628945   1.000000
    299        -17.628650   1.000000
    300        -17.627749   1.000000
    301        -17.626943   1.000000
    302        -17.621306   1.000000
    303        -17.620157   1.000000
    304        -17.611755   1.000000
    305        -17.609790   1.000000
    306        -17.609145   1.000000
    307        -17.606001   1.000000
    308        -17.604043   1.000000
    309        -17.603051   1.000000
    310        -17.601461   1.000000
    311        -17.600822   1.000000
    312        -17.595284   1.000000
    313        -17.589280   1.000000
    314        -17.588535   1.000000
    315        -17.587792   1.000000
    316        -17.586631   1.000000
    317        -17.584812   1.000000
    318        -17.584210   1.000000
    319        -17.583314   1.000000
    320        -17.583065   1.000000
    321        -17.581648   1.000000
    322        -17.580833   1.000000
    323        -17.579280   1.000000
    324        -17.579130   1.000000
    325        -17.578443   1.000000
    326        -17.578094   1.000000
    327        -17.577127   1.000000
    328        -17.574140   1.000000
    329        -17.573406   1.000000
    330        -17.572065   1.000000
    331        -17.571200   1.000000
    332        -17.570899   1.000000
    333        -17.570223   1.000000
    334        -17.567422   1.000000
    335        -17.566667   1.000000
    336        -17.565677   1.000000
    337        -17.565054   1.000000
    338        -17.564835   1.000000
    339        -17.562851   1.000000
    340        -17.562591   1.000000
    341        -17.562154   1.000000
    342        -17.561487   1.000000
    343        -17.560384   1.000000
    344        -17.560016   1.000000
    345        -17.559530   1.000000
    346        -17.556077   1.000000
    347        -17.554919   1.000000
    348        -17.553875   1.000000
    349        -17.553111   1.000000
    350        -17.547829   1.000000
    351        -17.547256   1.000000
    352        -17.545414   1.000000
    353        -17.545253   1.000000
    354        -17.537372   1.000000
    355        -17.536402   1.000000
    356        -17.535632   1.000000
    357        -17.534666   1.000000
    358        -17.533233   1.000000
    359        -17.531756   1.000000
    360        -17.526203   1.000000
    361        -17.523158   1.000000
    362        -17.520597   1.000000
    363        -17.519121   1.000000
    364        -17.516183   1.000000
    365        -17.515896   1.000000
    366        -17.514102   1.000000
    367        -17.513860   1.000000
    368        -17.512694   1.000000
    369        -17.511850   1.000000
    370        -17.493096   1.000000
    371        -17.491378   1.000000
    372        -17.490366   1.000000
    373        -17.489134   1.000000
    374        -17.488517   1.000000
    375        -17.487114   1.000000
    376        -17.486523   1.000000
    377        -17.469956   1.000000
    378        -17.467643   1.000000
    379        -17.466261   1.000000
    380        -17.461299   1.000000
    381        -17.448661   1.000000
    382        -17.448521   1.000000
    383        -17.443003   1.000000
    384        -17.430810   1.000000
    385          2.496144   1.000000
    386          3.676111   1.000000
    387          4.026438   1.000000
    388          4.112019   1.000000
    389          4.443820   1.000000
    390          4.509808   1.000000
    391          4.793233   1.000000
    392          4.795049   1.000000
    393          4.795341   1.000000
    394          4.911087   1.000000
    395          5.088790   1.000000
    396          5.156927   1.000000
    397          5.623126   1.000000
    398          5.625575   1.000000
    399          5.626915   1.000000
    400          5.664579   1.000000
    401          5.714628   1.000000
    402          5.790743   1.000000
    403          5.807784   1.000000
    404          5.917265   1.000000
    405          5.919045   1.000000
    406          5.921447   1.000000
    407          5.937397   1.000000
    408          5.957557   1.000000
    409          5.970109   1.000000
    410          5.989642   1.000000
    411          5.991402   1.000000
    412          5.993291   1.000000
    413          6.024187   1.000000
    414          6.051631   1.000000
    415          6.093917   1.000000
    416          6.169837   1.000000
    417          6.180343   1.000000
    418          6.181177   1.000000
    419          6.181931   1.000000
    420          6.183441   1.000000
    421          6.202956   1.000000
    422          6.213105   1.000000
    423          6.216404   1.000000
    424          6.237745   1.000000
    425          6.249252   1.000000
    426          6.283931   1.000000
    427          6.304372   1.000000
    428          6.315373   1.000000
    429          6.315515   1.000000
    430          6.388245   1.000000
    431          6.486954   1.000000
    432          6.489412   1.000000
    433          6.493349   1.000000
    434          6.519846   1.000000
    435          6.549115   1.000000
    436          6.555667   1.000000
    437          6.584667   1.000000
    438          6.588030   1.000000
    439          6.592338   1.000000
    440          6.628612   1.000000
    441          6.692714   1.000000
    442          6.695375   1.000000
    443          6.701578   1.000000
    444          6.703613   1.000000
    445          6.707903   1.000000
    446          6.721879   1.000000
    447          6.727638   1.000000
    448          6.737906   1.000000
    449          6.751080   1.000000
    450          6.773044   1.000000
    451          6.808684   1.000000
    452          6.811723   1.000000
    453          6.814471   1.000000
    454          6.833286   1.000000
    455          6.859079   1.000000
    456          6.874040   1.000000
    457          6.882554   1.000000
    458          6.884216   1.000000
    459          6.885534   1.000000
    460          6.901577   1.000000
    461          6.917569   1.000000
    462          6.922332   1.000000
    463          6.922611   1.000000
    464          6.946865   1.000000
    465          6.959128   1.000000
    466          6.980624   1.000000
    467          6.993921   1.000000
    468          6.996926   1.000000
    469          6.997773   1.000000
    470          7.001035   1.000000
    471          7.002366   1.000000
    472          7.055739   1.000000
    473          7.083256   1.000000
    474          7.084849   1.000000
    475          7.088078   1.000000
    476          7.089872   1.000000
    477          7.094033   1.000000
    478          7.121681   1.000000
    479          7.132557   1.000000
    480          7.198013   1.000000
    481          7.207070   1.000000
    482          7.217712   1.000000
    483          7.218976   1.000000
    484          7.291148   1.000000
    485          7.311678   1.000000
    486          7.401436   1.000000
    487          7.407474   1.000000
    488          7.476548   1.000000
    489          7.506384   1.000000
    490          7.523184   1.000000
    491          7.598607   1.000000
    492          7.616744   1.000000
    493          7.618575   1.000000
    494          7.622300   1.000000
    495          7.627384   1.000000
    496          7.628521   1.000000
    497          7.632568   1.000000
    498          7.636208   1.000000
    499          7.638669   1.000000
    500          7.643956   1.000000
    501          7.644776   1.000000
    502          7.646380   1.000000
    503          7.663743   1.000000
    504          7.703861   1.000000
    505          7.721948   1.000000
    506          7.725797   1.000000
    507          7.741378   1.000000
    508          7.744592   1.000000
    509          7.745210   1.000000
    510          7.748043   1.000000
    511          7.751126   1.000000
    512          7.753244   1.000000
    513          7.756783   1.000000
    514          7.759484   1.000000
    515          7.776757   1.000000
    516          7.778207   1.000000
    517          7.792850   1.000000
    518          7.813593   1.000000
    519          7.826731   1.000000
    520          7.890048   1.000000
    521          7.913253   1.000000
    522          7.942058   1.000000
    523          7.943114   1.000000
    524          8.057190   1.000000
    525          8.086805   1.000000
    526          8.097038   1.000000
    527          8.119033   1.000000
    528          8.144385   1.000000
    529          8.184009   1.000000
    530          8.186347   1.000000
    531          8.192760   1.000000
    532          8.201557   1.000001
    533          8.208147   1.000001
    534          8.210016   1.000001
    535          8.215059   1.000001
    536          8.216099   1.000001
    537          8.231405   1.000002
    538          8.233083   1.000002
    539          8.235713   1.000002
    540          8.236436   1.000002
    541          8.238931   1.000002
    542          8.310905   1.000023
    543          8.337099   1.000051
    544          8.340243   1.000056
    545          8.343188   1.000061
    546          8.359818   1.000097
    547          8.367398   1.000120
    548          8.373383   1.000141
    549          8.374824   1.000147
    550          8.377168   1.000157
    551          8.378741   1.000163
    552          8.380170   1.000170
    553          8.380675   1.000172
    554          8.392774   1.000237
    555          8.394652   1.000249
    556          8.399443   1.000281
    557          8.400223   1.000287
    558          8.402361   1.000303
    559          8.407427   1.000345
    560          8.484142   1.002021
    561          8.502917   1.002956
    562          8.506401   1.003164
    563          8.563465   1.008676
    564          8.587788   1.012486
    565          8.744181   1.031002
    566          8.754963   1.026795
    567          8.755641   1.026475
    568          8.758654   1.024967
    569          8.770008   1.017971
    570          8.773414   1.015440
    571          8.859483   0.866963
    572          8.899968   0.735742
    573          8.905033   0.716950
    574          8.907484   0.707698
    575          8.934252   0.601143
    576          8.940957   0.573279
    577          8.944079   0.560208
    578          8.952740   0.523718
    579          9.022332   0.244008
    580          9.029171   0.220136
    581          9.057445   0.132391
    582          9.067385   0.106099
    583          9.069987   0.099628
    584          9.072368   0.093855
    585          9.082427   0.071044
    586          9.085848   0.063867
    587          9.088918   0.057678
    588          9.089981   0.055588
    589          9.129843  -0.003326
    590          9.160013  -0.025970
    591          9.182127  -0.033473
    592          9.185456  -0.034078
    593          9.198406  -0.035363
    594          9.203579  -0.035458
    595          9.212032  -0.035181
    596          9.216722  -0.034825
    597          9.219983  -0.034503
    598          9.225928  -0.033774
    599          9.227304  -0.033582
    600          9.229756  -0.033220
    601          9.232769  -0.032742
    602          9.236491  -0.032106
    603          9.286883  -0.021106
    604          9.313557  -0.015369
    605          9.316578  -0.014774
    606          9.334162  -0.011583
    607          9.336462  -0.011201
    608          9.343291  -0.010118
    609          9.359950  -0.007790
    610          9.363668  -0.007329
    611          9.366656  -0.006974
    612          9.377901  -0.005756
    613          9.381338  -0.005419
    614          9.439761  -0.001736
    615          9.449282  -0.001415
    616          9.459633  -0.001125
    617          9.483954  -0.000641
    618          9.487016  -0.000596
    619          9.528801  -0.000208
    620          9.538022  -0.000163
    621          9.549222  -0.000120
    622          9.561162  -0.000086
    623          9.562314  -0.000084
    624          9.566498  -0.000074
    625          9.580655  -0.000049
    626          9.589333  -0.000038
    627          9.595503  -0.000032
    628          9.597847  -0.000030
    629          9.603505  -0.000025
    630          9.604681  -0.000024
    631          9.610291  -0.000020
    632          9.612659  -0.000019
    633          9.621137  -0.000015
    634          9.622557  -0.000014
    635          9.629093  -0.000011
    636          9.633153  -0.000010
    637          9.639278  -0.000008
    638          9.640265  -0.000008
    639          9.642321  -0.000007
    640          9.647000  -0.000006
    641          9.649980  -0.000006
    642          9.658013  -0.000004
    643          9.659972  -0.000004
    644          9.669517  -0.000003
    645          9.807158  -0.000000
    646          9.819865  -0.000000
    647          9.843468  -0.000000
    648          9.845369  -0.000000
    649          9.847823  -0.000000
    650          9.855663  -0.000000
    651          9.885955  -0.000000
    652          9.900851  -0.000000
    653          9.903238  -0.000000
    654          9.907767  -0.000000
    655          9.914194  -0.000000
    656          9.918327  -0.000000
    657          9.923668  -0.000000
    658          9.924437  -0.000000
    659          9.940981  -0.000000
    660          9.942663  -0.000000
    661          9.948161  -0.000000
    662          9.949389  -0.000000
    663         10.010018  -0.000000
    664         10.016117  -0.000000
    665         10.024154  -0.000000
    666         10.033289  -0.000000
    667         10.035830  -0.000000
    668         10.036769  -0.000000
    669         10.100730  -0.000000
    670         10.110272  -0.000000
    671         10.111871  -0.000000
    672         10.127297  -0.000000
    673         10.129526  -0.000000
    674         10.129634  -0.000000
    675         10.134648  -0.000000
    676         10.160307  -0.000000
    677         10.167617  -0.000000
    678         10.173691  -0.000000
    679         10.180839  -0.000000
    680         10.197688  -0.000000
    681         10.202841  -0.000000
    682         10.211213  -0.000000
    683         10.213319  -0.000000
    684         10.230087  -0.000000
    685         10.230825  -0.000000
    686         10.233070  -0.000000
    687         10.283239  -0.000000
    688         10.321390  -0.000000
    689         10.324096  -0.000000
    690         10.327830  -0.000000
    691         10.341321  -0.000000
 
 -0.2500000E+00  0.5000000E+00  0.0000000E+00  0.4166667E-01
      1        -39.893489   1.000000
      2        -39.878889   1.000000
      3        -39.871427   1.000000
      4        -39.860783   1.000000
      5        -39.854990   1.000000
      6        -39.848743   1.000000
      7        -39.841827   1.000000
      8        -39.839302   1.000000
      9        -39.838787   1.000000
     10        -39.836391   1.000000
     11        -39.831910   1.000000
     12        -39.822798   1.000000
     13        -39.813973   1.000000
     14        -39.810563   1.000000
     15        -39.808068   1.000000
     16        -39.805853   1.000000
     17        -39.804712   1.000000
     18        -39.800584   1.000000
     19        -39.799188   1.000000
     20        -39.795395   1.000000
     21        -39.790803   1.000000
     22        -39.788417   1.000000
     23        -39.788168   1.000000
     24        -39.784624   1.000000
     25        -39.784222   1.000000
     26        -39.782353   1.000000
     27        -39.781363   1.000000
     28        -39.780312   1.000000
     29        -39.779992   1.000000
     30        -39.778978   1.000000
     31        -39.777911   1.000000
     32        -39.775584   1.000000
     33        -39.774415   1.000000
     34        -39.772935   1.000000
     35        -39.771323   1.000000
     36        -39.770242   1.000000
     37        -39.769960   1.000000
     38        -39.768032   1.000000
     39        -39.767037   1.000000
     40        -39.765896   1.000000
     41        -39.764923   1.000000
     42        -39.763280   1.000000
     43        -39.761934   1.000000
     44        -39.760771   1.000000
     45        -39.757358   1.000000
     46        -39.755633   1.000000
     47        -39.754568   1.000000
     48        -39.753960   1.000000
     49        -39.753370   1.000000
     50        -39.751847   1.000000
     51        -39.750897   1.000000
     52        -39.750158   1.000000
     53        -39.748788   1.000000
     54        -39.746873   1.000000
     55        -39.746154   1.000000
     56        -39.745449   1.000000
     57        -39.745067   1.000000
     58        -39.743981   1.000000
     59        -39.743215   1.000000
     60        -39.742581   1.000000
     61        -39.741422   1.000000
     62        -39.740563   1.000000
     63        -39.740153   1.000000
     64        -39.739212   1.000000
     65        -39.737784   1.000000
     66        -39.736455   1.000000
     67        -39.736083   1.000000
     68        -39.735498   1.000000
     69        -39.734682   1.000000
     70        -39.734416   1.000000
     71        -39.734104   1.000000
     72        -39.733084   1.000000
     73        -39.732142   1.000000
     74        -39.731344   1.000000
     75        -39.730897   1.000000
     76        -39.730112   1.000000
     77        -39.729635   1.000000
     78        -39.729230   1.000000
     79        -39.728642   1.000000
     80        -39.728278   1.000000
     81        -39.727679   1.000000
     82        -39.727030   1.000000
     83        -39.726211   1.000000
     84        -39.725343   1.000000
     85        -39.724041   1.000000
     86        -39.722672   1.000000
     87        -39.721424   1.000000
     88        -39.720307   1.000000
     89        -39.718514   1.000000
     90        -39.717514   1.000000
     91        -39.717187   1.000000
     92        -39.716231   1.000000
     93        -39.715412   1.000000
     94        -39.714857   1.000000
     95        -39.713828   1.000000
     96        -39.713093   1.000000
     97        -18.380973   1.000000
     98        -18.338757   1.000000
     99        -18.333913   1.000000
    100        -18.300723   1.000000
    101        -18.297066   1.000000
    102        -18.287242   1.000000
    103        -18.283577   1.000000
    104        -18.283083   1.000000
    105        -18.282661   1.000000
    106        -18.258318   1.000000
    107        -18.255041   1.000000
    108        -18.253271   1.000000
    109        -18.252438   1.000000
    110        -18.243373   1.000000
    111        -18.241769   1.000000
    112        -18.239071   1.000000
    113        -18.238158   1.000000
    114        -18.230401   1.000000
    115        -18.229486   1.000000
    116        -18.226444   1.000000
    117        -18.224869   1.000000
    118        -18.216440   1.000000
    119        -18.216015   1.000000
    120        -18.213982   1.000000
    121        -18.210740   1.000000
    122        -18.208511   1.000000
    123        -18.191678   1.000000
    124        -18.187584   1.000000
    125        -18.185370   1.000000
    126        -18.182841   1.000000
    127        -18.181540   1.000000
    128        -18.180947   1.000000
    129        -18.180255   1.000000
    130        -18.179837   1.000000
    131        -18.179145   1.000000
    132        -18.178576   1.000000
    133        -18.177839   1.000000
    134        -18.176681   1.000000
    135        -18.175801   1.000000
    136        -18.173277   1.000000
    137        -18.172171   1.000000
    138        -18.169266   1.000000
    139        -18.165087   1.000000
    140        -18.163953   1.000000
    141        -18.163453   1.000000
    142        -18.162566   1.000000
    143        -18.161724   1.000000
    144        -18.160458   1.000000
    145        -18.159256   1.000000
    146        -18.157837   1.000000
    147        -18.156738   1.000000
    148        -18.155069   1.000000
    149        -18.152099   1.000000
    150        -18.151162   1.000000
    151        -18.147467   1.000000
    152        -18.146007   1.000000
    153        -18.144993   1.000000
    154        -18.143772   1.000000
    155        -18.142696   1.000000
    156        -18.125425   1.000000
    157        -18.123149   1.000000
    158        -18.118798   1.000000
    159        -18.116757   1.000000
    160        -18.115115   1.000000
    161        -18.108473   1.000000
    162        -18.106929   1.000000
    163        -18.103574   1.000000
    164        -18.103128   1.000000
    165        -18.089697   1.000000
    166        -18.088005   1.000000
    167        -18.061189   1.000000
    168        -18.057231   1.000000
    169        -18.054601   1.000000
    170        -18.052856   1.000000
    171        -18.049690   1.000000
    172        -18.042225   1.000000
    173        -18.041017   1.000000
    174        -18.024637   1.000000
    175        -18.022854   1.000000
    176        -18.019352   1.000000
    177        -18.018337   1.000000
    178        -18.016863   1.000000
    179        -18.016618   1.000000
    180        -17.993785   1.000000
    181        -17.992192   1.000000
    182        -17.983616   1.000000
    183        -17.973127   1.000000
    184        -17.971478   1.000000
    185        -17.969869   1.000000
    186        -17.968939   1.000000
    187        -17.964793   1.000000
    188        -17.962379   1.000000
    189        -17.957610   1.000000
    190        -17.946951   1.000000
    191        -17.945262   1.000000
    192        -17.941926   1.000000
    193        -17.939589   1.000000
    194        -17.938547   1.000000
    195        -17.906505   1.000000
    196        -17.905343   1.000000
    197        -17.903630   1.000000
    198        -17.903082   1.000000
    199        -17.901356   1.000000
    200        -17.900700   1.000000
    201        -17.874113   1.000000
    202        -17.871228   1.000000
    203        -17.869446   1.000000
    204        -17.868086   1.000000
    205        -17.859294   1.000000
    206        -17.850632   1.000000
    207        -17.849429   1.000000
    208        -17.841317   1.000000
    209        -17.840987   1.000000
    210        -17.821703   1.000000
    211        -17.820004   1.000000
    212        -17.816425   1.000000
    213        -17.815225   1.000000
    214        -17.812685   1.000000
    215        -17.807560   1.000000
    216        -17.805996   1.000000
    217        -17.802768   1.000000
    218        -17.801203   1.000000
    219        -17.800250   1.000000
    220        -17.798249   1.000000
    221        -17.797248   1.000000
    222        -17.796404   1.000000
    223        -17.794226   1.000000
    224        -17.791519   1.000000
    225        -17.791075   1.000000
    226        -17.789537   1.000000
    227        -17.787855   1.000000
    228        -17.782232   1.000000
    229        -17.778267   1.000000
    230        -17.774966   1.000000
    231        -17.773798   1.000000
    232        -17.772715   1.000000
    233        -17.770672   1.000000
    234        -17.770437   1.000000
    235        -17.769124   1.000000
    236        -17.766731   1.000000
    237        -17.762099   1.000000
    238        -17.760835   1.000000
    239        -17.759242   1.000000
    240        -17.759035   1.000000
    241        -17.755694   1.000000
    242        -17.753638   1.000000
    243        -17.740713   1.000000
    244        -17.739251   1.000000
    245        -17.733626   1.000000
    246        -17.729607   1.000000
    247        -17.728107   1.000000
    248        -17.726692   1.000000
    249        -17.726045   1.000000
    250        -17.724360   1.000000
    251        -17.723437   1.000000
    252        -17.723085   1.000000
    253        -17.719053   1.000000
    254        -17.717135   1.000000
    255        -17.714078   1.000000
    256        -17.710984   1.000000
    257        -17.706279   1.000000
    258        -17.704537   1.000000
    259        -17.702909   1.000000
    260        -17.699785   1.000000
    261        -17.697133   1.000000
    262        -17.697011   1.000000
    263        -17.694879   1.000000
    264        -17.694372   1.000000
    265        -17.688761   1.000000
    266        -17.686062   1.000000
    267        -17.683399   1.000000
    268        -17.682328   1.000000
    269        -17.681732   1.000000
    270        -17.680849   1.000000
    271        -17.675702   1.000000
    272        -17.674204   1.000000
    273        -17.673429   1.000000
    274        -17.672081   1.000000
    275        -17.671755   1.000000
    276        -17.670881   1.000000
    277        -17.669120   1.000000
    278        -17.668158   1.000000
    279        -17.665288   1.000000
    280        -17.662612   1.000000
    281        -17.659880   1.000000
    282        -17.654619   1.000000
    283        -17.653491   1.000000
    284        -17.652082   1.000000
    285        -17.650901   1.000000
    286        -17.649768   1.000000
    287        -17.644995   1.000000
    288        -17.644178   1.000000
    289        -17.641849   1.000000
    290        -17.640488   1.000000
    291        -17.639477   1.000000
    292        -17.639191   1.000000
    293        -17.638451   1.000000
    294        -17.637311   1.000000
    295        -17.636240   1.000000
    296        -17.632721   1.000000
    297        -17.629849   1.000000
    298        -17.629099   1.000000
    299        -17.628517   1.000000
    300        -17.627346   1.000000
    301        -17.626940   1.000000
    302        -17.622146   1.000000
    303        -17.620050   1.000000
    304        -17.611757   1.000000
    305        -17.609903   1.000000
    306        -17.608619   1.000000
    307        -17.605936   1.000000
    308        -17.604193   1.000000
    309        -17.603014   1.000000
    310        -17.601692   1.000000
    311        -17.600504   1.000000
    312        -17.595659   1.000000
    313        -17.588989   1.000000
    314        -17.588527   1.000000
    315        -17.587943   1.000000
    316        -17.585491   1.000000
    317        -17.584695   1.000000
    318        -17.584082   1.000000
    319        -17.583619   1.000000
    320        -17.582863   1.000000
    321        -17.581743   1.000000
    322        -17.580860   1.000000
    323        -17.579418   1.000000
    324        -17.579246   1.000000
    325        -17.578606   1.000000
    326        -17.577904   1.000000
    327        -17.577231   1.000000
    328        -17.574726   1.000000
    329        -17.573489   1.000000
    330        -17.572054   1.000000
    331        -17.570716   1.000000
    332        -17.570403   1.000000
    333        -17.569503   1.000000
    334        -17.567402   1.000000
    335        -17.566339   1.000000
    336        -17.565719   1.000000
    337        -17.565497   1.000000
    338        -17.564793   1.000000
    339        -17.562786   1.000000
    340        -17.562568   1.000000
    341        -17.562086   1.000000
    342        -17.561994   1.000000
    343        -17.560382   1.000000
    344        -17.559946   1.000000
    345        -17.559450   1.000000
    346        -17.556083   1.000000
    347        -17.554868   1.000000
    348        -17.554118   1.000000
    349        -17.553198   1.000000
    350        -17.547622   1.000000
    351        -17.547080   1.000000
    352        -17.546176   1.000000
    353        -17.544805   1.000000
    354        -17.537404   1.000000
    355        -17.536731   1.000000
    356        -17.535457   1.000000
    357        -17.534733   1.000000
    358        -17.533324   1.000000
    359        -17.531744   1.000000
    360        -17.526643   1.000000
    361        -17.523082   1.000000
    362        -17.520480   1.000000
    363        -17.518626   1.000000
    364        -17.516624   1.000000
    365        -17.515880   1.000000
    366        -17.514281   1.000000
    367        -17.513852   1.000000
    368        -17.512940   1.000000
    369        -17.511773   1.000000
    370        -17.492938   1.000000
    371        -17.491536   1.000000
    372        -17.490336   1.000000
    373        -17.488848   1.000000
    374        -17.488554   1.000000
    375        -17.487194   1.000000
    376        -17.486896   1.000000
    377        -17.469921   1.000000
    378        -17.467634   1.000000
    379        -17.466396   1.000000
    380        -17.461111   1.000000
    381        -17.448998   1.000000
    382        -17.448201   1.000000
    383        -17.443022   1.000000
    384        -17.430710   1.000000
    385          2.496384   1.000000
    386          3.675820   1.000000
    387          4.026276   1.000000
    388          4.112126   1.000000
    389          4.443839   1.000000
    390          4.509408   1.000000
    391          4.793267   1.000000
    392          4.794797   1.000000
    393          4.795320   1.000000
    394          4.910318   1.000000
    395          5.088542   1.000000
    396          5.159145   1.000000
    397          5.622362   1.000000
    398          5.625606   1.000000
    399          5.626889   1.000000
    400          5.666400   1.000000
    401          5.715377   1.000000
    402          5.790443   1.000000
    403          5.807035   1.000000
    404          5.917561   1.000000
    405          5.919329   1.000000
    406          5.921439   1.000000
    407          5.937516   1.000000
    408          5.957545   1.000000
    409          5.970642   1.000000
    410          5.989055   1.000000
    411          5.991680   1.000000
    412          5.993203   1.000000
    413          6.023135   1.000000
    414          6.051661   1.000000
    415          6.090400   1.000000
    416          6.168629   1.000000
    417          6.180795   1.000000
    418          6.181386   1.000000
    419          6.182045   1.000000
    420          6.183419   1.000000
    421          6.203862   1.000000
    422          6.213585   1.000000
    423          6.215627   1.000000
    424          6.235617   1.000000
    425          6.250323   1.000000
    426          6.285069   1.000000
    427          6.304629   1.000000
    428          6.315239   1.000000
    429          6.315599   1.000000
    430          6.390454   1.000000
    431          6.487370   1.000000
    432          6.489302   1.000000
    433          6.493633   1.000000
    434          6.519462   1.000000
    435          6.549275   1.000000
    436          6.555455   1.000000
    437          6.585488   1.000000
    438          6.588257   1.000000
    439          6.592454   1.000000
    440          6.626397   1.000000
    441          6.692261   1.000000
    442          6.695460   1.000000
    443          6.701570   1.000000
    444          6.703960   1.000000
    445          6.708036   1.000000
    446          6.719824   1.000000
    447          6.727521   1.000000
    448          6.738540   1.000000
    449          6.750267   1.000000
    450          6.774381   1.000000
    451          6.807531   1.000000
    452          6.811279   1.000000
    453          6.814415   1.000000
    454          6.835147   1.000000
    455          6.858854   1.000000
    456          6.873459   1.000000
    457          6.882001   1.000000
    458          6.884291   1.000000
    459          6.885787   1.000000
    460          6.900925   1.000000
    461          6.916950   1.000000
    462          6.922646   1.000000
    463          6.922757   1.000000
    464          6.947008   1.000000
    465          6.958707   1.000000
    466          6.981088   1.000000
    467          6.992299   1.000000
    468          6.996654   1.000000
    469          6.998719   1.000000
    470          7.000770   1.000000
    471          7.002045   1.000000
    472          7.056867   1.000000
    473          7.083889   1.000000
    474          7.085121   1.000000
    475          7.088231   1.000000
    476          7.090031   1.000000
    477          7.095295   1.000000
    478          7.123487   1.000000
    479          7.133149   1.000000
    480          7.196275   1.000000
    481          7.207249   1.000000
    482          7.216968   1.000000
    483          7.219171   1.000000
    484          7.289142   1.000000
    485          7.311250   1.000000
    486          7.400765   1.000000
    487          7.408003   1.000000
    488          7.478724   1.000000
    489          7.506715   1.000000
    490          7.519991   1.000000
    491          7.597592   1.000000
    492          7.616902   1.000000
    493          7.618923   1.000000
    494          7.622964   1.000000
    495          7.626982   1.000000
    496          7.627740   1.000000
    497          7.632178   1.000000
    498          7.636426   1.000000
    499          7.639383   1.000000
    500          7.643799   1.000000
    501          7.644694   1.000000
    502          7.646236   1.000000
    503          7.663662   1.000000
    504          7.710705   1.000000
    505          7.722878   1.000000
    506          7.723442   1.000000
    507          7.742909   1.000000
    508          7.743746   1.000000
    509          7.744940   1.000000
    510          7.748887   1.000000
    511          7.750846   1.000000
    512          7.752930   1.000000
    513          7.756981   1.000000
    514          7.759666   1.000000
    515          7.775916   1.000000
    516          7.778092   1.000000
    517          7.792665   1.000000
    518          7.814342   1.000000
    519          7.826975   1.000000
    520          7.891654   1.000000
    521          7.914013   1.000000
    522          7.941879   1.000000
    523          7.944210   1.000000
    524          8.056116   1.000000
    525          8.087854   1.000000
    526          8.099134   1.000000
    527          8.119413   1.000000
    528          8.140733   1.000000
    529          8.183402   1.000000
    530          8.185880   1.000000
    531          8.192980   1.000000
    532          8.202473   1.000001
    533          8.207494   1.000001
    534          8.208751   1.000001
    535          8.214851   1.000001
    536          8.215879   1.000001
    537          8.229198   1.000002
    538          8.234571   1.000002
    539          8.235910   1.000002
    540          8.237559   1.000002
    541          8.240043   1.000002
    542          8.308926   1.000022
    543          8.337580   1.000052
    544          8.340182   1.000056
    545          8.343306   1.000061
    546          8.360910   1.000100
    547          8.367229   1.000119
    548          8.372511   1.000138
    549          8.376107   1.000152
    550          8.376710   1.000155
    551          8.378121   1.000161
    552          8.379562   1.000167
    553          8.380480   1.000171
    554          8.392819   1.000237
    555          8.394977   1.000251
    556          8.400530   1.000289
    557          8.401939   1.000300
    558          8.402699   1.000306
    559          8.408139   1.000351
    560          8.484178   1.002022
    561          8.502298   1.002920
    562          8.506505   1.003171
    563          8.563347   1.008660
    564          8.587775   1.012484
    565          8.738613   1.032569
    566          8.754276   1.027113
    567          8.757235   1.025695
    568          8.759941   1.024280
    569          8.769552   1.018294
    570          8.773854   1.015098
    571          8.862034   0.859808
    572          8.901334   0.730719
    573          8.905610   0.714783
    574          8.909033   0.701799
    575          8.930417   0.616914
    576          8.942064   0.568652
    577          8.945327   0.554968
    578          8.953026   0.522509
    579          9.014924   0.270894
    580          9.029226   0.219949
    581          9.060710   0.123483
    582          9.066967   0.107155
    583          9.069313   0.101289
    584          9.071310   0.096402
    585          9.082090   0.071767
    586          9.085143   0.065321
    587          9.088717   0.058075
    588          9.091264   0.053105
    589          9.128488  -0.001905
    590          9.173323  -0.031254
    591          9.178394  -0.032646
    592          9.185401  -0.034069
    593          9.198261  -0.035357
    594          9.202288  -0.035454
    595          9.209535  -0.035314
    596          9.215613  -0.034921
    597          9.219334  -0.034571
    598          9.226772  -0.033657
    599          9.227288  -0.033584
    600          9.229273  -0.033293
    601          9.232306  -0.032817
    602          9.237198  -0.031980
    603          9.296405  -0.018973
    604          9.311038  -0.015875
    605          9.315111  -0.015061
    606          9.324734  -0.013234
    607          9.338882  -0.010809
    608          9.345288  -0.009816
    609          9.359930  -0.007792
    610          9.362906  -0.007422
    611          9.368778  -0.006730
    612          9.377903  -0.005756
    613          9.381279  -0.005424
    614          9.439571  -0.001743
    615          9.451454  -0.001349
    616          9.457253  -0.001187
    617          9.484337  -0.000635
    618          9.486274  -0.000607
    619          9.517910  -0.000277
    620          9.546557  -0.000129
    621          9.548109  -0.000124
    622          9.561164  -0.000086
    623          9.563413  -0.000081
    624          9.566340  -0.000075
    625          9.579646  -0.000051
    626          9.591041  -0.000036
    627          9.594650  -0.000033
    628          9.599043  -0.000029
    629          9.603301  -0.000025
    630          9.603696  -0.000025
    631          9.608837  -0.000021
    632          9.613804  -0.000018
    633          9.619752  -0.000015
    634          9.621915  -0.000014
    635          9.628581  -0.000011
    636          9.632475  -0.000010
    637          9.638055  -0.000008
    638          9.639604  -0.000008
    639          9.641285  -0.000008
    640          9.646689  -0.000006
    641          9.649902  -0.000006
    642          9.656911  -0.000005
    643          9.659709  -0.000004
    644          9.669308  -0.000003
    645          9.803817  -0.000000
    646          9.823348  -0.000000
    647          9.841660  -0.000000
    648          9.848426  -0.000000
    649          9.848561  -0.000000
    650          9.856350  -0.000000
    651          9.891713  -0.000000
    652          9.901222  -0.000000
    653          9.904075  -0.000000
    654          9.909192  -0.000000
    655          9.914387  -0.000000
    656          9.917541  -0.000000
    657          9.923238  -0.000000
    658          9.924557  -0.000000
    659          9.937822  -0.000000
    660          9.943523  -0.000000
    661          9.946831  -0.000000
    662          9.948344  -0.000000
    663         10.012840  -0.000000
    664         10.015413  -0.000000
    665         10.025008  -0.000000
    666         10.033332  -0.000000
    667         10.035017  -0.000000
    668         10.036411  -0.000000
    669         10.092903  -0.000000
    670         10.111393  -0.000000
    671         10.113120  -0.000000
    672         10.126720  -0.000000
    673         10.128926  -0.000000
    674         10.129948  -0.000000
    675         10.134773  -0.000000
    676         10.160635  -0.000000
    677         10.166889  -0.000000
    678         10.172557  -0.000000
    679         10.181323  -0.000000
    680         10.194595  -0.000000
    681         10.204970  -0.000000
    682         10.210737  -0.000000
    683         10.215169  -0.000000
    684         10.231446  -0.000000
    685         10.232334  -0.000000
    686         10.234249  -0.000000
    687         10.287410  -0.000000
    688         10.320570  -0.000000
    689         10.324962  -0.000000
    690         10.331022  -0.000000
    691         10.336847  -0.000000
 
  0.5000000E+00  0.2500000E+00  0.0000000E+00  0.4166667E-01
      1        -39.893649   1.000000
      2        -39.878072   1.000000
      3        -39.872248   1.000000
      4        -39.860587   1.000000
      5        -39.854848   1.000000
      6        -39.847093   1.000000
      7        -39.843455   1.000000
      8        -39.842016   1.000000
      9        -39.838316   1.000000
     10        -39.834702   1.000000
     11        -39.832616   1.000000
     12        -39.819765   1.000000
     13        -39.815134   1.000000
     14        -39.811961   1.000000
     15        -39.808780   1.000000
     16        -39.804881   1.000000
     17        -39.803687   1.000000
     18        -39.801027   1.000000
     19        -39.799217   1.000000
     20        -39.794850   1.000000
     21        -39.792340   1.000000
     22        -39.788503   1.000000
     23        -39.786727   1.000000
     24        -39.784827   1.000000
     25        -39.783964   1.000000
     26        -39.782843   1.000000
     27        -39.781631   1.000000
     28        -39.780209   1.000000
     29        -39.779582   1.000000
     30        -39.779044   1.000000
     31        -39.777622   1.000000
     32        -39.776858   1.000000
     33        -39.775157   1.000000
     34        -39.772873   1.000000
     35        -39.771486   1.000000
     36        -39.769858   1.000000
     37        -39.768687   1.000000
     38        -39.767906   1.000000
     39        -39.766786   1.000000
     40        -39.765875   1.000000
     41        -39.765177   1.000000
     42        -39.763586   1.000000
     43        -39.761790   1.000000
     44        -39.760438   1.000000
     45        -39.757740   1.000000
     46        -39.755535   1.000000
     47        -39.754885   1.000000
     48        -39.754311   1.000000
     49        -39.752969   1.000000
     50        -39.751607   1.000000
     51        -39.750889   1.000000
     52        -39.750063   1.000000
     53        -39.748581   1.000000
     54        -39.747016   1.000000
     55        -39.746263   1.000000
     56        -39.745827   1.000000
     57        -39.745131   1.000000
     58        -39.744313   1.000000
     59        -39.742815   1.000000
     60        -39.742750   1.000000
     61        -39.741557   1.000000
     62        -39.740813   1.000000
     63        -39.739739   1.000000
     64        -39.738814   1.000000
     65        -39.737574   1.000000
     66        -39.736698   1.000000
     67        -39.736326   1.000000
     68        -39.735223   1.000000
     69        -39.734930   1.000000
     70        -39.734429   1.000000
     71        -39.733707   1.000000
     72        -39.732901   1.000000
     73        -39.732201   1.000000
     74        -39.731537   1.000000
     75        -39.730899   1.000000
     76        -39.730170   1.000000
     77        -39.729510   1.000000
     78        -39.729207   1.000000
     79        -39.728764   1.000000
     80        -39.728328   1.000000
     81        -39.727527   1.000000
     82        -39.727077   1.000000
     83        -39.726565   1.000000
     84        -39.725000   1.000000
     85        -39.724283   1.000000
     86        -39.723106   1.000000
     87        -39.721240   1.000000
     88        -39.720319   1.000000
     89        -39.718064   1.000000
     90        -39.717791   1.000000
     91        -39.716563   1.000000
     92        -39.716343   1.000000
     93        -39.715698   1.000000
     94        -39.714640   1.000000
     95        -39.714114   1.000000
     96        -39.713101   1.000000
     97        -18.380967   1.000000
     98        -18.338687   1.000000
     99        -18.333978   1.000000
    100        -18.300855   1.000000
    101        -18.297131   1.000000
    102        -18.287016   1.000000
    103        -18.283814   1.000000
    104        -18.283212   1.000000
    105        -18.282508   1.000000
    106        -18.258307   1.000000
    107        -18.255077   1.000000
    108        -18.253264   1.000000
    109        -18.252337   1.000000
    110        -18.242687   1.000000
    111        -18.242047   1.000000
    112        -18.239374   1.000000
    113        -18.238101   1.000000
    114        -18.230595   1.000000
    115        -18.229412   1.000000
    116        -18.226369   1.000000
    117        -18.225026   1.000000
    118        -18.216399   1.000000
    119        -18.215700   1.000000
    120        -18.214222   1.000000
    121        -18.210668   1.000000
    122        -18.208669   1.000000
    123        -18.190725   1.000000
    124        -18.187309   1.000000
    125        -18.186778   1.000000
    126        -18.182131   1.000000
    127        -18.181737   1.000000
    128        -18.181264   1.000000
    129        -18.180464   1.000000
    130        -18.179425   1.000000
    131        -18.179221   1.000000
    132        -18.179001   1.000000
    133        -18.177592   1.000000
    134        -18.177053   1.000000
    135        -18.175919   1.000000
    136        -18.173228   1.000000
    137        -18.171572   1.000000
    138        -18.169550   1.000000
    139        -18.165506   1.000000
    140        -18.164143   1.000000
    141        -18.163174   1.000000
    142        -18.162237   1.000000
    143        -18.161841   1.000000
    144        -18.160548   1.000000
    145        -18.159016   1.000000
    146        -18.157618   1.000000
    147        -18.156606   1.000000
    148        -18.155297   1.000000
    149        -18.152457   1.000000
    150        -18.151125   1.000000
    151        -18.146392   1.000000
    152        -18.146051   1.000000
    153        -18.145071   1.000000
    154        -18.143917   1.000000
    155        -18.142921   1.000000
    156        -18.125561   1.000000
    157        -18.123238   1.000000
    158        -18.118375   1.000000
    159        -18.116504   1.000000
    160        -18.115223   1.000000
    161        -18.108589   1.000000
    162        -18.106883   1.000000
    163        -18.103834   1.000000
    164        -18.103221   1.000000
    165        -18.089653   1.000000
    166        -18.088048   1.000000
    167        -18.061797   1.000000
    168        -18.057048   1.000000
    169        -18.054645   1.000000
    170        -18.052936   1.000000
    171        -18.049666   1.000000
    172        -18.041853   1.000000
    173        -18.041281   1.000000
    174        -18.025042   1.000000
    175        -18.022596   1.000000
    176        -18.019393   1.000000
    177        -18.017949   1.000000
    178        -18.017115   1.000000
    179        -18.016561   1.000000
    180        -17.993590   1.000000
    181        -17.992376   1.000000
    182        -17.983238   1.000000
    183        -17.973222   1.000000
    184        -17.970723   1.000000
    185        -17.970220   1.000000
    186        -17.968630   1.000000
    187        -17.964861   1.000000
    188        -17.963138   1.000000
    189        -17.957690   1.000000
    190        -17.946690   1.000000
    191        -17.945266   1.000000
    192        -17.941768   1.000000
    193        -17.939455   1.000000
    194        -17.938557   1.000000
    195        -17.906735   1.000000
    196        -17.904836   1.000000
    197        -17.904140   1.000000
    198        -17.902462   1.000000
    199        -17.901399   1.000000
    200        -17.901001   1.000000
    201        -17.874032   1.000000
    202        -17.871018   1.000000
    203        -17.869628   1.000000
    204        -17.867844   1.000000
    205        -17.859006   1.000000
    206        -17.850220   1.000000
    207        -17.849954   1.000000
    208        -17.841761   1.000000
    209        -17.841155   1.000000
    210        -17.822200   1.000000
    211        -17.819899   1.000000
    212        -17.816609   1.000000
    213        -17.815792   1.000000
    214        -17.813056   1.000000
    215        -17.807347   1.000000
    216        -17.804977   1.000000
    217        -17.803298   1.000000
    218        -17.801100   1.000000
    219        -17.800079   1.000000
    220        -17.797781   1.000000
    221        -17.797531   1.000000
    222        -17.796234   1.000000
    223        -17.794207   1.000000
    224        -17.791566   1.000000
    225        -17.790769   1.000000
    226        -17.790022   1.000000
    227        -17.787171   1.000000
    228        -17.782560   1.000000
    229        -17.778124   1.000000
    230        -17.774796   1.000000
    231        -17.773367   1.000000
    232        -17.772701   1.000000
    233        -17.771447   1.000000
    234        -17.770347   1.000000
    235        -17.769456   1.000000
    236        -17.766882   1.000000
    237        -17.762004   1.000000
    238        -17.760775   1.000000
    239        -17.759739   1.000000
    240        -17.758276   1.000000
    241        -17.755788   1.000000
    242        -17.753378   1.000000
    243        -17.740457   1.000000
    244        -17.739336   1.000000
    245        -17.733341   1.000000
    246        -17.729112   1.000000
    247        -17.728165   1.000000
    248        -17.727014   1.000000
    249        -17.726374   1.000000
    250        -17.725020   1.000000
    251        -17.723570   1.000000
    252        -17.722994   1.000000
    253        -17.718811   1.000000
    254        -17.717558   1.000000
    255        -17.713796   1.000000
    256        -17.712125   1.000000
    257        -17.706076   1.000000
    258        -17.704648   1.000000
    259        -17.702317   1.000000
    260        -17.699826   1.000000
    261        -17.697974   1.000000
    262        -17.697318   1.000000
    263        -17.694700   1.000000
    264        -17.693864   1.000000
    265        -17.687518   1.000000
    266        -17.686551   1.000000
    267        -17.683311   1.000000
    268        -17.682440   1.000000
    269        -17.681341   1.000000
    270        -17.680872   1.000000
    271        -17.675734   1.000000
    272        -17.674558   1.000000
    273        -17.673959   1.000000
    274        -17.672186   1.000000
    275        -17.671947   1.000000
    276        -17.670661   1.000000
    277        -17.669088   1.000000
    278        -17.667722   1.000000
    279        -17.665358   1.000000
    280        -17.662675   1.000000
    281        -17.659418   1.000000
    282        -17.654535   1.000000
    283        -17.653689   1.000000
    284        -17.651555   1.000000
    285        -17.650647   1.000000
    286        -17.649514   1.000000
    287        -17.644958   1.000000
    288        -17.644278   1.000000
    289        -17.641304   1.000000
    290        -17.640458   1.000000
    291        -17.639751   1.000000
    292        -17.639110   1.000000
    293        -17.638473   1.000000
    294        -17.637551   1.000000
    295        -17.636985   1.000000
    296        -17.632936   1.000000
    297        -17.629483   1.000000
    298        -17.628945   1.000000
    299        -17.628650   1.000000
    300        -17.627749   1.000000
    301        -17.626943   1.000000
    302        -17.621306   1.000000
    303        -17.620157   1.000000
    304        -17.611755   1.000000
    305        -17.609790   1.000000
    306        -17.609145   1.000000
    307        -17.606001   1.000000
    308        -17.604043   1.000000
    309        -17.603051   1.000000
    310        -17.601461   1.000000
    311        -17.600822   1.000000
    312        -17.595284   1.000000
    313        -17.589280   1.000000
    314        -17.588535   1.000000
    315        -17.587792   1.000000
    316        -17.586631   1.000000
    317        -17.584812   1.000000
    318        -17.584210   1.000000
    319        -17.583314   1.000000
    320        -17.583065   1.000000
    321        -17.581648   1.000000
    322        -17.580833   1.000000
    323        -17.579280   1.000000
    324        -17.579130   1.000000
    325        -17.578443   1.000000
    326        -17.578094   1.000000
    327        -17.577127   1.000000
    328        -17.574140   1.000000
    329        -17.573406   1.000000
    330        -17.572065   1.000000
    331        -17.571200   1.000000
    332        -17.570899   1.000000
    333        -17.570223   1.000000
    334        -17.567422   1.000000
    335        -17.566667   1.000000
    336        -17.565677   1.000000
    337        -17.565054   1.000000
    338        -17.564835   1.000000
    339        -17.562851   1.000000
    340        -17.562591   1.000000
    341        -17.562154   1.000000
    342        -17.561487   1.000000
    343        -17.560384   1.000000
    344        -17.560016   1.000000
    345        -17.559530   1.000000
    346        -17.556077   1.000000
    347        -17.554919   1.000000
    348        -17.553875   1.000000
    349        -17.553111   1.000000
    350        -17.547829   1.000000
    351        -17.547256   1.000000
    352        -17.545414   1.000000
    353        -17.545253   1.000000
    354        -17.537372   1.000000
    355        -17.536402   1.000000
    356        -17.535632   1.000000
    357        -17.534666   1.000000
    358        -17.533233   1.000000
    359        -17.531756   1.000000
    360        -17.526203   1.000000
    361        -17.523158   1.000000
    362        -17.520597   1.000000
    363        -17.519121   1.000000
    364        -17.516183   1.000000
    365        -17.515896   1.000000
    366        -17.514102   1.000000
    367        -17.513860   1.000000
    368        -17.512694   1.000000
    369        -17.511850   1.000000
    370        -17.493096   1.000000
    371        -17.491378   1.000000
    372        -17.490366   1.000000
    373        -17.489134   1.000000
    374        -17.488517   1.000000
    375        -17.487114   1.000000
    376        -17.486523   1.000000
    377        -17.469956   1.000000
    378        -17.467643   1.000000
    379        -17.466261   1.000000
    380        -17.461299   1.000000
    381        -17.448661   1.000000
    382        -17.448521   1.000000
    383        -17.443003   1.000000
    384        -17.430810   1.000000
    385          2.496144   1.000000
    386          3.676111   1.000000
    387          4.026438   1.000000
    388          4.112019   1.000000
    389          4.443820   1.000000
    390          4.509808   1.000000
    391          4.793233   1.000000
    392          4.795049   1.000000
    393          4.795341   1.000000
    394          4.911087   1.000000
    395          5.088790   1.000000
    396          5.156927   1.000000
    397          5.623126   1.000000
    398          5.625575   1.000000
    399          5.626915   1.000000
    400          5.664579   1.000000
    401          5.714628   1.000000
    402          5.790743   1.000000
    403          5.807784   1.000000
    404          5.917265   1.000000
    405          5.919045   1.000000
    406          5.921447   1.000000
    407          5.937397   1.000000
    408          5.957557   1.000000
    409          5.970109   1.000000
    410          5.989642   1.000000
    411          5.991402   1.000000
    412          5.993291   1.000000
    413          6.024187   1.000000
    414          6.051631   1.000000
    415          6.093917   1.000000
    416          6.169837   1.000000
    417          6.180343   1.000000
    418          6.181177   1.000000
    419          6.181931   1.000000
    420          6.183441   1.000000
    421          6.202956   1.000000
    422          6.213105   1.000000
    423          6.216404   1.000000
    424          6.237745   1.000000
    425          6.249252   1.000000
    426          6.283931   1.000000
    427          6.304372   1.000000
    428          6.315373   1.000000
    429          6.315515   1.000000
    430          6.388245   1.000000
    431          6.486954   1.000000
    432          6.489412   1.000000
    433          6.493349   1.000000
    434          6.519846   1.000000
    435          6.549115   1.000000
    436          6.555667   1.000000
    437          6.584667   1.000000
    438          6.588030   1.000000
    439          6.592338   1.000000
    440          6.628612   1.000000
    441          6.692714   1.000000
    442          6.695375   1.000000
    443          6.701578   1.000000
    444          6.703613   1.000000
    445          6.707903   1.000000
    446          6.721879   1.000000
    447          6.727638   1.000000
    448          6.737906   1.000000
    449          6.751080   1.000000
    450          6.773044   1.000000
    451          6.808684   1.000000
    452          6.811723   1.000000
    453          6.814471   1.000000
    454          6.833286   1.000000
    455          6.859079   1.000000
    456          6.874040   1.000000
    457          6.882554   1.000000
    458          6.884216   1.000000
    459          6.885534   1.000000
    460          6.901577   1.000000
    461          6.917569   1.000000
    462          6.922332   1.000000
    463          6.922611   1.000000
    464          6.946865   1.000000
    465          6.959128   1.000000
    466          6.980624   1.000000
    467          6.993921   1.000000
    468          6.996926   1.000000
    469          6.997773   1.000000
    470          7.001035   1.000000
    471          7.002366   1.000000
    472          7.055739   1.000000
    473          7.083256   1.000000
    474          7.084849   1.000000
    475          7.088078   1.000000
    476          7.089872   1.000000
    477          7.094033   1.000000
    478          7.121681   1.000000
    479          7.132557   1.000000
    480          7.198013   1.000000
    481          7.207070   1.000000
    482          7.217712   1.000000
    483          7.218976   1.000000
    484          7.291148   1.000000
    485          7.311678   1.000000
    486          7.401436   1.000000
    487          7.407474   1.000000
    488          7.476548   1.000000
    489          7.506384   1.000000
    490          7.523184   1.000000
    491          7.598607   1.000000
    492          7.616744   1.000000
    493          7.618575   1.000000
    494          7.622299   1.000000
    495          7.627384   1.000000
    496          7.628521   1.000000
    497          7.632568   1.000000
    498          7.636208   1.000000
    499          7.638669   1.000000
    500          7.643956   1.000000
    501          7.644776   1.000000
    502          7.646380   1.000000
    503          7.663743   1.000000
    504          7.703861   1.000000
    505          7.721948   1.000000
    506          7.725797   1.000000
    507          7.741378   1.000000
    508          7.744592   1.000000
    509          7.745210   1.000000
    510          7.748043   1.000000
    511          7.751126   1.000000
    512          7.753244   1.000000
    513          7.756783   1.000000
    514          7.759484   1.000000
    515          7.776757   1.000000
    516          7.778207   1.000000
    517          7.792850   1.000000
    518          7.813593   1.000000
    519          7.826731   1.000000
    520          7.890048   1.000000
    521          7.913253   1.000000
    522          7.942058   1.000000
    523          7.943114   1.000000
    524          8.057190   1.000000
    525          8.086805   1.000000
    526          8.097038   1.000000
    527          8.119033   1.000000
    528          8.144385   1.000000
    529          8.184009   1.000000
    530          8.186347   1.000000
    531          8.192760   1.000000
    532          8.201557   1.000001
    533          8.208147   1.000001
    534          8.210016   1.000001
    535          8.215059   1.000001
    536          8.216099   1.000001
    537          8.231405   1.000002
    538          8.233083   1.000002
    539          8.235713   1.000002
    540          8.236436   1.000002
    541          8.238931   1.000002
    542          8.310905   1.000023
    543          8.337099   1.000051
    544          8.340243   1.000056
    545          8.343188   1.000061
    546          8.359818   1.000097
    547          8.367398   1.000120
    548          8.373383   1.000141
    549          8.374824   1.000147
    550          8.377168   1.000157
    551          8.378741   1.000163
    552          8.380170   1.000170
    553          8.380675   1.000172
    554          8.392774   1.000237
    555          8.394652   1.000249
    556          8.399443   1.000281
    557          8.400223   1.000287
    558          8.402361   1.000303
    559          8.407427   1.000345
    560          8.484142   1.002021
    561          8.502917   1.002956
    562          8.506401   1.003164
    563          8.563465   1.008676
    564          8.587788   1.012486
    565          8.744181   1.031002
    566          8.754963   1.026795
    567          8.755641   1.026475
    568          8.758654   1.024967
    569          8.770008   1.017971
    570          8.773414   1.015440
    571          8.859483   0.866963
    572          8.899968   0.735742
    573          8.905033   0.716950
    574          8.907484   0.707699
    575          8.934252   0.601143
    576          8.940957   0.573279
    577          8.944079   0.560208
    578          8.952740   0.523718
    579          9.022332   0.244008
    580          9.029171   0.220136
    581          9.057445   0.132391
    582          9.067385   0.106099
    583          9.069987   0.099628
    584          9.072368   0.093855
    585          9.082427   0.071044
    586          9.085848   0.063867
    587          9.088918   0.057678
    588          9.089981   0.055588
    589          9.129843  -0.003326
    590          9.160013  -0.025970
    591          9.182127  -0.033473
    592          9.185456  -0.034078
    593          9.198406  -0.035363
    594          9.203579  -0.035458
    595          9.212032  -0.035181
    596          9.216722  -0.034825
    597          9.219983  -0.034503
    598          9.225928  -0.033774
    599          9.227303  -0.033582
    600          9.229756  -0.033220
    601          9.232769  -0.032742
    602          9.236491  -0.032106
    603          9.286883  -0.021106
    604          9.313557  -0.015369
    605          9.316578  -0.014774
    606          9.334162  -0.011583
    607          9.336462  -0.011201
    608          9.343291  -0.010118
    609          9.359950  -0.007790
    610          9.363668  -0.007329
    611          9.366656  -0.006974
    612          9.377901  -0.005756
    613          9.381338  -0.005419
    614          9.439761  -0.001736
    615          9.449282  -0.001415
    616          9.459633  -0.001125
    617          9.483954  -0.000641
    618          9.487016  -0.000596
    619          9.528801  -0.000208
    620          9.538022  -0.000163
    621          9.549222  -0.000120
    622          9.561162  -0.000086
    623          9.562314  -0.000084
    624          9.566498  -0.000074
    625          9.580655  -0.000049
    626          9.589333  -0.000038
    627          9.595503  -0.000032
    628          9.597847  -0.000030
    629          9.603505  -0.000025
    630          9.604681  -0.000024
    631          9.610291  -0.000020
    632          9.612659  -0.000019
    633          9.621137  -0.000015
    634          9.622557  -0.000014
    635          9.629093  -0.000011
    636          9.633153  -0.000010
    637          9.639278  -0.000008
    638          9.640265  -0.000008
    639          9.642321  -0.000007
    640          9.647000  -0.000006
    641          9.649980  -0.000006
    642          9.658013  -0.000004
    643          9.659972  -0.000004
    644          9.669517  -0.000003
    645          9.807158  -0.000000
    646          9.819865  -0.000000
    647          9.843468  -0.000000
    648          9.845369  -0.000000
    649          9.847823  -0.000000
    650          9.855663  -0.000000
    651          9.885955  -0.000000
    652          9.900851  -0.000000
    653          9.903238  -0.000000
    654          9.907767  -0.000000
    655          9.914194  -0.000000
    656          9.918327  -0.000000
    657          9.923668  -0.000000
    658          9.924437  -0.000000
    659          9.940981  -0.000000
    660          9.942663  -0.000000
    661          9.948161  -0.000000
    662          9.949389  -0.000000
    663         10.010018  -0.000000
    664         10.016117  -0.000000
    665         10.024154  -0.000000
    666         10.033289  -0.000000
    667         10.035830  -0.000000
    668         10.036769  -0.000000
    669         10.100730  -0.000000
    670         10.110272  -0.000000
    671         10.111871  -0.000000
    672         10.127297  -0.000000
    673         10.129526  -0.000000
    674         10.129634  -0.000000
    675         10.134648  -0.000000
    676         10.160307  -0.000000
    677         10.167617  -0.000000
    678         10.173691  -0.000000
    679         10.180839  -0.000000
    680         10.197688  -0.000000
    681         10.202841  -0.000000
    682         10.211213  -0.000000
    683         10.213319  -0.000000
    684         10.230087  -0.000000
    685         10.230825  -0.000000
    686         10.233070  -0.000000
    687         10.283239  -0.000000
    688         10.321386  -0.000000
    689         10.324162  -0.000000
    690         10.328089  -0.000000
    691         10.331884  -0.000000
 
  0.0000000E+00  0.0000000E+00  0.3333333E+00  0.4166667E-01
      1        -39.900694   1.000000
      2        -39.887222   1.000000
      3        -39.856083   1.000000
      4        -39.849623   1.000000
      5        -39.841304   1.000000
      6        -39.840143   1.000000
      7        -39.837689   1.000000
      8        -39.836448   1.000000
      9        -39.836086   1.000000
     10        -39.834171   1.000000
     11        -39.833357   1.000000
     12        -39.830402   1.000000
     13        -39.827117   1.000000
     14        -39.826081   1.000000
     15        -39.825628   1.000000
     16        -39.817191   1.000000
     17        -39.807485   1.000000
     18        -39.807212   1.000000
     19        -39.798664   1.000000
     20        -39.795106   1.000000
     21        -39.793936   1.000000
     22        -39.793025   1.000000
     23        -39.790207   1.000000
     24        -39.788623   1.000000
     25        -39.780713   1.000000
     26        -39.778080   1.000000
     27        -39.776389   1.000000
     28        -39.774496   1.000000
     29        -39.774261   1.000000
     30        -39.773781   1.000000
     31        -39.772481   1.000000
     32        -39.768657   1.000000
     33        -39.768538   1.000000
     34        -39.766948   1.000000
     35        -39.766555   1.000000
     36        -39.766195   1.000000
     37        -39.766104   1.000000
     38        -39.765481   1.000000
     39        -39.764471   1.000000
     40        -39.764296   1.000000
     41        -39.763997   1.000000
     42        -39.763487   1.000000
     43        -39.761877   1.000000
     44        -39.760641   1.000000
     45        -39.760509   1.000000
     46        -39.759889   1.000000
     47        -39.759621   1.000000
     48        -39.755467   1.000000
     49        -39.755310   1.000000
     50        -39.754595   1.000000
     51        -39.750194   1.000000
     52        -39.749050   1.000000
     53        -39.747487   1.000000
     54        -39.746359   1.000000
     55        -39.746261   1.000000
     56        -39.745689   1.000000
     57        -39.745661   1.000000
     58        -39.745183   1.000000
     59        -39.744109   1.000000
     60        -39.744074   1.000000
     61        -39.742799   1.000000
     62        -39.742326   1.000000
     63        -39.741049   1.000000
     64        -39.740149   1.000000
     65        -39.739694   1.000000
     66        -39.737867   1.000000
     67        -39.737580   1.000000
     68        -39.737484   1.000000
     69        -39.736998   1.000000
     70        -39.736503   1.000000
     71        -39.736147   1.000000
     72        -39.735673   1.000000
     73        -39.734372   1.000000
     74        -39.733310   1.000000
     75        -39.733015   1.000000
     76        -39.730038   1.000000
     77        -39.729696   1.000000
     78        -39.728784   1.000000
     79        -39.726965   1.000000
     80        -39.726894   1.000000
     81        -39.723849   1.000000
     82        -39.723221   1.000000
     83        -39.722982   1.000000
     84        -39.722872   1.000000
     85        -39.722144   1.000000
     86        -39.721962   1.000000
     87        -39.721734   1.000000
     88        -39.719630   1.000000
     89        -39.718833   1.000000
     90        -39.717848   1.000000
     91        -39.717635   1.000000
     92        -39.716822   1.000000
     93        -39.715641   1.000000
     94        -39.714928   1.000000
     95        -39.714735   1.000000
     96        -39.713718   1.000000
     97        -18.387916   1.000000
     98        -18.331608   1.000000
     99        -18.326472   1.000000
    100        -18.326470   1.000000
    101        -18.314301   1.000000
    102        -18.308177   1.000000
    103        -18.308158   1.000000
    104        -18.306436   1.000000
    105        -18.295592   1.000000
    106        -18.292698   1.000000
    107        -18.292684   1.000000
    108        -18.272579   1.000000
    109        -18.267982   1.000000
    110        -18.267716   1.000000
    111        -18.241111   1.000000
    112        -18.238591   1.000000
    113        -18.237409   1.000000
    114        -18.234078   1.000000
    115        -18.233829   1.000000
    116        -18.232985   1.000000
    117        -18.216090   1.000000
    118        -18.215827   1.000000
    119        -18.215304   1.000000
    120        -18.212947   1.000000
    121        -18.212552   1.000000
    122        -18.211951   1.000000
    123        -18.210356   1.000000
    124        -18.210021   1.000000
    125        -18.209294   1.000000
    126        -18.206552   1.000000
    127        -18.205949   1.000000
    128        -18.205732   1.000000
    129        -18.196565   1.000000
    130        -18.196304   1.000000
    131        -18.195601   1.000000
    132        -18.192761   1.000000
    133        -18.192547   1.000000
    134        -18.192101   1.000000
    135        -18.171311   1.000000
    136        -18.168581   1.000000
    137        -18.168438   1.000000
    138        -18.163327   1.000000
    139        -18.163089   1.000000
    140        -18.161697   1.000000
    141        -18.161552   1.000000
    142        -18.159953   1.000000
    143        -18.159932   1.000000
    144        -18.128690   1.000000
    145        -18.125390   1.000000
    146        -18.124763   1.000000
    147        -18.123431   1.000000
    148        -18.122622   1.000000
    149        -18.122593   1.000000
    150        -18.110095   1.000000
    151        -18.107321   1.000000
    152        -18.106611   1.000000
    153        -18.106427   1.000000
    154        -18.105327   1.000000
    155        -18.104085   1.000000
    156        -18.103528   1.000000
    157        -18.102933   1.000000
    158        -18.102893   1.000000
    159        -18.102281   1.000000
    160        -18.101686   1.000000
    161        -18.100490   1.000000
    162        -18.099031   1.000000
    163        -18.098754   1.000000
    164        -18.096770   1.000000
    165        -18.096207   1.000000
    166        -18.096141   1.000000
    167        -18.094844   1.000000
    168        -18.094825   1.000000
    169        -18.094155   1.000000
    170        -18.093849   1.000000
    171        -18.025856   1.000000
    172        -18.023882   1.000000
    173        -18.023595   1.000000
    174        -18.022934   1.000000
    175        -18.018508   1.000000
    176        -18.018237   1.000000
    177        -18.017843   1.000000
    178        -17.952022   1.000000
    179        -17.951175   1.000000
    180        -17.949070   1.000000
    181        -17.916355   1.000000
    182        -17.916175   1.000000
    183        -17.913205   1.000000
    184        -17.913189   1.000000
    185        -17.912303   1.000000
    186        -17.910092   1.000000
    187        -17.896200   1.000000
    188        -17.895391   1.000000
    189        -17.892263   1.000000
    190        -17.891624   1.000000
    191        -17.887651   1.000000
    192        -17.886307   1.000000
    193        -17.885198   1.000000
    194        -17.880514   1.000000
    195        -17.880075   1.000000
    196        -17.878733   1.000000
    197        -17.878685   1.000000
    198        -17.877918   1.000000
    199        -17.877103   1.000000
    200        -17.876427   1.000000
    201        -17.874165   1.000000
    202        -17.871038   1.000000
    203        -17.870895   1.000000
    204        -17.869969   1.000000
    205        -17.866785   1.000000
    206        -17.866246   1.000000
    207        -17.864221   1.000000
    208        -17.863654   1.000000
    209        -17.856427   1.000000
    210        -17.855331   1.000000
    211        -17.855248   1.000000
    212        -17.852718   1.000000
    213        -17.852643   1.000000
    214        -17.852359   1.000000
    215        -17.850853   1.000000
    216        -17.850618   1.000000
    217        -17.848502   1.000000
    218        -17.848478   1.000000
    219        -17.848029   1.000000
    220        -17.843734   1.000000
    221        -17.830756   1.000000
    222        -17.829405   1.000000
    223        -17.829223   1.000000
    224        -17.828834   1.000000
    225        -17.827699   1.000000
    226        -17.827645   1.000000
    227        -17.823182   1.000000
    228        -17.821721   1.000000
    229        -17.820924   1.000000
    230        -17.820732   1.000000
    231        -17.819668   1.000000
    232        -17.819411   1.000000
    233        -17.812465   1.000000
    234        -17.812279   1.000000
    235        -17.810656   1.000000
    236        -17.807476   1.000000
    237        -17.807318   1.000000
    238        -17.806893   1.000000
    239        -17.784699   1.000000
    240        -17.784234   1.000000
    241        -17.783174   1.000000
    242        -17.782962   1.000000
    243        -17.782299   1.000000
    244        -17.780372   1.000000
    245        -17.755812   1.000000
    246        -17.754637   1.000000
    247        -17.754088   1.000000
    248        -17.735862   1.000000
    249        -17.734895   1.000000
    250        -17.734305   1.000000
    251        -17.705690   1.000000
    252        -17.703756   1.000000
    253        -17.702833   1.000000
    254        -17.697231   1.000000
    255        -17.696652   1.000000
    256        -17.695894   1.000000
    257        -17.693144   1.000000
    258        -17.692536   1.000000
    259        -17.691836   1.000000
    260        -17.688246   1.000000
    261        -17.688190   1.000000
    262        -17.686822   1.000000
    263        -17.686687   1.000000
    264        -17.686214   1.000000
    265        -17.685878   1.000000
    266        -17.684779   1.000000
    267        -17.684024   1.000000
    268        -17.683852   1.000000
    269        -17.682004   1.000000
    270        -17.681943   1.000000
    271        -17.681565   1.000000
    272        -17.669957   1.000000
    273        -17.668954   1.000000
    274        -17.667401   1.000000
    275        -17.664211   1.000000
    276        -17.663673   1.000000
    277        -17.659741   1.000000
    278        -17.659633   1.000000
    279        -17.657121   1.000000
    280        -17.656507   1.000000
    281        -17.656359   1.000000
    282        -17.655544   1.000000
    283        -17.653988   1.000000
    284        -17.650917   1.000000
    285        -17.650481   1.000000
    286        -17.646864   1.000000
    287        -17.645347   1.000000
    288        -17.644695   1.000000
    289        -17.642936   1.000000
    290        -17.642832   1.000000
    291        -17.641333   1.000000
    292        -17.640838   1.000000
    293        -17.640164   1.000000
    294        -17.639976   1.000000
    295        -17.638456   1.000000
    296        -17.637975   1.000000
    297        -17.637620   1.000000
    298        -17.637009   1.000000
    299        -17.636803   1.000000
    300        -17.636225   1.000000
    301        -17.630229   1.000000
    302        -17.626221   1.000000
    303        -17.625728   1.000000
    304        -17.625454   1.000000
    305        -17.620957   1.000000
    306        -17.620272   1.000000
    307        -17.619297   1.000000
    308        -17.616707   1.000000
    309        -17.616226   1.000000
    310        -17.615470   1.000000
    311        -17.614446   1.000000
    312        -17.614135   1.000000
    313        -17.613727   1.000000
    314        -17.613540   1.000000
    315        -17.611921   1.000000
    316        -17.610641   1.000000
    317        -17.599615   1.000000
    318        -17.599585   1.000000
    319        -17.596120   1.000000
    320        -17.596002   1.000000
    321        -17.595163   1.000000
    322        -17.595064   1.000000
    323        -17.586946   1.000000
    324        -17.586813   1.000000
    325        -17.584287   1.000000
    326        -17.583197   1.000000
    327        -17.583081   1.000000
    328        -17.580271   1.000000
    329        -17.579652   1.000000
    330        -17.579649   1.000000
    331        -17.577602   1.000000
    332        -17.577364   1.000000
    333        -17.576059   1.000000
    334        -17.575898   1.000000
    335        -17.556360   1.000000
    336        -17.555646   1.000000
    337        -17.555196   1.000000
    338        -17.553684   1.000000
    339        -17.551864   1.000000
    340        -17.551803   1.000000
    341        -17.550975   1.000000
    342        -17.550637   1.000000
    343        -17.549866   1.000000
    344        -17.548591   1.000000
    345        -17.548497   1.000000
    346        -17.546257   1.000000
    347        -17.539142   1.000000
    348        -17.539087   1.000000
    349        -17.536242   1.000000
    350        -17.534272   1.000000
    351        -17.532643   1.000000
    352        -17.532280   1.000000
    353        -17.529450   1.000000
    354        -17.529044   1.000000
    355        -17.526255   1.000000
    356        -17.525622   1.000000
    357        -17.525004   1.000000
    358        -17.518745   1.000000
    359        -17.512857   1.000000
    360        -17.511974   1.000000
    361        -17.510523   1.000000
    362        -17.509920   1.000000
    363        -17.508970   1.000000
    364        -17.499941   1.000000
    365        -17.499797   1.000000
    366        -17.493913   1.000000
    367        -17.493847   1.000000
    368        -17.492395   1.000000
    369        -17.491464   1.000000
    370        -17.491010   1.000000
    371        -17.488595   1.000000
    372        -17.477830   1.000000
    373        -17.477645   1.000000
    374        -17.475169   1.000000
    375        -17.474733   1.000000
    376        -17.474391   1.000000
    377        -17.473397   1.000000
    378        -17.472979   1.000000
    379        -17.470944   1.000000
    380        -17.459975   1.000000
    381        -17.434254   1.000000
    382        -17.434139   1.000000
    383        -17.422144   1.000000
    384        -17.422017   1.000000
    385          2.481309   1.000000
    386          3.472590   1.000000
    387          3.780579   1.000000
    388          4.722445   1.000000
    389          4.878969   1.000000
    390          4.879809   1.000000
    391          4.884705   1.000000
    392          4.884973   1.000000
    393          4.885486   1.000000
    394          4.958850   1.000000
    395          5.076643   1.000000
    396          5.077480   1.000000
    397          5.081728   1.000000
    398          5.081930   1.000000
    399          5.082595   1.000000
    400          5.222608   1.000000
    401          5.341128   1.000000
    402          5.801983   1.000000
    403          5.802844   1.000000
    404          5.806252   1.000000
    405          5.806493   1.000000
    406          5.807205   1.000000
    407          5.853701   1.000000
    408          5.878212   1.000000
    409          5.917494   1.000000
    410          5.974517   1.000000
    411          5.974662   1.000000
    412          5.985462   1.000000
    413          5.997522   1.000000
    414          5.997916   1.000000
    415          6.052668   1.000000
    416          6.196064   1.000000
    417          6.196080   1.000000
    418          6.202590   1.000000
    419          6.208762   1.000000
    420          6.209071   1.000000
    421          6.229840   1.000000
    422          6.270941   1.000000
    423          6.271438   1.000000
    424          6.274487   1.000000
    425          6.274790   1.000000
    426          6.275280   1.000000
    427          6.365723   1.000000
    428          6.429702   1.000000
    429          6.430076   1.000000
    430          6.452978   1.000000
    431          6.483006   1.000000
    432          6.483652   1.000000
    433          6.547943   1.000000
    434          6.788530   1.000000
    435          6.791922   1.000000
    436          6.800909   1.000000
    437          6.802752   1.000000
    438          6.803396   1.000000
    439          6.812019   1.000000
    440          6.813750   1.000000
    441          6.813951   1.000000
    442          6.819296   1.000000
    443          6.819395   1.000000
    444          6.819743   1.000000
    445          6.827508   1.000000
    446          6.839307   1.000000
    447          6.839684   1.000000
    448          6.843885   1.000000
    449          6.845570   1.000000
    450          6.846235   1.000000
    451          6.850654   1.000000
    452          6.851357   1.000000
    453          6.852381   1.000000
    454          6.852396   1.000000
    455          6.853330   1.000000
    456          6.855066   1.000000
    457          6.917589   1.000000
    458          6.950039   1.000000
    459          6.955280   1.000000
    460          6.956304   1.000000
    461          6.958431   1.000000
    462          6.958814   1.000000
    463          6.959939   1.000000
    464          6.963133   1.000000
    465          6.963362   1.000000
    466          6.963918   1.000000
    467          6.965319   1.000000
    468          6.965442   1.000000
    469          6.967711   1.000000
    470          6.967747   1.000000
    471          6.968353   1.000000
    472          6.971104   1.000000
    473          6.971212   1.000000
    474          6.977634   1.000000
    475          6.997000   1.000000
    476          7.010156   1.000000
    477          7.014791   1.000000
    478          7.015025   1.000000
    479          7.015923   1.000000
    480          7.016341   1.000000
    481          7.155656   1.000000
    482          7.166208   1.000000
    483          7.167439   1.000000
    484          7.439882   1.000000
    485          7.593145   1.000000
    486          7.594861   1.000000
    487          7.596522   1.000000
    488          7.597043   1.000000
    489          7.598549   1.000000
    490          7.630358   1.000000
    491          7.669654   1.000000
    492          7.669746   1.000000
    493          7.677505   1.000000
    494          7.682852   1.000000
    495          7.683855   1.000000
    496          7.684762   1.000000
    497          7.684963   1.000000
    498          7.688990   1.000000
    499          7.718017   1.000000
    500          7.732491   1.000000
    501          7.732703   1.000000
    502          7.739886   1.000000
    503          7.740734   1.000000
    504          7.741052   1.000000
    505          7.775444   1.000000
    506          7.781095   1.000000
    507          7.781967   1.000000
    508          7.786064   1.000000
    509          7.786583   1.000000
    510          7.788271   1.000000
    511          7.788302   1.000000
    512          7.791853   1.000000
    513          7.793642   1.000000
    514          7.867580   1.000000
    515          7.904173   1.000000
    516          7.905362   1.000000
    517          7.915301   1.000000
    518          7.935229   1.000000
    519          7.935851   1.000000
    520          7.939812   1.000000
    521          7.939959   1.000000
    522          7.940273   1.000000
    523          7.986927   1.000000
    524          7.995136   1.000000
    525          7.995432   1.000000
    526          8.023940   1.000000
    527          8.028995   1.000000
    528          8.031545   1.000000
    529          8.035782   1.000000
    530          8.036629   1.000000
    531          8.040890   1.000000
    532          8.041307   1.000000
    533          8.041809   1.000000
    534          8.042254   1.000000
    535          8.043419   1.000000
    536          8.043719   1.000000
    537          8.046739   1.000000
    538          8.123827   1.000000
    539          8.133653   1.000000
    540          8.134032   1.000000
    541          8.138884   1.000000
    542          8.139197   1.000000
    543          8.145050   1.000000
    544          8.334707   1.000047
    545          8.363654   1.000108
    546          8.365081   1.000113
    547          8.375249   1.000149
    548          8.376790   1.000155
    549          8.378313   1.000161
    550          8.382833   1.000182
    551          8.390123   1.000221
    552          8.390261   1.000222
    553          8.432720   1.000641
    554          8.444710   1.000849
    555          8.451782   1.000999
    556          8.455946   1.001097
    557          8.457662   1.001140
    558          8.463341   1.001294
    559          8.466986   1.001401
    560          8.467304   1.001411
    561          8.469831   1.001491
    562          8.469972   1.001495
    563          8.474391   1.001645
    564          8.479247   1.001823
    565          8.534660   1.005352
    566          8.539843   1.005862
    567          8.547636   1.006698
    568          8.552867   1.007310
    569          8.553357   1.007369
    570          8.556186   1.007719
    571          8.712934   1.035457
    572          8.734147   1.033556
    573          8.735299   1.033324
    574          8.738837   1.032514
    575          8.743454   1.031229
    576          8.743915   1.031086
    577          8.920439   0.657254
    578          8.977047   0.421258
    579          8.997441   0.338034
    580          8.998496   0.333857
    581          9.008016   0.296851
    582          9.010813   0.286243
    583          9.011084   0.285221
    584          9.061981   0.120087
    585          9.083574   0.068604
    586          9.097634   0.041378
    587          9.115550   0.013618
    588          9.120522   0.007223
    589          9.130353  -0.003851
    590          9.130652  -0.004155
    591          9.176438  -0.032147
    592          9.188228  -0.034491
    593          9.189230  -0.034620
    594          9.196880  -0.035292
    595          9.205555  -0.035439
    596          9.208046  -0.035374
    597          9.223421  -0.034102
    598          9.231141  -0.033004
    599          9.235243  -0.032325
    600          9.241460  -0.031189
    601          9.241832  -0.031118
    602          9.242454  -0.030997
    603          9.277072  -0.023361
    604          9.282853  -0.022027
    605          9.284821  -0.021576
    606          9.287940  -0.020865
    607          9.294538  -0.019385
    608          9.296508  -0.018950
    609          9.300989  -0.017975
    610          9.305835  -0.016947
    611          9.306274  -0.016855
    612          9.308364  -0.016422
    613          9.310439  -0.015997
    614          9.316875  -0.014716
    615          9.426573  -0.002286
    616          9.509142  -0.000346
    617          9.518960  -0.000269
    618          9.521650  -0.000251
    619          9.526687  -0.000220
    620          9.528391  -0.000211
    621          9.532165  -0.000191
    622          9.538154  -0.000162
    623          9.540377  -0.000153
    624          9.540961  -0.000151
    625          9.544186  -0.000138
    626          9.545273  -0.000134
    627          9.550407  -0.000116
    628          9.570705  -0.000066
    629          9.576058  -0.000056
    630          9.586789  -0.000041
    631          9.617348  -0.000016
    632          9.623123  -0.000014
    633          9.629415  -0.000011
    634          9.629727  -0.000011
    635          9.631055  -0.000011
    636          9.635989  -0.000009
    637          9.644965  -0.000007
    638          9.663641  -0.000004
    639          9.663789  -0.000004
    640          9.667019  -0.000003
    641          9.667183  -0.000003
    642          9.751532  -0.000000
    643          9.754431  -0.000000
    644          9.794615  -0.000000
    645          9.795606  -0.000000
    646          9.829293  -0.000000
    647          9.835873  -0.000000
    648          9.841613  -0.000000
    649          9.846648  -0.000000
    650          9.860440  -0.000000
    651         10.006838  -0.000000
    652         10.041882  -0.000000
    653         10.049273  -0.000000
    654         10.065733  -0.000000
    655         10.072244  -0.000000
    656         10.075718  -0.000000
    657         10.082148  -0.000000
    658         10.084199  -0.000000
    659         10.090697  -0.000000
    660         10.099158  -0.000000
    661         10.109353  -0.000000
    662         10.109513  -0.000000
    663         10.135299  -0.000000
    664         10.148229  -0.000000
    665         10.149457  -0.000000
    666         10.153018  -0.000000
    667         10.157190  -0.000000
    668         10.158789  -0.000000
    669         10.160710  -0.000000
    670         10.167334  -0.000000
    671         10.175836  -0.000000
    672         10.179845  -0.000000
    673         10.182242  -0.000000
    674         10.186675  -0.000000
    675         10.188376  -0.000000
    676         10.189724  -0.000000
    677         10.191170  -0.000000
    678         10.191503  -0.000000
    679         10.193296  -0.000000
    680         10.193300  -0.000000
    681         10.196760  -0.000000
    682         10.198326  -0.000000
    683         10.198452  -0.000000
    684         10.199709  -0.000000
    685         10.202304  -0.000000
    686         10.203032  -0.000000
    687         10.221959  -0.000000
    688         10.223111  -0.000000
    689         10.234987  -0.000000
    690         10.235925  -0.000000
    691         10.240158  -0.000000
 
  0.2500000E+00 -0.8988716E-17  0.3333333E+00  0.4166667E-01
      1        -39.896887   1.000000
      2        -39.883586   1.000000
      3        -39.865212   1.000000
      4        -39.855113   1.000000
      5        -39.853151   1.000000
      6        -39.848069   1.000000
      7        -39.840937   1.000000
      8        -39.840462   1.000000
      9        -39.838821   1.000000
     10        -39.828383   1.000000
     11        -39.827089   1.000000
     12        -39.822235   1.000000
     13        -39.817175   1.000000
     14        -39.815130   1.000000
     15        -39.813537   1.000000
     16        -39.811580   1.000000
     17        -39.807393   1.000000
     18        -39.805943   1.000000
     19        -39.804029   1.000000
     20        -39.798381   1.000000
     21        -39.795892   1.000000
     22        -39.791108   1.000000
     23        -39.788274   1.000000
     24        -39.786497   1.000000
     25        -39.783517   1.000000
     26        -39.782159   1.000000
     27        -39.781810   1.000000
     28        -39.779587   1.000000
     29        -39.777926   1.000000
     30        -39.776380   1.000000
     31        -39.773904   1.000000
     32        -39.773480   1.000000
     33        -39.771346   1.000000
     34        -39.769637   1.000000
     35        -39.767796   1.000000
     36        -39.766743   1.000000
     37        -39.765683   1.000000
     38        -39.765161   1.000000
     39        -39.765015   1.000000
     40        -39.764032   1.000000
     41        -39.762253   1.000000
     42        -39.760944   1.000000
     43        -39.760481   1.000000
     44        -39.760161   1.000000
     45        -39.760042   1.000000
     46        -39.756658   1.000000
     47        -39.755698   1.000000
     48        -39.753196   1.000000
     49        -39.753135   1.000000
     50        -39.752646   1.000000
     51        -39.750892   1.000000
     52        -39.749892   1.000000
     53        -39.749542   1.000000
     54        -39.749153   1.000000
     55        -39.747077   1.000000
     56        -39.747061   1.000000
     57        -39.745538   1.000000
     58        -39.745532   1.000000
     59        -39.744270   1.000000
     60        -39.743745   1.000000
     61        -39.743071   1.000000
     62        -39.741637   1.000000
     63        -39.740647   1.000000
     64        -39.739791   1.000000
     65        -39.739274   1.000000
     66        -39.738688   1.000000
     67        -39.738103   1.000000
     68        -39.737606   1.000000
     69        -39.736090   1.000000
     70        -39.735627   1.000000
     71        -39.734737   1.000000
     72        -39.733914   1.000000
     73        -39.733565   1.000000
     74        -39.731818   1.000000
     75        -39.731029   1.000000
     76        -39.730519   1.000000
     77        -39.729975   1.000000
     78        -39.726683   1.000000
     79        -39.725983   1.000000
     80        -39.724570   1.000000
     81        -39.724441   1.000000
     82        -39.724216   1.000000
     83        -39.723291   1.000000
     84        -39.723244   1.000000
     85        -39.722704   1.000000
     86        -39.722290   1.000000
     87        -39.722053   1.000000
     88        -39.720471   1.000000
     89        -39.718998   1.000000
     90        -39.718677   1.000000
     91        -39.717756   1.000000
     92        -39.716993   1.000000
     93        -39.715815   1.000000
     94        -39.715680   1.000000
     95        -39.715325   1.000000
     96        -39.713870   1.000000
     97        -18.377045   1.000000
     98        -18.318139   1.000000
     99        -18.313322   1.000000
    100        -18.307370   1.000000
    101        -18.302308   1.000000
    102        -18.297138   1.000000
    103        -18.294814   1.000000
    104        -18.294662   1.000000
    105        -18.289544   1.000000
    106        -18.282139   1.000000
    107        -18.280279   1.000000
    108        -18.272475   1.000000
    109        -18.261991   1.000000
    110        -18.259832   1.000000
    111        -18.255841   1.000000
    112        -18.253956   1.000000
    113        -18.247189   1.000000
    114        -18.241031   1.000000
    115        -18.236654   1.000000
    116        -18.234293   1.000000
    117        -18.220454   1.000000
    118        -18.220445   1.000000
    119        -18.216768   1.000000
    120        -18.216731   1.000000
    121        -18.212812   1.000000
    122        -18.209216   1.000000
    123        -18.206471   1.000000
    124        -18.204753   1.000000
    125        -18.203313   1.000000
    126        -18.202200   1.000000
    127        -18.202194   1.000000
    128        -18.200591   1.000000
    129        -18.200190   1.000000
    130        -18.198708   1.000000
    131        -18.197714   1.000000
    132        -18.197089   1.000000
    133        -18.194787   1.000000
    134        -18.183150   1.000000
    135        -18.180087   1.000000
    136        -18.178549   1.000000
    137        -18.173619   1.000000
    138        -18.170620   1.000000
    139        -18.169137   1.000000
    140        -18.166598   1.000000
    141        -18.165916   1.000000
    142        -18.161747   1.000000
    143        -18.158913   1.000000
    144        -18.154289   1.000000
    145        -18.152636   1.000000
    146        -18.144519   1.000000
    147        -18.137970   1.000000
    148        -18.137335   1.000000
    149        -18.135022   1.000000
    150        -18.134566   1.000000
    151        -18.128567   1.000000
    152        -18.126960   1.000000
    153        -18.121023   1.000000
    154        -18.116399   1.000000
    155        -18.115095   1.000000
    156        -18.113140   1.000000
    157        -18.110509   1.000000
    158        -18.093404   1.000000
    159        -18.090754   1.000000
    160        -18.082609   1.000000
    161        -18.080363   1.000000
    162        -18.078585   1.000000
    163        -18.075004   1.000000
    164        -18.073370   1.000000
    165        -18.073268   1.000000
    166        -18.072353   1.000000
    167        -18.063314   1.000000
    168        -18.061923   1.000000
    169        -18.059276   1.000000
    170        -18.058857   1.000000
    171        -18.053237   1.000000
    172        -18.052835   1.000000
    173        -18.050780   1.000000
    174        -18.024609   1.000000
    175        -18.000710   1.000000
    176        -17.988622   1.000000
    177        -17.982859   1.000000
    178        -17.982309   1.000000
    179        -17.970298   1.000000
    180        -17.960232   1.000000
    181        -17.955068   1.000000
    182        -17.953336   1.000000
    183        -17.950694   1.000000
    184        -17.948057   1.000000
    185        -17.947820   1.000000
    186        -17.942891   1.000000
    187        -17.942680   1.000000
    188        -17.942336   1.000000
    189        -17.941070   1.000000
    190        -17.937810   1.000000
    191        -17.935098   1.000000
    192        -17.933121   1.000000
    193        -17.926732   1.000000
    194        -17.926718   1.000000
    195        -17.914256   1.000000
    196        -17.913075   1.000000
    197        -17.902963   1.000000
    198        -17.896425   1.000000
    199        -17.892336   1.000000
    200        -17.885820   1.000000
    201        -17.878760   1.000000
    202        -17.875285   1.000000
    203        -17.872549   1.000000
    204        -17.870852   1.000000
    205        -17.868181   1.000000
    206        -17.862192   1.000000
    207        -17.861432   1.000000
    208        -17.859885   1.000000
    209        -17.859592   1.000000
    210        -17.857921   1.000000
    211        -17.856403   1.000000
    212        -17.856367   1.000000
    213        -17.852342   1.000000
    214        -17.850582   1.000000
    215        -17.836809   1.000000
    216        -17.834148   1.000000
    217        -17.832450   1.000000
    218        -17.829514   1.000000
    219        -17.827423   1.000000
    220        -17.824426   1.000000
    221        -17.819206   1.000000
    222        -17.817888   1.000000
    223        -17.805666   1.000000
    224        -17.804859   1.000000
    225        -17.800076   1.000000
    226        -17.798405   1.000000
    227        -17.795828   1.000000
    228        -17.795402   1.000000
    229        -17.793230   1.000000
    230        -17.792605   1.000000
    231        -17.786073   1.000000
    232        -17.784703   1.000000
    233        -17.782264   1.000000
    234        -17.779758   1.000000
    235        -17.772185   1.000000
    236        -17.769424   1.000000
    237        -17.766447   1.000000
    238        -17.765772   1.000000
    239        -17.761844   1.000000
    240        -17.761331   1.000000
    241        -17.760738   1.000000
    242        -17.751257   1.000000
    243        -17.749308   1.000000
    244        -17.746796   1.000000
    245        -17.744927   1.000000
    246        -17.741477   1.000000
    247        -17.739196   1.000000
    248        -17.738392   1.000000
    249        -17.735882   1.000000
    250        -17.733947   1.000000
    251        -17.728969   1.000000
    252        -17.728108   1.000000
    253        -17.724708   1.000000
    254        -17.723217   1.000000
    255        -17.711087   1.000000
    256        -17.708388   1.000000
    257        -17.705395   1.000000
    258        -17.704337   1.000000
    259        -17.701944   1.000000
    260        -17.696327   1.000000
    261        -17.688558   1.000000
    262        -17.687540   1.000000
    263        -17.686246   1.000000
    264        -17.685426   1.000000
    265        -17.683963   1.000000
    266        -17.681702   1.000000
    267        -17.681647   1.000000
    268        -17.679768   1.000000
    269        -17.677802   1.000000
    270        -17.675629   1.000000
    271        -17.672905   1.000000
    272        -17.671023   1.000000
    273        -17.669400   1.000000
    274        -17.669213   1.000000
    275        -17.666514   1.000000
    276        -17.662204   1.000000
    277        -17.659879   1.000000
    278        -17.659478   1.000000
    279        -17.658731   1.000000
    280        -17.649758   1.000000
    281        -17.648122   1.000000
    282        -17.647640   1.000000
    283        -17.647127   1.000000
    284        -17.645187   1.000000
    285        -17.644456   1.000000
    286        -17.643476   1.000000
    287        -17.639892   1.000000
    288        -17.639654   1.000000
    289        -17.638572   1.000000
    290        -17.637121   1.000000
    291        -17.636516   1.000000
    292        -17.632669   1.000000
    293        -17.632244   1.000000
    294        -17.631773   1.000000
    295        -17.630946   1.000000
    296        -17.629840   1.000000
    297        -17.628999   1.000000
    298        -17.627576   1.000000
    299        -17.626103   1.000000
    300        -17.624554   1.000000
    301        -17.623263   1.000000
    302        -17.622121   1.000000
    303        -17.621928   1.000000
    304        -17.619871   1.000000
    305        -17.619576   1.000000
    306        -17.617306   1.000000
    307        -17.616936   1.000000
    308        -17.616849   1.000000
    309        -17.616187   1.000000
    310        -17.615069   1.000000
    311        -17.614075   1.000000
    312        -17.606667   1.000000
    313        -17.605852   1.000000
    314        -17.603771   1.000000
    315        -17.602919   1.000000
    316        -17.602637   1.000000
    317        -17.596126   1.000000
    318        -17.596041   1.000000
    319        -17.595026   1.000000
    320        -17.594719   1.000000
    321        -17.592379   1.000000
    322        -17.591408   1.000000
    323        -17.585091   1.000000
    324        -17.582346   1.000000
    325        -17.581309   1.000000
    326        -17.580464   1.000000
    327        -17.580388   1.000000
    328        -17.578009   1.000000
    329        -17.577218   1.000000
    330        -17.576685   1.000000
    331        -17.576003   1.000000
    332        -17.572404   1.000000
    333        -17.569036   1.000000
    334        -17.568097   1.000000
    335        -17.566611   1.000000
    336        -17.566412   1.000000
    337        -17.564826   1.000000
    338        -17.564236   1.000000
    339        -17.563513   1.000000
    340        -17.562862   1.000000
    341        -17.560202   1.000000
    342        -17.559268   1.000000
    343        -17.558707   1.000000
    344        -17.554528   1.000000
    345        -17.553162   1.000000
    346        -17.550231   1.000000
    347        -17.548879   1.000000
    348        -17.547082   1.000000
    349        -17.546452   1.000000
    350        -17.545087   1.000000
    351        -17.544887   1.000000
    352        -17.543169   1.000000
    353        -17.540842   1.000000
    354        -17.535974   1.000000
    355        -17.534469   1.000000
    356        -17.528477   1.000000
    357        -17.521586   1.000000
    358        -17.520207   1.000000
    359        -17.515978   1.000000
    360        -17.515905   1.000000
    361        -17.513585   1.000000
    362        -17.511765   1.000000
    363        -17.511057   1.000000
    364        -17.505188   1.000000
    365        -17.502807   1.000000
    366        -17.500689   1.000000
    367        -17.499119   1.000000
    368        -17.497174   1.000000
    369        -17.496733   1.000000
    370        -17.495664   1.000000
    371        -17.492368   1.000000
    372        -17.490241   1.000000
    373        -17.488159   1.000000
    374        -17.480852   1.000000
    375        -17.480833   1.000000
    376        -17.477190   1.000000
    377        -17.475010   1.000000
    378        -17.474299   1.000000
    379        -17.468455   1.000000
    380        -17.453803   1.000000
    381        -17.447354   1.000000
    382        -17.438207   1.000000
    383        -17.434977   1.000000
    384        -17.425723   1.000000
    385          2.489345   1.000000
    386          3.570916   1.000000
    387          3.867119   1.000000
    388          4.332179   1.000000
    389          4.572634   1.000000
    390          4.654503   1.000000
    391          4.707199   1.000000
    392          4.824535   1.000000
    393          4.879103   1.000000
    394          4.953079   1.000000
    395          5.252932   1.000000
    396          5.276779   1.000000
    397          5.361495   1.000000
    398          5.406590   1.000000
    399          5.427145   1.000000
    400          5.455462   1.000000
    401          5.517280   1.000000
    402          5.581435   1.000000
    403          5.694365   1.000000
    404          5.742979   1.000000
    405          5.961353   1.000000
    406          5.967817   1.000000
    407          5.987306   1.000000
    408          5.990509   1.000000
    409          6.001660   1.000000
    410          6.014219   1.000000
    411          6.020222   1.000000
    412          6.034898   1.000000
    413          6.040377   1.000000
    414          6.051041   1.000000
    415          6.076095   1.000000
    416          6.112152   1.000000
    417          6.136847   1.000000
    418          6.205027   1.000000
    419          6.214394   1.000000
    420          6.243695   1.000000
    421          6.248223   1.000000
    422          6.268055   1.000000
    423          6.290596   1.000000
    424          6.296782   1.000000
    425          6.310513   1.000000
    426          6.324938   1.000000
    427          6.328288   1.000000
    428          6.342421   1.000000
    429          6.362962   1.000000
    430          6.396426   1.000000
    431          6.439858   1.000000
    432          6.519153   1.000000
    433          6.525552   1.000000
    434          6.526827   1.000000
    435          6.526934   1.000000
    436          6.534318   1.000000
    437          6.538475   1.000000
    438          6.541964   1.000000
    439          6.575659   1.000000
    440          6.589146   1.000000
    441          6.590721   1.000000
    442          6.592253   1.000000
    443          6.645462   1.000000
    444          6.648287   1.000000
    445          6.655684   1.000000
    446          6.676606   1.000000
    447          6.692246   1.000000
    448          6.704921   1.000000
    449          6.722127   1.000000
    450          6.771243   1.000000
    451          6.822663   1.000000
    452          6.858530   1.000000
    453          6.863842   1.000000
    454          6.889762   1.000000
    455          6.905406   1.000000
    456          6.922918   1.000000
    457          6.925115   1.000000
    458          6.928924   1.000000
    459          6.930251   1.000000
    460          6.931235   1.000000
    461          6.933452   1.000000
    462          6.935281   1.000000
    463          7.013325   1.000000
    464          7.056152   1.000000
    465          7.061674   1.000000
    466          7.066670   1.000000
    467          7.066915   1.000000
    468          7.076798   1.000000
    469          7.077443   1.000000
    470          7.078147   1.000000
    471          7.107903   1.000000
    472          7.135272   1.000000
    473          7.166874   1.000000
    474          7.167756   1.000000
    475          7.169973   1.000000
    476          7.181189   1.000000
    477          7.185781   1.000000
    478          7.188246   1.000000
    479          7.190362   1.000000
    480          7.250318   1.000000
    481          7.254712   1.000000
    482          7.261471   1.000000
    483          7.265122   1.000000
    484          7.279956   1.000000
    485          7.301091   1.000000
    486          7.417524   1.000000
    487          7.438417   1.000000
    488          7.450608   1.000000
    489          7.464237   1.000000
    490          7.471166   1.000000
    491          7.493134   1.000000
    492          7.512568   1.000000
    493          7.525838   1.000000
    494          7.541770   1.000000
    495          7.548823   1.000000
    496          7.566420   1.000000
    497          7.583324   1.000000
    498          7.606747   1.000000
    499          7.606948   1.000000
    500          7.619433   1.000000
    501          7.638928   1.000000
    502          7.656296   1.000000
    503          7.668442   1.000000
    504          7.674585   1.000000
    505          7.803512   1.000000
    506          7.816253   1.000000
    507          7.825460   1.000000
    508          7.833308   1.000000
    509          7.875448   1.000000
    510          7.877436   1.000000
    511          7.888707   1.000000
    512          7.904114   1.000000
    513          7.914380   1.000000
    514          7.941949   1.000000
    515          7.946165   1.000000
    516          7.948456   1.000000
    517          7.967463   1.000000
    518          7.970110   1.000000
    519          7.997994   1.000000
    520          8.001496   1.000000
    521          8.011830   1.000000
    522          8.028362   1.000000
    523          8.035077   1.000000
    524          8.040257   1.000000
    525          8.044137   1.000000
    526          8.045264   1.000000
    527          8.056827   1.000000
    528          8.059127   1.000000
    529          8.060612   1.000000
    530          8.063012   1.000000
    531          8.091797   1.000000
    532          8.093086   1.000000
    533          8.100235   1.000000
    534          8.102011   1.000000
    535          8.116562   1.000000
    536          8.142045   1.000000
    537          8.144554   1.000000
    538          8.147293   1.000000
    539          8.149142   1.000000
    540          8.158312   1.000000
    541          8.177838   1.000000
    542          8.217913   1.000001
    543          8.255913   1.000004
    544          8.267242   1.000006
    545          8.284006   1.000010
    546          8.319175   1.000030
    547          8.321807   1.000032
    548          8.329897   1.000041
    549          8.339076   1.000054
    550          8.345818   1.000066
    551          8.351378   1.000077
    552          8.370453   1.000130
    553          8.393585   1.000242
    554          8.398713   1.000276
    555          8.410445   1.000372
    556          8.427740   1.000569
    557          8.430795   1.000612
    558          8.434394   1.000667
    559          8.435721   1.000688
    560          8.443134   1.000819
    561          8.447523   1.000906
    562          8.448467   1.000926
    563          8.453278   1.001033
    564          8.459574   1.001190
    565          8.489154   1.002241
    566          8.546768   1.006601
    567          8.552708   1.007291
    568          8.556031   1.007700
    569          8.684908   1.032901
    570          8.756133   1.026238
    571          8.766872   1.020120
    572          8.772507   1.016134
    573          8.794102   0.995281
    574          8.884487   0.790157
    575          8.917596   0.668528
    576          8.929743   0.619673
    577          8.942027   0.568806
    578          8.983281   0.395401
    579          8.993605   0.353355
    580          8.999822   0.328623
    581          9.038303   0.189792
    582          9.052991   0.144966
    583          9.069755   0.100198
    584          9.076977   0.083084
    585          9.101403   0.034906
    586          9.108305   0.023936
    587          9.130688  -0.004192
    588          9.152390  -0.021753
    589          9.158573  -0.025244
    590          9.180892  -0.033217
    591          9.181529  -0.033351
    592          9.184393  -0.033898
    593          9.189400  -0.034641
    594          9.191906  -0.034918
    595          9.193148  -0.035033
    596          9.199708  -0.035407
    597          9.199759  -0.035408
    598          9.203639  -0.035457
    599          9.204798  -0.035449
    600          9.208758  -0.035347
    601          9.211194  -0.035230
    602          9.232388  -0.032804
    603          9.242746  -0.030941
    604          9.253706  -0.028673
    605          9.256337  -0.028097
    606          9.307688  -0.016561
    607          9.347026  -0.009558
    608          9.386614  -0.004932
    609          9.397336  -0.004052
    610          9.406914  -0.003378
    611          9.419539  -0.002636
    612          9.426798  -0.002276
    613          9.451379  -0.001351
    614          9.462027  -0.001066
    615          9.465188  -0.000993
    616          9.477817  -0.000741
    617          9.480019  -0.000704
    618          9.484651  -0.000631
    619          9.485275  -0.000621
    620          9.491098  -0.000540
    621          9.493123  -0.000514
    622          9.495427  -0.000486
    623          9.505214  -0.000382
    624          9.506989  -0.000365
    625          9.516075  -0.000290
    626          9.548942  -0.000121
    627          9.560935  -0.000087
    628          9.574396  -0.000059
    629          9.595320  -0.000032
    630          9.608112  -0.000022
    631          9.609498  -0.000021
    632          9.621156  -0.000014
    633          9.621697  -0.000014
    634          9.622162  -0.000014
    635          9.643963  -0.000007
    636          9.649166  -0.000006
    637          9.666745  -0.000003
    638          9.668759  -0.000003
    639          9.683418  -0.000002
    640          9.693590  -0.000001
    641          9.741635  -0.000000
    642          9.746313  -0.000000
    643          9.779673  -0.000000
    644          9.797039  -0.000000
    645          9.843774  -0.000000
    646          9.866936  -0.000000
    647          9.875435  -0.000000
    648          9.883417  -0.000000
    649          9.885612  -0.000000
    650          9.889050  -0.000000
    651          9.907848  -0.000000
    652          9.916819  -0.000000
    653          9.928372  -0.000000
    654          9.932239  -0.000000
    655          9.936154  -0.000000
    656          9.946322  -0.000000
    657          9.962347  -0.000000
    658          9.976265  -0.000000
    659          9.980869  -0.000000
    660          9.986338  -0.000000
    661          9.991531  -0.000000
    662         10.008991  -0.000000
    663         10.009672  -0.000000
    664         10.014930  -0.000000
    665         10.017195  -0.000000
    666         10.017303  -0.000000
    667         10.021568  -0.000000
    668         10.023575  -0.000000
    669         10.033324  -0.000000
    670         10.095788  -0.000000
    671         10.109794  -0.000000
    672         10.110684  -0.000000
    673         10.123355  -0.000000
    674         10.167469  -0.000000
    675         10.168791  -0.000000
    676         10.200787  -0.000000
    677         10.201268  -0.000000
    678         10.221569  -0.000000
    679         10.228144  -0.000000
    680         10.231650  -0.000000
    681         10.249774  -0.000000
    682         10.253009  -0.000000
    683         10.256315  -0.000000
    684         10.263068  -0.000000
    685         10.267227  -0.000000
    686         10.278816  -0.000000
    687         10.287202  -0.000000
    688         10.297463  -0.000000
    689         10.298280  -0.000000
    690         10.305893  -0.000000
    691         10.310803  -0.000000
 
  0.1345275E-16  0.2500000E+00  0.3333333E+00  0.4166667E-01
      1        -39.896838   1.000000
      2        -39.883486   1.000000
      3        -39.866538   1.000000
      4        -39.854338   1.000000
      5        -39.851028   1.000000
      6        -39.848915   1.000000
      7        -39.842622   1.000000
      8        -39.839331   1.000000
      9        -39.838454   1.000000
     10        -39.830946   1.000000
     11        -39.824604   1.000000
     12        -39.820613   1.000000
     13        -39.819167   1.000000
     14        -39.815805   1.000000
     15        -39.813774   1.000000
     16        -39.812751   1.000000
     17        -39.806930   1.000000
     18        -39.804554   1.000000
     19        -39.803044   1.000000
     20        -39.800144   1.000000
     21        -39.796056   1.000000
     22        -39.789310   1.000000
     23        -39.788213   1.000000
     24        -39.786505   1.000000
     25        -39.783365   1.000000
     26        -39.782761   1.000000
     27        -39.781006   1.000000
     28        -39.779732   1.000000
     29        -39.778146   1.000000
     30        -39.777362   1.000000
     31        -39.775466   1.000000
     32        -39.772783   1.000000
     33        -39.770745   1.000000
     34        -39.769511   1.000000
     35        -39.768272   1.000000
     36        -39.766720   1.000000
     37        -39.765455   1.000000
     38        -39.764711   1.000000
     39        -39.764138   1.000000
     40        -39.763764   1.000000
     41        -39.762743   1.000000
     42        -39.761599   1.000000
     43        -39.760526   1.000000
     44        -39.760073   1.000000
     45        -39.758860   1.000000
     46        -39.758496   1.000000
     47        -39.755328   1.000000
     48        -39.754564   1.000000
     49        -39.753446   1.000000
     50        -39.751510   1.000000
     51        -39.751020   1.000000
     52        -39.749867   1.000000
     53        -39.748626   1.000000
     54        -39.748012   1.000000
     55        -39.747472   1.000000
     56        -39.746274   1.000000
     57        -39.745834   1.000000
     58        -39.745342   1.000000
     59        -39.744888   1.000000
     60        -39.744194   1.000000
     61        -39.742945   1.000000
     62        -39.741884   1.000000
     63        -39.741160   1.000000
     64        -39.740890   1.000000
     65        -39.738807   1.000000
     66        -39.738473   1.000000
     67        -39.737749   1.000000
     68        -39.737140   1.000000
     69        -39.735925   1.000000
     70        -39.735117   1.000000
     71        -39.735052   1.000000
     72        -39.734552   1.000000
     73        -39.733045   1.000000
     74        -39.732585   1.000000
     75        -39.732131   1.000000
     76        -39.729836   1.000000
     77        -39.728513   1.000000
     78        -39.727520   1.000000
     79        -39.726001   1.000000
     80        -39.724752   1.000000
     81        -39.724393   1.000000
     82        -39.723862   1.000000
     83        -39.723452   1.000000
     84        -39.722955   1.000000
     85        -39.722592   1.000000
     86        -39.722292   1.000000
     87        -39.722089   1.000000
     88        -39.720256   1.000000
     89        -39.719219   1.000000
     90        -39.718586   1.000000
     91        -39.717919   1.000000
     92        -39.717323   1.000000
     93        -39.716217   1.000000
     94        -39.715798   1.000000
     95        -39.714723   1.000000
     96        -39.713798   1.000000
     97        -18.377050   1.000000
     98        -18.317435   1.000000
     99        -18.313464   1.000000
    100        -18.308767   1.000000
    101        -18.301708   1.000000
    102        -18.297114   1.000000
    103        -18.295096   1.000000
    104        -18.293974   1.000000
    105        -18.290016   1.000000
    106        -18.282355   1.000000
    107        -18.280137   1.000000
    108        -18.272038   1.000000
    109        -18.260508   1.000000
    110        -18.260074   1.000000
    111        -18.257061   1.000000
    112        -18.253456   1.000000
    113        -18.247611   1.000000
    114        -18.240884   1.000000
    115        -18.236331   1.000000
    116        -18.234131   1.000000
    117        -18.221019   1.000000
    118        -18.220636   1.000000
    119        -18.217044   1.000000
    120        -18.216430   1.000000
    121        -18.212181   1.000000
    122        -18.209545   1.000000
    123        -18.208653   1.000000
    124        -18.205009   1.000000
    125        -18.204553   1.000000
    126        -18.201339   1.000000
    127        -18.200909   1.000000
    128        -18.200718   1.000000
    129        -18.199700   1.000000
    130        -18.198582   1.000000
    131        -18.197860   1.000000
    132        -18.196037   1.000000
    133        -18.195355   1.000000
    134        -18.184326   1.000000
    135        -18.179756   1.000000
    136        -18.177768   1.000000
    137        -18.173587   1.000000
    138        -18.170966   1.000000
    139        -18.168454   1.000000
    140        -18.166440   1.000000
    141        -18.165732   1.000000
    142        -18.160726   1.000000
    143        -18.158708   1.000000
    144        -18.155476   1.000000
    145        -18.152938   1.000000
    146        -18.143961   1.000000
    147        -18.138298   1.000000
    148        -18.137338   1.000000
    149        -18.135033   1.000000
    150        -18.134254   1.000000
    151        -18.129136   1.000000
    152        -18.127329   1.000000
    153        -18.119842   1.000000
    154        -18.117043   1.000000
    155        -18.115949   1.000000
    156        -18.112433   1.000000
    157        -18.109317   1.000000
    158        -18.093418   1.000000
    159        -18.090312   1.000000
    160        -18.083326   1.000000
    161        -18.080137   1.000000
    162        -18.079113   1.000000
    163        -18.075252   1.000000
    164        -18.074790   1.000000
    165        -18.073227   1.000000
    166        -18.072815   1.000000
    167        -18.065133   1.000000
    168        -18.061771   1.000000
    169        -18.059435   1.000000
    170        -18.058453   1.000000
    171        -18.052769   1.000000
    172        -18.051155   1.000000
    173        -18.050081   1.000000
    174        -18.024610   1.000000
    175        -17.998664   1.000000
    176        -17.990856   1.000000
    177        -17.982891   1.000000
    178        -17.981882   1.000000
    179        -17.970414   1.000000
    180        -17.959028   1.000000
    181        -17.955987   1.000000
    182        -17.953835   1.000000
    183        -17.952065   1.000000
    184        -17.948950   1.000000
    185        -17.947581   1.000000
    186        -17.943957   1.000000
    187        -17.943478   1.000000
    188        -17.940374   1.000000
    189        -17.939477   1.000000
    190        -17.936167   1.000000
    191        -17.933138   1.000000
    192        -17.932479   1.000000
    193        -17.929799   1.000000
    194        -17.926593   1.000000
    195        -17.914868   1.000000
    196        -17.912831   1.000000
    197        -17.903601   1.000000
    198        -17.896925   1.000000
    199        -17.895530   1.000000
    200        -17.885007   1.000000
    201        -17.878782   1.000000
    202        -17.875146   1.000000
    203        -17.871560   1.000000
    204        -17.870891   1.000000
    205        -17.868428   1.000000
    206        -17.861602   1.000000
    207        -17.860594   1.000000
    208        -17.859904   1.000000
    209        -17.858411   1.000000
    210        -17.856900   1.000000
    211        -17.856078   1.000000
    212        -17.854025   1.000000
    213        -17.852573   1.000000
    214        -17.851860   1.000000
    215        -17.837753   1.000000
    216        -17.833014   1.000000
    217        -17.831235   1.000000
    218        -17.830300   1.000000
    219        -17.827428   1.000000
    220        -17.823926   1.000000
    221        -17.821843   1.000000
    222        -17.819622   1.000000
    223        -17.806879   1.000000
    224        -17.805181   1.000000
    225        -17.798904   1.000000
    226        -17.797149   1.000000
    227        -17.795675   1.000000
    228        -17.795009   1.000000
    229        -17.794823   1.000000
    230        -17.794010   1.000000
    231        -17.787584   1.000000
    232        -17.785990   1.000000
    233        -17.781485   1.000000
    234        -17.780458   1.000000
    235        -17.769754   1.000000
    236        -17.768925   1.000000
    237        -17.765423   1.000000
    238        -17.764763   1.000000
    239        -17.761976   1.000000
    240        -17.761426   1.000000
    241        -17.759300   1.000000
    242        -17.749284   1.000000
    243        -17.749105   1.000000
    244        -17.747573   1.000000
    245        -17.745246   1.000000
    246        -17.740981   1.000000
    247        -17.740260   1.000000
    248        -17.738941   1.000000
    249        -17.736075   1.000000
    250        -17.732476   1.000000
    251        -17.730922   1.000000
    252        -17.727866   1.000000
    253        -17.723917   1.000000
    254        -17.723068   1.000000
    255        -17.712648   1.000000
    256        -17.709947   1.000000
    257        -17.706160   1.000000
    258        -17.703034   1.000000
    259        -17.701861   1.000000
    260        -17.695972   1.000000
    261        -17.689683   1.000000
    262        -17.688289   1.000000
    263        -17.684920   1.000000
    264        -17.683623   1.000000
    265        -17.683175   1.000000
    266        -17.681595   1.000000
    267        -17.681165   1.000000
    268        -17.680549   1.000000
    269        -17.676971   1.000000
    270        -17.673923   1.000000
    271        -17.672769   1.000000
    272        -17.670987   1.000000
    273        -17.669899   1.000000
    274        -17.669087   1.000000
    275        -17.667206   1.000000
    276        -17.664010   1.000000
    277        -17.660729   1.000000
    278        -17.659356   1.000000
    279        -17.658221   1.000000
    280        -17.650131   1.000000
    281        -17.649006   1.000000
    282        -17.648732   1.000000
    283        -17.647267   1.000000
    284        -17.645919   1.000000
    285        -17.645275   1.000000
    286        -17.643787   1.000000
    287        -17.641241   1.000000
    288        -17.639754   1.000000
    289        -17.638492   1.000000
    290        -17.636704   1.000000
    291        -17.635147   1.000000
    292        -17.633388   1.000000
    293        -17.631933   1.000000
    294        -17.631292   1.000000
    295        -17.630957   1.000000
    296        -17.629924   1.000000
    297        -17.629661   1.000000
    298        -17.627260   1.000000
    299        -17.626493   1.000000
    300        -17.625616   1.000000
    301        -17.622404   1.000000
    302        -17.621803   1.000000
    303        -17.620123   1.000000
    304        -17.619192   1.000000
    305        -17.618688   1.000000
    306        -17.617785   1.000000
    307        -17.616914   1.000000
    308        -17.616449   1.000000
    309        -17.615497   1.000000
    310        -17.614917   1.000000
    311        -17.614197   1.000000
    312        -17.606743   1.000000
    313        -17.605836   1.000000
    314        -17.603962   1.000000
    315        -17.603350   1.000000
    316        -17.602250   1.000000
    317        -17.596583   1.000000
    318        -17.594965   1.000000
    319        -17.594457   1.000000
    320        -17.593560   1.000000
    321        -17.591600   1.000000
    322        -17.591180   1.000000
    323        -17.586277   1.000000
    324        -17.582408   1.000000
    325        -17.581827   1.000000
    326        -17.581034   1.000000
    327        -17.580706   1.000000
    328        -17.577756   1.000000
    329        -17.577481   1.000000
    330        -17.576232   1.000000
    331        -17.576101   1.000000
    332        -17.573550   1.000000
    333        -17.569787   1.000000
    334        -17.568457   1.000000
    335        -17.567465   1.000000
    336        -17.566222   1.000000
    337        -17.565054   1.000000
    338        -17.563946   1.000000
    339        -17.562915   1.000000
    340        -17.561570   1.000000
    341        -17.561204   1.000000
    342        -17.559451   1.000000
    343        -17.558083   1.000000
    344        -17.553144   1.000000
    345        -17.552186   1.000000
    346        -17.550566   1.000000
    347        -17.548325   1.000000
    348        -17.547036   1.000000
    349        -17.546566   1.000000
    350        -17.546164   1.000000
    351        -17.545624   1.000000
    352        -17.543233   1.000000
    353        -17.540819   1.000000
    354        -17.536122   1.000000
    355        -17.534076   1.000000
    356        -17.528618   1.000000
    357        -17.521718   1.000000
    358        -17.520114   1.000000
    359        -17.516101   1.000000
    360        -17.515695   1.000000
    361        -17.513524   1.000000
    362        -17.512958   1.000000
    363        -17.511159   1.000000
    364        -17.504988   1.000000
    365        -17.501926   1.000000
    366        -17.500079   1.000000
    367        -17.498986   1.000000
    368        -17.498299   1.000000
    369        -17.496809   1.000000
    370        -17.495396   1.000000
    371        -17.492828   1.000000
    372        -17.489225   1.000000
    373        -17.488406   1.000000
    374        -17.481071   1.000000
    375        -17.480488   1.000000
    376        -17.477346   1.000000
    377        -17.475853   1.000000
    378        -17.473658   1.000000
    379        -17.468959   1.000000
    380        -17.453461   1.000000
    381        -17.447390   1.000000
    382        -17.438232   1.000000
    383        -17.435033   1.000000
    384        -17.425629   1.000000
    385          2.489575   1.000000
    386          3.570772   1.000000
    387          3.867141   1.000000
    388          4.333379   1.000000
    389          4.570309   1.000000
    390          4.653776   1.000000
    391          4.702533   1.000000
    392          4.822404   1.000000
    393          4.879383   1.000000
    394          4.962227   1.000000
    395          5.253747   1.000000
    396          5.286247   1.000000
    397          5.364047   1.000000
    398          5.404220   1.000000
    399          5.422949   1.000000
    400          5.457659   1.000000
    401          5.500701   1.000000
    402          5.594885   1.000000
    403          5.692572   1.000000
    404          5.732778   1.000000
    405          5.958441   1.000000
    406          5.964036   1.000000
    407          5.986349   1.000000
    408          5.994327   1.000000
    409          6.008041   1.000000
    410          6.011435   1.000000
    411          6.018112   1.000000
    412          6.031815   1.000000
    413          6.040498   1.000000
    414          6.063191   1.000000
    415          6.075312   1.000000
    416          6.099378   1.000000
    417          6.149757   1.000000
    418          6.207143   1.000000
    419          6.224893   1.000000
    420          6.238954   1.000000
    421          6.248245   1.000000
    422          6.252108   1.000000
    423          6.291073   1.000000
    424          6.303502   1.000000
    425          6.308504   1.000000
    426          6.317870   1.000000
    427          6.331433   1.000000
    428          6.344113   1.000000
    429          6.384221   1.000000
    430          6.392132   1.000000
    431          6.441318   1.000000
    432          6.513851   1.000000
    433          6.520118   1.000000
    434          6.528785   1.000000
    435          6.529294   1.000000
    436          6.531129   1.000000
    437          6.539678   1.000000
    438          6.543968   1.000000
    439          6.564688   1.000000
    440          6.585994   1.000000
    441          6.587130   1.000000
    442          6.591416   1.000000
    443          6.625542   1.000000
    444          6.645896   1.000000
    445          6.661523   1.000000
    446          6.681589   1.000000
    447          6.687041   1.000000
    448          6.707813   1.000000
    449          6.767581   1.000000
    450          6.771823   1.000000
    451          6.804495   1.000000
    452          6.857577   1.000000
    453          6.876522   1.000000
    454          6.889446   1.000000
    455          6.912492   1.000000
    456          6.922191   1.000000
    457          6.924489   1.000000
    458          6.926509   1.000000
    459          6.929027   1.000000
    460          6.930720   1.000000
    461          6.934940   1.000000
    462          6.938038   1.000000
    463          6.976220   1.000000
    464          7.058625   1.000000
    465          7.064421   1.000000
    466          7.064952   1.000000
    467          7.069739   1.000000
    468          7.075705   1.000000
    469          7.082851   1.000000
    470          7.083602   1.000000
    471          7.115147   1.000000
    472          7.135276   1.000000
    473          7.139895   1.000000
    474          7.167769   1.000000
    475          7.177038   1.000000
    476          7.180755   1.000000
    477          7.185799   1.000000
    478          7.188385   1.000000
    479          7.190345   1.000000
    480          7.244515   1.000000
    481          7.255703   1.000000
    482          7.262002   1.000000
    483          7.264587   1.000000
    484          7.295814   1.000000
    485          7.302816   1.000000
    486          7.416115   1.000000
    487          7.436221   1.000000
    488          7.439722   1.000000
    489          7.465488   1.000000
    490          7.473772   1.000000
    491          7.492044   1.000000
    492          7.512924   1.000000
    493          7.526268   1.000000
    494          7.538226   1.000000
    495          7.546589   1.000000
    496          7.561084   1.000000
    497          7.596913   1.000000
    498          7.605623   1.000000
    499          7.610371   1.000000
    500          7.618619   1.000000
    501          7.657132   1.000000
    502          7.660763   1.000000
    503          7.665524   1.000000
    504          7.673068   1.000000
    505          7.803527   1.000000
    506          7.820498   1.000000
    507          7.821855   1.000000
    508          7.838114   1.000000
    509          7.876125   1.000000
    510          7.881946   1.000000
    511          7.889249   1.000000
    512          7.910127   1.000000
    513          7.911446   1.000000
    514          7.929172   1.000000
    515          7.940415   1.000000
    516          7.947519   1.000000
    517          7.960480   1.000000
    518          7.970592   1.000000
    519          7.999739   1.000000
    520          8.002673   1.000000
    521          8.012919   1.000000
    522          8.023701   1.000000
    523          8.031937   1.000000
    524          8.039883   1.000000
    525          8.043962   1.000000
    526          8.044492   1.000000
    527          8.055537   1.000000
    528          8.057195   1.000000
    529          8.059213   1.000000
    530          8.064288   1.000000
    531          8.087344   1.000000
    532          8.092707   1.000000
    533          8.100149   1.000000
    534          8.103011   1.000000
    535          8.130433   1.000000
    536          8.142613   1.000000
    537          8.146237   1.000000
    538          8.148325   1.000000
    539          8.152586   1.000000
    540          8.157923   1.000000
    541          8.176059   1.000000
    542          8.218947   1.000001
    543          8.256781   1.000004
    544          8.263316   1.000005
    545          8.280983   1.000009
    546          8.317247   1.000028
    547          8.325164   1.000036
    548          8.330191   1.000042
    549          8.336859   1.000051
    550          8.352088   1.000078
    551          8.354098   1.000083
    552          8.370032   1.000129
    553          8.393328   1.000240
    554          8.396559   1.000261
    555          8.417863   1.000447
    556          8.421552   1.000490
    557          8.432260   1.000634
    558          8.435765   1.000689
    559          8.436991   1.000709
    560          8.441288   1.000784
    561          8.444291   1.000841
    562          8.449351   1.000945
    563          8.455797   1.001094
    564          8.464198   1.001318
    565          8.484825   1.002049
    566          8.541845   1.006068
    567          8.551061   1.007094
    568          8.557137   1.007839
    569          8.686067   1.033085
    570          8.758844   1.024868
    571          8.764916   1.021375
    572          8.776036   1.013348
    573          8.791438   0.998366
    574          8.882632   0.796345
    575          8.912386   0.688903
    576          8.936668   0.591140
    577          8.938621   0.583023
    578          8.981061   0.404576
    579          8.988036   0.375901
    580          9.001367   0.322557
    581          9.038696   0.188529
    582          9.056684   0.134504
    583          9.058791   0.128688
    584          9.076422   0.084353
    585          9.096429   0.043519
    586          9.113453   0.016481
    587          9.129090  -0.002541
    588          9.154878  -0.023232
    589          9.161147  -0.026519
    590          9.176312  -0.032113
    591          9.183498  -0.033737
    592          9.186180  -0.034193
    593          9.188017  -0.034462
    594          9.189506  -0.034654
    595          9.196921  -0.035294
    596          9.199950  -0.035414
    597          9.203114  -0.035458
    598          9.203559  -0.035458
    599          9.204487  -0.035452
    600          9.207627  -0.035388
    601          9.214995  -0.034971
    602          9.240008  -0.031465
    603          9.243698  -0.030754
    604          9.245448  -0.030405
    605          9.246085  -0.030276
    606          9.310342  -0.016016
    607          9.356836  -0.008192
    608          9.395028  -0.004229
    609          9.404155  -0.003562
    610          9.411166  -0.003111
    611          9.414921  -0.002890
    612          9.435425  -0.001903
    613          9.457317  -0.001185
    614          9.464278  -0.001013
    615          9.465844  -0.000978
    616          9.471830  -0.000852
    617          9.478481  -0.000730
    618          9.484375  -0.000635
    619          9.488969  -0.000569
    620          9.491123  -0.000540
    621          9.494009  -0.000503
    622          9.497236  -0.000465
    623          9.501153  -0.000422
    624          9.507349  -0.000362
    625          9.508951  -0.000347
    626          9.542340  -0.000145
    627          9.560606  -0.000088
    628          9.569479  -0.000068
    629          9.593411  -0.000034
    630          9.604863  -0.000024
    631          9.608977  -0.000021
    632          9.618676  -0.000016
    633          9.620699  -0.000015
    634          9.627456  -0.000012
    635          9.635162  -0.000009
    636          9.639869  -0.000008
    637          9.663510  -0.000004
    638          9.669240  -0.000003
    639          9.685345  -0.000002
    640          9.692847  -0.000001
    641          9.740885  -0.000000
    642          9.745971  -0.000000
    643          9.789280  -0.000000
    644          9.797473  -0.000000
    645          9.840467  -0.000000
    646          9.864017  -0.000000
    647          9.873916  -0.000000
    648          9.876958  -0.000000
    649          9.887027  -0.000000
    650          9.894580  -0.000000
    651          9.903988  -0.000000
    652          9.920580  -0.000000
    653          9.929013  -0.000000
    654          9.933769  -0.000000
    655          9.937186  -0.000000
    656          9.952182  -0.000000
    657          9.959902  -0.000000
    658          9.971360  -0.000000
    659          9.977936  -0.000000
    660          9.985207  -0.000000
    661          9.997794  -0.000000
    662         10.005525  -0.000000
    663         10.011370  -0.000000
    664         10.013932  -0.000000
    665         10.016363  -0.000000
    666         10.021598  -0.000000
    667         10.027251  -0.000000
    668         10.029234  -0.000000
    669         10.037569  -0.000000
    670         10.105674  -0.000000
    671         10.107358  -0.000000
    672         10.111562  -0.000000
    673         10.125580  -0.000000
    674         10.162672  -0.000000
    675         10.168317  -0.000000
    676         10.189823  -0.000000
    677         10.204158  -0.000000
    678         10.218709  -0.000000
    679         10.223852  -0.000000
    680         10.228613  -0.000000
    681         10.247629  -0.000000
    682         10.254352  -0.000000
    683         10.258614  -0.000000
    684         10.266995  -0.000000
    685         10.274317  -0.000000
    686         10.280069  -0.000000
    687         10.285085  -0.000000
    688         10.291315  -0.000000
    689         10.305346  -0.000000
    690         10.305578  -0.000000
    691         10.314163  -0.000000
 
 -0.2500000E+00  0.2500000E+00  0.3333333E+00  0.4166667E-01
      1        -39.896842   1.000000
      2        -39.883493   1.000000
      3        -39.866150   1.000000
      4        -39.856072   1.000000
      5        -39.850656   1.000000
      6        -39.848099   1.000000
      7        -39.841877   1.000000
      8        -39.839536   1.000000
      9        -39.837666   1.000000
     10        -39.831659   1.000000
     11        -39.825273   1.000000
     12        -39.822666   1.000000
     13        -39.818313   1.000000
     14        -39.814798   1.000000
     15        -39.813535   1.000000
     16        -39.811636   1.000000
     17        -39.807602   1.000000
     18        -39.804929   1.000000
     19        -39.804016   1.000000
     20        -39.799074   1.000000
     21        -39.793870   1.000000
     22        -39.791507   1.000000
     23        -39.788337   1.000000
     24        -39.785844   1.000000
     25        -39.784086   1.000000
     26        -39.782791   1.000000
     27        -39.781914   1.000000
     28        -39.780160   1.000000
     29        -39.778637   1.000000
     30        -39.776236   1.000000
     31        -39.774302   1.000000
     32        -39.772050   1.000000
     33        -39.770916   1.000000
     34        -39.769955   1.000000
     35        -39.768061   1.000000
     36        -39.766770   1.000000
     37        -39.765904   1.000000
     38        -39.765220   1.000000
     39        -39.764897   1.000000
     40        -39.764153   1.000000
     41        -39.762102   1.000000
     42        -39.760824   1.000000
     43        -39.760454   1.000000
     44        -39.760217   1.000000
     45        -39.759556   1.000000
     46        -39.756307   1.000000
     47        -39.755604   1.000000
     48        -39.753777   1.000000
     49        -39.753139   1.000000
     50        -39.752104   1.000000
     51        -39.750963   1.000000
     52        -39.750118   1.000000
     53        -39.749836   1.000000
     54        -39.749213   1.000000
     55        -39.747532   1.000000
     56        -39.746615   1.000000
     57        -39.746000   1.000000
     58        -39.745465   1.000000
     59        -39.744600   1.000000
     60        -39.743474   1.000000
     61        -39.742724   1.000000
     62        -39.741562   1.000000
     63        -39.740792   1.000000
     64        -39.740029   1.000000
     65        -39.739073   1.000000
     66        -39.738483   1.000000
     67        -39.738321   1.000000
     68        -39.737365   1.000000
     69        -39.736262   1.000000
     70        -39.735542   1.000000
     71        -39.734744   1.000000
     72        -39.734049   1.000000
     73        -39.733381   1.000000
     74        -39.732157   1.000000
     75        -39.730906   1.000000
     76        -39.730531   1.000000
     77        -39.729588   1.000000
     78        -39.726631   1.000000
     79        -39.726176   1.000000
     80        -39.724772   1.000000
     81        -39.724352   1.000000
     82        -39.723940   1.000000
     83        -39.723485   1.000000
     84        -39.723215   1.000000
     85        -39.722738   1.000000
     86        -39.722312   1.000000
     87        -39.721898   1.000000
     88        -39.720018   1.000000
     89        -39.719313   1.000000
     90        -39.718691   1.000000
     91        -39.717830   1.000000
     92        -39.717319   1.000000
     93        -39.716181   1.000000
     94        -39.715817   1.000000
     95        -39.714697   1.000000
     96        -39.713831   1.000000
     97        -18.377058   1.000000
     98        -18.318220   1.000000
     99        -18.313355   1.000000
    100        -18.307263   1.000000
    101        -18.302303   1.000000
    102        -18.297007   1.000000
    103        -18.294961   1.000000
    104        -18.294304   1.000000
    105        -18.289776   1.000000
    106        -18.282304   1.000000
    107        -18.280252   1.000000
    108        -18.272322   1.000000
    109        -18.261853   1.000000
    110        -18.259740   1.000000
    111        -18.255794   1.000000
    112        -18.253758   1.000000
    113        -18.247508   1.000000
    114        -18.241062   1.000000
    115        -18.236668   1.000000
    116        -18.234298   1.000000
    117        -18.220804   1.000000
    118        -18.220499   1.000000
    119        -18.217074   1.000000
    120        -18.216288   1.000000
    121        -18.212587   1.000000
    122        -18.209383   1.000000
    123        -18.206896   1.000000
    124        -18.205199   1.000000
    125        -18.203143   1.000000
    126        -18.202526   1.000000
    127        -18.201815   1.000000
    128        -18.200374   1.000000
    129        -18.200090   1.000000
    130        -18.198837   1.000000
    131        -18.197428   1.000000
    132        -18.196956   1.000000
    133        -18.194490   1.000000
    134        -18.183280   1.000000
    135        -18.180203   1.000000
    136        -18.178329   1.000000
    137        -18.173830   1.000000
    138        -18.170639   1.000000
    139        -18.169152   1.000000
    140        -18.167114   1.000000
    141        -18.165642   1.000000
    142        -18.161510   1.000000
    143        -18.158848   1.000000
    144        -18.154676   1.000000
    145        -18.152614   1.000000
    146        -18.144434   1.000000
    147        -18.138245   1.000000
    148        -18.137229   1.000000
    149        -18.134992   1.000000
    150        -18.134753   1.000000
    151        -18.128553   1.000000
    152        -18.126696   1.000000
    153        -18.120819   1.000000
    154        -18.116356   1.000000
    155        -18.115086   1.000000
    156        -18.112882   1.000000
    157        -18.110496   1.000000
    158        -18.093611   1.000000
    159        -18.090741   1.000000
    160        -18.082620   1.000000
    161        -18.080411   1.000000
    162        -18.078401   1.000000
    163        -18.075229   1.000000
    164        -18.073913   1.000000
    165        -18.073174   1.000000
    166        -18.071587   1.000000
    167        -18.063138   1.000000
    168        -18.062039   1.000000
    169        -18.059505   1.000000
    170        -18.058760   1.000000
    171        -18.053497   1.000000
    172        -18.052655   1.000000
    173        -18.050518   1.000000
    174        -18.024619   1.000000
    175        -18.000728   1.000000
    176        -17.988569   1.000000
    177        -17.983008   1.000000
    178        -17.982216   1.000000
    179        -17.970767   1.000000
    180        -17.960850   1.000000
    181        -17.955107   1.000000
    182        -17.952927   1.000000
    183        -17.950719   1.000000
    184        -17.948149   1.000000
    185        -17.947617   1.000000
    186        -17.943510   1.000000
    187        -17.942694   1.000000
    188        -17.941851   1.000000
    189        -17.941056   1.000000
    190        -17.937965   1.000000
    191        -17.934763   1.000000
    192        -17.933286   1.000000
    193        -17.927137   1.000000
    194        -17.926208   1.000000
    195        -17.914591   1.000000
    196        -17.912831   1.000000
    197        -17.903019   1.000000
    198        -17.895867   1.000000
    199        -17.892563   1.000000
    200        -17.885989   1.000000
    201        -17.879266   1.000000
    202        -17.874654   1.000000
    203        -17.872950   1.000000
    204        -17.871515   1.000000
    205        -17.868136   1.000000
    206        -17.862546   1.000000
    207        -17.861481   1.000000
    208        -17.860019   1.000000
    209        -17.858949   1.000000
    210        -17.857813   1.000000
    211        -17.856909   1.000000
    212        -17.855871   1.000000
    213        -17.852093   1.000000
    214        -17.850334   1.000000
    215        -17.836394   1.000000
    216        -17.834274   1.000000
    217        -17.832276   1.000000
    218        -17.829661   1.000000
    219        -17.827323   1.000000
    220        -17.824445   1.000000
    221        -17.819039   1.000000
    222        -17.817652   1.000000
    223        -17.806268   1.000000
    224        -17.804373   1.000000
    225        -17.799911   1.000000
    226        -17.798490   1.000000
    227        -17.796070   1.000000
    228        -17.795178   1.000000
    229        -17.793265   1.000000
    230        -17.792432   1.000000
    231        -17.786459   1.000000
    232        -17.784654   1.000000
    233        -17.782165   1.000000
    234        -17.779934   1.000000
    235        -17.772086   1.000000
    236        -17.769048   1.000000
    237        -17.766449   1.000000
    238        -17.765807   1.000000
    239        -17.762528   1.000000
    240        -17.761607   1.000000
    241        -17.760378   1.000000
    242        -17.751175   1.000000
    243        -17.748812   1.000000
    244        -17.747019   1.000000
    245        -17.744651   1.000000
    246        -17.741171   1.000000
    247        -17.739811   1.000000
    248        -17.738819   1.000000
    249        -17.735896   1.000000
    250        -17.733138   1.000000
    251        -17.729323   1.000000
    252        -17.728131   1.000000
    253        -17.725053   1.000000
    254        -17.723020   1.000000
    255        -17.711179   1.000000
    256        -17.708886   1.000000
    257        -17.705205   1.000000
    258        -17.704437   1.000000
    259        -17.701996   1.000000
    260        -17.696169   1.000000
    261        -17.689675   1.000000
    262        -17.686680   1.000000
    263        -17.686043   1.000000
    264        -17.684768   1.000000
    265        -17.683856   1.000000
    266        -17.681710   1.000000
    267        -17.681342   1.000000
    268        -17.679673   1.000000
    269        -17.677897   1.000000
    270        -17.675535   1.000000
    271        -17.672528   1.000000
    272        -17.670978   1.000000
    273        -17.669797   1.000000
    274        -17.669416   1.000000
    275        -17.666676   1.000000
    276        -17.662319   1.000000
    277        -17.660348   1.000000
    278        -17.659540   1.000000
    279        -17.658977   1.000000
    280        -17.650104   1.000000
    281        -17.648240   1.000000
    282        -17.648042   1.000000
    283        -17.647218   1.000000
    284        -17.644832   1.000000
    285        -17.644522   1.000000
    286        -17.643079   1.000000
    287        -17.640278   1.000000
    288        -17.639698   1.000000
    289        -17.638646   1.000000
    290        -17.637004   1.000000
    291        -17.636310   1.000000
    292        -17.632915   1.000000
    293        -17.631946   1.000000
    294        -17.631594   1.000000
    295        -17.630972   1.000000
    296        -17.630063   1.000000
    297        -17.628280   1.000000
    298        -17.627183   1.000000
    299        -17.626323   1.000000
    300        -17.624121   1.000000
    301        -17.623473   1.000000
    302        -17.622111   1.000000
    303        -17.621631   1.000000
    304        -17.620142   1.000000
    305        -17.618702   1.000000
    306        -17.617559   1.000000
    307        -17.617129   1.000000
    308        -17.616698   1.000000
    309        -17.616122   1.000000
    310        -17.615057   1.000000
    311        -17.614060   1.000000
    312        -17.606752   1.000000
    313        -17.605645   1.000000
    314        -17.604039   1.000000
    315        -17.603120   1.000000
    316        -17.602654   1.000000
    317        -17.596442   1.000000
    318        -17.595945   1.000000
    319        -17.595268   1.000000
    320        -17.594625   1.000000
    321        -17.592353   1.000000
    322        -17.591131   1.000000
    323        -17.585680   1.000000
    324        -17.582388   1.000000
    325        -17.581276   1.000000
    326        -17.580682   1.000000
    327        -17.580063   1.000000
    328        -17.577633   1.000000
    329        -17.577169   1.000000
    330        -17.576676   1.000000
    331        -17.575735   1.000000
    332        -17.572320   1.000000
    333        -17.569347   1.000000
    334        -17.568168   1.000000
    335        -17.566521   1.000000
    336        -17.566393   1.000000
    337        -17.565171   1.000000
    338        -17.563754   1.000000
    339        -17.563463   1.000000
    340        -17.562769   1.000000
    341        -17.560691   1.000000
    342        -17.559374   1.000000
    343        -17.558631   1.000000
    344        -17.554327   1.000000
    345        -17.552732   1.000000
    346        -17.550288   1.000000
    347        -17.549128   1.000000
    348        -17.547232   1.000000
    349        -17.546724   1.000000
    350        -17.545296   1.000000
    351        -17.544535   1.000000
    352        -17.543383   1.000000
    353        -17.540852   1.000000
    354        -17.536112   1.000000
    355        -17.534012   1.000000
    356        -17.528300   1.000000
    357        -17.521559   1.000000
    358        -17.520087   1.000000
    359        -17.516253   1.000000
    360        -17.515885   1.000000
    361        -17.513487   1.000000
    362        -17.512473   1.000000
    363        -17.510622   1.000000
    364        -17.505291   1.000000
    365        -17.502847   1.000000
    366        -17.500641   1.000000
    367        -17.499406   1.000000
    368        -17.497743   1.000000
    369        -17.496307   1.000000
    370        -17.495504   1.000000
    371        -17.492460   1.000000
    372        -17.490455   1.000000
    373        -17.487845   1.000000
    374        -17.480839   1.000000
    375        -17.480517   1.000000
    376        -17.477270   1.000000
    377        -17.475380   1.000000
    378        -17.474123   1.000000
    379        -17.468411   1.000000
    380        -17.453760   1.000000
    381        -17.447333   1.000000
    382        -17.438110   1.000000
    383        -17.435173   1.000000
    384        -17.425651   1.000000
    385          2.489569   1.000000
    386          3.571042   1.000000
    387          3.866873   1.000000
    388          4.330905   1.000000
    389          4.572256   1.000000
    390          4.654122   1.000000
    391          4.707621   1.000000
    392          4.824183   1.000000
    393          4.878676   1.000000
    394          4.955671   1.000000
    395          5.252611   1.000000
    396          5.278471   1.000000
    397          5.361716   1.000000
    398          5.406366   1.000000
    399          5.428397   1.000000
    400          5.455726   1.000000
    401          5.518516   1.000000
    402          5.577674   1.000000
    403          5.694167   1.000000
    404          5.742242   1.000000
    405          5.960818   1.000000
    406          5.967848   1.000000
    407          5.986618   1.000000
    408          5.990113   1.000000
    409          6.002245   1.000000
    410          6.015040   1.000000
    411          6.020206   1.000000
    412          6.033524   1.000000
    413          6.041052   1.000000
    414          6.051702   1.000000
    415          6.075759   1.000000
    416          6.114886   1.000000
    417          6.133130   1.000000
    418          6.204758   1.000000
    419          6.214866   1.000000
    420          6.243548   1.000000
    421          6.248361   1.000000
    422          6.267688   1.000000
    423          6.289940   1.000000
    424          6.297227   1.000000
    425          6.310553   1.000000
    426          6.323950   1.000000
    427          6.328720   1.000000
    428          6.345370   1.000000
    429          6.362843   1.000000
    430          6.396225   1.000000
    431          6.440772   1.000000
    432          6.519183   1.000000
    433          6.525421   1.000000
    434          6.526170   1.000000
    435          6.527847   1.000000
    436          6.534333   1.000000
    437          6.538258   1.000000
    438          6.542585   1.000000
    439          6.574017   1.000000
    440          6.588849   1.000000
    441          6.590540   1.000000
    442          6.592138   1.000000
    443          6.641181   1.000000
    444          6.649523   1.000000
    445          6.656847   1.000000
    446          6.678267   1.000000
    447          6.689375   1.000000
    448          6.704728   1.000000
    449          6.724379   1.000000
    450          6.770890   1.000000
    451          6.822985   1.000000
    452          6.858014   1.000000
    453          6.864467   1.000000
    454          6.889047   1.000000
    455          6.905613   1.000000
    456          6.923560   1.000000
    457          6.925681   1.000000
    458          6.927778   1.000000
    459          6.930873   1.000000
    460          6.931504   1.000000
    461          6.933134   1.000000
    462          6.935132   1.000000
    463          7.011804   1.000000
    464          7.055948   1.000000
    465          7.062126   1.000000
    466          7.066322   1.000000
    467          7.067971   1.000000
    468          7.076747   1.000000
    469          7.077255   1.000000
    470          7.078045   1.000000
    471          7.109578   1.000000
    472          7.135691   1.000000
    473          7.164676   1.000000
    474          7.167914   1.000000
    475          7.169197   1.000000
    476          7.180859   1.000000
    477          7.185600   1.000000
    478          7.188855   1.000000
    479          7.191078   1.000000
    480          7.249371   1.000000
    481          7.254514   1.000000
    482          7.262519   1.000000
    483          7.264455   1.000000
    484          7.280776   1.000000
    485          7.300564   1.000000
    486          7.413623   1.000000
    487          7.437411   1.000000
    488          7.450805   1.000000
    489          7.463709   1.000000
    490          7.471096   1.000000
    491          7.496118   1.000000
    492          7.514062   1.000000
    493          7.525520   1.000000
    494          7.541358   1.000000
    495          7.548920   1.000000
    496          7.566810   1.000000
    497          7.585430   1.000000
    498          7.606332   1.000000
    499          7.608948   1.000000
    500          7.619165   1.000000
    501          7.640089   1.000000
    502          7.656745   1.000000
    503          7.668894   1.000000
    504          7.674865   1.000000
    505          7.802016   1.000000
    506          7.818278   1.000000
    507          7.824430   1.000000
    508          7.833073   1.000000
    509          7.876903   1.000000
    510          7.879112   1.000000
    511          7.888537   1.000000
    512          7.905845   1.000000
    513          7.913833   1.000000
    514          7.942268   1.000000
    515          7.945828   1.000000
    516          7.949199   1.000000
    517          7.966202   1.000000
    518          7.970674   1.000000
    519          7.999183   1.000000
    520          8.002659   1.000000
    521          8.007956   1.000000
    522          8.028673   1.000000
    523          8.036271   1.000000
    524          8.039421   1.000000
    525          8.044302   1.000000
    526          8.046199   1.000000
    527          8.056078   1.000000
    528          8.057769   1.000000
    529          8.061353   1.000000
    530          8.062655   1.000000
    531          8.090307   1.000000
    532          8.095779   1.000000
    533          8.099716   1.000000
    534          8.102348   1.000000
    535          8.117016   1.000000
    536          8.141596   1.000000
    537          8.145785   1.000000
    538          8.147475   1.000000
    539          8.150222   1.000000
    540          8.158341   1.000000
    541          8.178215   1.000000
    542          8.216150   1.000001
    543          8.254785   1.000004
    544          8.269528   1.000006
    545          8.283386   1.000010
    546          8.316480   1.000028
    547          8.323956   1.000035
    548          8.330872   1.000042
    549          8.338348   1.000053
    550          8.345413   1.000065
    551          8.351097   1.000076
    552          8.369150   1.000126
    553          8.396947   1.000264
    554          8.399049   1.000278
    555          8.408583   1.000355
    556          8.424110   1.000521
    557          8.433069   1.000646
    558          8.433796   1.000658
    559          8.434877   1.000675
    560          8.442753   1.000812
    561          8.447914   1.000914
    562          8.449341   1.000945
    563          8.451909   1.001002
    564          8.460496   1.001215
    565          8.487398   1.002162
    566          8.544808   1.006385
    567          8.553935   1.007440
    568          8.557625   1.007902
    569          8.687053   1.033237
    570          8.751772   1.028212
    571          8.765927   1.020734
    572          8.775609   1.013697
    573          8.794120   0.995260
    574          8.889536   0.772941
    575          8.918381   0.665425
    576          8.931728   0.611539
    577          8.941503   0.570996
    578          8.978847   0.413761
    579          8.991909   0.360184
    580          8.998908   0.332229
    581          9.022885   0.242045
    582          9.056057   0.136257
    583          9.069408   0.101053
    584          9.078692   0.079214
    585          9.104092   0.030498
    586          9.113285   0.016715
    587          9.135851  -0.009175
    588          9.150033  -0.020257
    589          9.158302  -0.025104
    590          9.171057  -0.030527
    591          9.183481  -0.033734
    592          9.184889  -0.033983
    593          9.189570  -0.034662
    594          9.190983  -0.034823
    595          9.194176  -0.035117
    596          9.199303  -0.035395
    597          9.200858  -0.035435
    598          9.203887  -0.035457
    599          9.205590  -0.035438
    600          9.208945  -0.035340
    601          9.212954  -0.035122
    602          9.234939  -0.032377
    603          9.242871  -0.030916
    604          9.251850  -0.029073
    605          9.255318  -0.028322
    606          9.307531  -0.016594
    607          9.347934  -0.009425
    608          9.393968  -0.004313
    609          9.400506  -0.003818
    610          9.405506  -0.003471
    611          9.419093  -0.002660
    612          9.429256  -0.002163
    613          9.454331  -0.001266
    614          9.458998  -0.001141
    615          9.465627  -0.000983
    616          9.472747  -0.000834
    617          9.479783  -0.000708
    618          9.483086  -0.000655
    619          9.486329  -0.000606
    620          9.490408  -0.000549
    621          9.492282  -0.000525
    622          9.494575  -0.000496
    623          9.504367  -0.000390
    624          9.506695  -0.000368
    625          9.516928  -0.000284
    626          9.552689  -0.000109
    627          9.562443  -0.000083
    628          9.574302  -0.000059
    629          9.595717  -0.000032
    630          9.607705  -0.000022
    631          9.609334  -0.000021
    632          9.615045  -0.000018
    633          9.620882  -0.000015
    634          9.624886  -0.000013
    635          9.642826  -0.000007
    636          9.649979  -0.000006
    637          9.661736  -0.000004
    638          9.668827  -0.000003
    639          9.683808  -0.000002
    640          9.693346  -0.000001
    641          9.740481  -0.000000
    642          9.746451  -0.000000
    643          9.781875  -0.000000
    644          9.796108  -0.000000
    645          9.837280  -0.000000
    646          9.861220  -0.000000
    647          9.875413  -0.000000
    648          9.882726  -0.000000
    649          9.885442  -0.000000
    650          9.903166  -0.000000
    651          9.904445  -0.000000
    652          9.917816  -0.000000
    653          9.925359  -0.000000
    654          9.934499  -0.000000
    655          9.937524  -0.000000
    656          9.945933  -0.000000
    657          9.962142  -0.000000
    658          9.974529  -0.000000
    659          9.981238  -0.000000
    660          9.985002  -0.000000
    661          9.993778  -0.000000
    662         10.006495  -0.000000
    663         10.011778  -0.000000
    664         10.013484  -0.000000
    665         10.016619  -0.000000
    666         10.017579  -0.000000
    667         10.020655  -0.000000
    668         10.025001  -0.000000
    669         10.034240  -0.000000
    670         10.097720  -0.000000
    671         10.108514  -0.000000
    672         10.112883  -0.000000
    673         10.124908  -0.000000
    674         10.167678  -0.000000
    675         10.169761  -0.000000
    676         10.198950  -0.000000
    677         10.205075  -0.000000
    678         10.223892  -0.000000
    679         10.227726  -0.000000
    680         10.230741  -0.000000
    681         10.246517  -0.000000
    682         10.253364  -0.000000
    683         10.254491  -0.000000
    684         10.262590  -0.000000
    685         10.268725  -0.000000
    686         10.277981  -0.000000
    687         10.287564  -0.000000
    688         10.294127  -0.000000
    689         10.297023  -0.000000
    690         10.309171  -0.000000
    691         10.313294  -0.000000
 
 -0.2500000E+00  0.8988716E-17  0.3333333E+00  0.4166667E-01
      1        -39.896908   1.000000
      2        -39.883480   1.000000
      3        -39.865673   1.000000
      4        -39.854059   1.000000
      5        -39.853107   1.000000
      6        -39.848769   1.000000
      7        -39.841206   1.000000
      8        -39.841046   1.000000
      9        -39.838503   1.000000
     10        -39.827512   1.000000
     11        -39.825964   1.000000
     12        -39.821422   1.000000
     13        -39.818727   1.000000
     14        -39.817214   1.000000
     15        -39.813529   1.000000
     16        -39.812221   1.000000
     17        -39.806525   1.000000
     18        -39.805226   1.000000
     19        -39.804137   1.000000
     20        -39.796163   1.000000
     21        -39.795471   1.000000
     22        -39.793766   1.000000
     23        -39.786709   1.000000
     24        -39.786423   1.000000
     25        -39.783868   1.000000
     26        -39.781950   1.000000
     27        -39.781191   1.000000
     28        -39.780295   1.000000
     29        -39.778977   1.000000
     30        -39.777488   1.000000
     31        -39.774166   1.000000
     32        -39.773089   1.000000
     33        -39.771211   1.000000
     34        -39.768786   1.000000
     35        -39.768515   1.000000
     36        -39.766985   1.000000
     37        -39.765261   1.000000
     38        -39.765087   1.000000
     39        -39.764120   1.000000
     40        -39.763748   1.000000
     41        -39.762549   1.000000
     42        -39.761487   1.000000
     43        -39.760036   1.000000
     44        -39.759925   1.000000
     45        -39.758070   1.000000
     46        -39.757884   1.000000
     47        -39.756443   1.000000
     48        -39.755080   1.000000
     49        -39.753622   1.000000
     50        -39.751474   1.000000
     51        -39.750768   1.000000
     52        -39.750163   1.000000
     53        -39.748654   1.000000
     54        -39.748030   1.000000
     55        -39.747189   1.000000
     56        -39.746441   1.000000
     57        -39.745627   1.000000
     58        -39.745532   1.000000
     59        -39.744931   1.000000
     60        -39.744587   1.000000
     61        -39.742525   1.000000
     62        -39.742231   1.000000
     63        -39.741056   1.000000
     64        -39.740841   1.000000
     65        -39.738908   1.000000
     66        -39.738705   1.000000
     67        -39.737401   1.000000
     68        -39.737025   1.000000
     69        -39.736113   1.000000
     70        -39.734998   1.000000
     71        -39.734715   1.000000
     72        -39.734639   1.000000
     73        -39.732997   1.000000
     74        -39.732375   1.000000
     75        -39.732279   1.000000
     76        -39.729717   1.000000
     77        -39.728707   1.000000
     78        -39.727678   1.000000
     79        -39.725847   1.000000
     80        -39.724784   1.000000
     81        -39.724291   1.000000
     82        -39.724225   1.000000
     83        -39.723366   1.000000
     84        -39.723167   1.000000
     85        -39.722540   1.000000
     86        -39.722353   1.000000
     87        -39.722104   1.000000
     88        -39.720234   1.000000
     89        -39.719042   1.000000
     90        -39.718938   1.000000
     91        -39.717647   1.000000
     92        -39.717035   1.000000
     93        -39.715824   1.000000
     94        -39.715538   1.000000
     95        -39.715446   1.000000
     96        -39.713848   1.000000
     97        -18.377062   1.000000
     98        -18.317450   1.000000
     99        -18.313476   1.000000
    100        -18.308847   1.000000
    101        -18.301789   1.000000
    102        -18.297182   1.000000
    103        -18.294467   1.000000
    104        -18.294300   1.000000
    105        -18.289978   1.000000
    106        -18.282172   1.000000
    107        -18.280115   1.000000
    108        -18.272224   1.000000
    109        -18.260439   1.000000
    110        -18.260369   1.000000
    111        -18.257019   1.000000
    112        -18.253581   1.000000
    113        -18.247357   1.000000
    114        -18.241099   1.000000
    115        -18.236202   1.000000
    116        -18.234155   1.000000
    117        -18.220737   1.000000
    118        -18.220645   1.000000
    119        -18.217436   1.000000
    120        -18.216572   1.000000
    121        -18.212220   1.000000
    122        -18.209434   1.000000
    123        -18.208230   1.000000
    124        -18.205037   1.000000
    125        -18.204588   1.000000
    126        -18.201200   1.000000
    127        -18.201141   1.000000
    128        -18.200640   1.000000
    129        -18.199636   1.000000
    130        -18.198428   1.000000
    131        -18.197920   1.000000
    132        -18.195720   1.000000
    133        -18.195623   1.000000
    134        -18.184309   1.000000
    135        -18.179650   1.000000
    136        -18.178127   1.000000
    137        -18.173685   1.000000
    138        -18.170486   1.000000
    139        -18.168797   1.000000
    140        -18.166771   1.000000
    141        -18.165775   1.000000
    142        -18.161061   1.000000
    143        -18.158746   1.000000
    144        -18.155118   1.000000
    145        -18.153007   1.000000
    146        -18.143976   1.000000
    147        -18.137875   1.000000
    148        -18.137567   1.000000
    149        -18.135411   1.000000
    150        -18.134324   1.000000
    151        -18.128980   1.000000
    152        -18.127637   1.000000
    153        -18.119748   1.000000
    154        -18.116720   1.000000
    155        -18.116236   1.000000
    156        -18.112477   1.000000
    157        -18.109118   1.000000
    158        -18.093055   1.000000
    159        -18.090411   1.000000
    160        -18.083468   1.000000
    161        -18.079868   1.000000
    162        -18.079456   1.000000
    163        -18.074799   1.000000
    164        -18.074652   1.000000
    165        -18.073156   1.000000
    166        -18.072645   1.000000
    167        -18.065278   1.000000
    168        -18.061730   1.000000
    169        -18.059124   1.000000
    170        -18.058830   1.000000
    171        -18.052462   1.000000
    172        -18.051308   1.000000
    173        -18.050261   1.000000
    174        -18.024639   1.000000
    175        -17.998521   1.000000
    176        -17.990970   1.000000
    177        -17.982505   1.000000
    178        -17.981980   1.000000
    179        -17.970072   1.000000
    180        -17.958517   1.000000
    181        -17.956037   1.000000
    182        -17.954530   1.000000
    183        -17.952063   1.000000
    184        -17.948636   1.000000
    185        -17.947767   1.000000
    186        -17.943945   1.000000
    187        -17.943634   1.000000
    188        -17.940224   1.000000
    189        -17.939669   1.000000
    190        -17.936916   1.000000
    191        -17.933279   1.000000
    192        -17.932356   1.000000
    193        -17.929567   1.000000
    194        -17.926617   1.000000
    195        -17.914415   1.000000
    196        -17.912880   1.000000
    197        -17.903508   1.000000
    198        -17.897670   1.000000
    199        -17.895563   1.000000
    200        -17.884974   1.000000
    201        -17.878472   1.000000
    202        -17.875565   1.000000
    203        -17.871623   1.000000
    204        -17.870688   1.000000
    205        -17.868625   1.000000
    206        -17.861353   1.000000
    207        -17.861261   1.000000
    208        -17.859496   1.000000
    209        -17.858265   1.000000
    210        -17.857231   1.000000
    211        -17.855488   1.000000
    212        -17.853728   1.000000
    213        -17.852443   1.000000
    214        -17.852055   1.000000
    215        -17.838665   1.000000
    216        -17.832848   1.000000
    217        -17.830794   1.000000
    218        -17.830238   1.000000
    219        -17.827161   1.000000
    220        -17.824213   1.000000
    221        -17.821844   1.000000
    222        -17.819583   1.000000
    223        -17.806660   1.000000
    224        -17.804962   1.000000
    225        -17.798894   1.000000
    226        -17.796768   1.000000
    227        -17.796074   1.000000
    228        -17.795331   1.000000
    229        -17.794465   1.000000
    230        -17.794454   1.000000
    231        -17.787077   1.000000
    232        -17.786581   1.000000
    233        -17.781340   1.000000
    234        -17.780546   1.000000
    235        -17.769906   1.000000
    236        -17.768503   1.000000
    237        -17.765156   1.000000
    238        -17.764890   1.000000
    239        -17.762069   1.000000
    240        -17.761096   1.000000
    241        -17.759340   1.000000
    242        -17.749380   1.000000
    243        -17.749318   1.000000
    244        -17.747241   1.000000
    245        -17.745741   1.000000
    246        -17.741089   1.000000
    247        -17.739908   1.000000
    248        -17.738879   1.000000
    249        -17.735704   1.000000
    250        -17.733226   1.000000
    251        -17.731041   1.000000
    252        -17.727883   1.000000
    253        -17.723680   1.000000
    254        -17.723322   1.000000
    255        -17.713245   1.000000
    256        -17.709320   1.000000
    257        -17.706175   1.000000
    258        -17.702621   1.000000
    259        -17.701513   1.000000
    260        -17.696656   1.000000
    261        -17.690511   1.000000
    262        -17.688177   1.000000
    263        -17.685228   1.000000
    264        -17.683552   1.000000
    265        -17.682418   1.000000
    266        -17.681332   1.000000
    267        -17.681155   1.000000
    268        -17.680370   1.000000
    269        -17.677210   1.000000
    270        -17.673928   1.000000
    271        -17.673007   1.000000
    272        -17.670653   1.000000
    273        -17.670612   1.000000
    274        -17.668808   1.000000
    275        -17.667200   1.000000
    276        -17.663894   1.000000
    277        -17.659848   1.000000
    278        -17.659320   1.000000
    279        -17.657963   1.000000
    280        -17.649903   1.000000
    281        -17.649492   1.000000
    282        -17.648308   1.000000
    283        -17.647423   1.000000
    284        -17.645910   1.000000
    285        -17.645061   1.000000
    286        -17.644304   1.000000
    287        -17.641326   1.000000
    288        -17.639742   1.000000
    289        -17.638550   1.000000
    290        -17.636638   1.000000
    291        -17.634978   1.000000
    292        -17.633110   1.000000
    293        -17.632155   1.000000
    294        -17.631323   1.000000
    295        -17.630917   1.000000
    296        -17.629446   1.000000
    297        -17.629439   1.000000
    298        -17.627278   1.000000
    299        -17.626315   1.000000
    300        -17.626205   1.000000
    301        -17.622828   1.000000
    302        -17.621855   1.000000
    303        -17.620712   1.000000
    304        -17.619053   1.000000
    305        -17.618965   1.000000
    306        -17.618016   1.000000
    307        -17.616763   1.000000
    308        -17.616501   1.000000
    309        -17.615337   1.000000
    310        -17.614941   1.000000
    311        -17.614460   1.000000
    312        -17.606815   1.000000
    313        -17.605654   1.000000
    314        -17.603899   1.000000
    315        -17.603390   1.000000
    316        -17.602398   1.000000
    317        -17.596738   1.000000
    318        -17.595242   1.000000
    319        -17.594403   1.000000
    320        -17.593386   1.000000
    321        -17.591656   1.000000
    322        -17.590836   1.000000
    323        -17.586102   1.000000
    324        -17.582362   1.000000
    325        -17.581872   1.000000
    326        -17.581117   1.000000
    327        -17.580563   1.000000
    328        -17.577846   1.000000
    329        -17.577615   1.000000
    330        -17.576317   1.000000
    331        -17.576006   1.000000
    332        -17.573580   1.000000
    333        -17.569907   1.000000
    334        -17.568632   1.000000
    335        -17.567539   1.000000
    336        -17.566374   1.000000
    337        -17.565059   1.000000
    338        -17.563644   1.000000
    339        -17.562970   1.000000
    340        -17.561753   1.000000
    341        -17.560851   1.000000
    342        -17.559425   1.000000
    343        -17.557959   1.000000
    344        -17.553139   1.000000
    345        -17.552496   1.000000
    346        -17.550529   1.000000
    347        -17.548379   1.000000
    348        -17.547086   1.000000
    349        -17.546231   1.000000
    350        -17.546229   1.000000
    351        -17.545632   1.000000
    352        -17.543024   1.000000
    353        -17.540903   1.000000
    354        -17.535835   1.000000
    355        -17.534491   1.000000
    356        -17.528796   1.000000
    357        -17.521755   1.000000
    358        -17.520373   1.000000
    359        -17.515861   1.000000
    360        -17.515399   1.000000
    361        -17.513254   1.000000
    362        -17.513234   1.000000
    363        -17.511385   1.000000
    364        -17.504899   1.000000
    365        -17.501925   1.000000
    366        -17.499715   1.000000
    367        -17.499094   1.000000
    368        -17.497840   1.000000
    369        -17.496990   1.000000
    370        -17.495718   1.000000
    371        -17.492759   1.000000
    372        -17.489061   1.000000
    373        -17.488394   1.000000
    374        -17.481220   1.000000
    375        -17.480457   1.000000
    376        -17.477003   1.000000
    377        -17.475590   1.000000
    378        -17.473927   1.000000
    379        -17.469049   1.000000
    380        -17.453570   1.000000
    381        -17.447200   1.000000
    382        -17.438274   1.000000
    383        -17.435100   1.000000
    384        -17.425716   1.000000
    385          2.489338   1.000000
    386          3.571043   1.000000
    387          3.867032   1.000000
    388          4.333773   1.000000
    389          4.571224   1.000000
    390          4.654187   1.000000
    391          4.701556   1.000000
    392          4.822592   1.000000
    393          4.879739   1.000000
    394          4.961272   1.000000
    395          5.253986   1.000000
    396          5.285681   1.000000
    397          5.364187   1.000000
    398          5.404587   1.000000
    399          5.421459   1.000000
    400          5.456740   1.000000
    401          5.501806   1.000000
    402          5.595734   1.000000
    403          5.692951   1.000000
    404          5.731245   1.000000
    405          5.957844   1.000000
    406          5.964454   1.000000
    407          5.986118   1.000000
    408          5.994575   1.000000
    409          6.006853   1.000000
    410          6.011679   1.000000
    411          6.018424   1.000000
    412          6.032485   1.000000
    413          6.040448   1.000000
    414          6.064125   1.000000
    415          6.075520   1.000000
    416          6.098925   1.000000
    417          6.151634   1.000000
    418          6.207176   1.000000
    419          6.224661   1.000000
    420          6.240924   1.000000
    421          6.246775   1.000000
    422          6.251425   1.000000
    423          6.291680   1.000000
    424          6.304184   1.000000
    425          6.308208   1.000000
    426          6.317393   1.000000
    427          6.331562   1.000000
    428          6.343896   1.000000
    429          6.384984   1.000000
    430          6.392568   1.000000
    431          6.440664   1.000000
    432          6.515468   1.000000
    433          6.519604   1.000000
    434          6.528340   1.000000
    435          6.529629   1.000000
    436          6.531234   1.000000
    437          6.539815   1.000000
    438          6.543567   1.000000
    439          6.564237   1.000000
    440          6.586347   1.000000
    441          6.586702   1.000000
    442          6.592025   1.000000
    443          6.623549   1.000000
    444          6.645897   1.000000
    445          6.661468   1.000000
    446          6.680989   1.000000
    447          6.686895   1.000000
    448          6.708266   1.000000
    449          6.767371   1.000000
    450          6.771720   1.000000
    451          6.804557   1.000000
    452          6.858201   1.000000
    453          6.877099   1.000000
    454          6.890184   1.000000
    455          6.910510   1.000000
    456          6.922288   1.000000
    457          6.925734   1.000000
    458          6.926653   1.000000
    459          6.929690   1.000000
    460          6.930503   1.000000
    461          6.934741   1.000000
    462          6.938185   1.000000
    463          6.977462   1.000000
    464          7.059205   1.000000
    465          7.064744   1.000000
    466          7.065372   1.000000
    467          7.070083   1.000000
    468          7.075968   1.000000
    469          7.082907   1.000000
    470          7.083156   1.000000
    471          7.111885   1.000000
    472          7.134526   1.000000
    473          7.139936   1.000000
    474          7.167960   1.000000
    475          7.177902   1.000000
    476          7.180191   1.000000
    477          7.185908   1.000000
    478          7.187861   1.000000
    479          7.189864   1.000000
    480          7.245472   1.000000
    481          7.256357   1.000000
    482          7.261562   1.000000
    483          7.265320   1.000000
    484          7.296503   1.000000
    485          7.302371   1.000000
    486          7.419121   1.000000
    487          7.436710   1.000000
    488          7.437431   1.000000
    489          7.465850   1.000000
    490          7.471308   1.000000
    491          7.492574   1.000000
    492          7.511744   1.000000
    493          7.526417   1.000000
    494          7.536683   1.000000
    495          7.546857   1.000000
    496          7.562697   1.000000
    497          7.596300   1.000000
    498          7.606160   1.000000
    499          7.608672   1.000000
    500          7.618981   1.000000
    501          7.658419   1.000000
    502          7.659834   1.000000
    503          7.665738   1.000000
    504          7.672744   1.000000
    505          7.803245   1.000000
    506          7.819053   1.000000
    507          7.823750   1.000000
    508          7.840793   1.000000
    509          7.876347   1.000000
    510          7.878947   1.000000
    511          7.889250   1.000000
    512          7.907571   1.000000
    513          7.912447   1.000000
    514          7.928425   1.000000
    515          7.945100   1.000000
    516          7.946395   1.000000
    517          7.959663   1.000000
    518          7.971441   1.000000
    519          8.001878   1.000000
    520          8.002087   1.000000
    521          8.005837   1.000000
    522          8.025711   1.000000
    523          8.033205   1.000000
    524          8.040626   1.000000
    525          8.043105   1.000000
    526          8.044455   1.000000
    527          8.055593   1.000000
    528          8.057870   1.000000
    529          8.058340   1.000000
    530          8.065573   1.000000
    531          8.084627   1.000000
    532          8.092151   1.000000
    533          8.098740   1.000000
    534          8.103418   1.000000
    535          8.131564   1.000000
    536          8.142492   1.000000
    537          8.145325   1.000000
    538          8.147447   1.000000
    539          8.151412   1.000000
    540          8.157219   1.000000
    541          8.177788   1.000000
    542          8.217464   1.000001
    543          8.254177   1.000004
    544          8.265546   1.000006
    545          8.279606   1.000009
    546          8.318618   1.000029
    547          8.322170   1.000033
    548          8.329264   1.000040
    549          8.338121   1.000052
    550          8.351829   1.000078
    551          8.354210   1.000083
    552          8.370907   1.000132
    553          8.392176   1.000233
    554          8.396306   1.000259
    555          8.418155   1.000450
    556          8.425625   1.000541
    557          8.432094   1.000631
    558          8.435482   1.000684
    559          8.437978   1.000726
    560          8.441592   1.000790
    561          8.444359   1.000842
    562          8.450656   1.000973
    563          8.456534   1.001112
    564          8.462719   1.001276
    565          8.485242   1.002067
    566          8.547116   1.006640
    567          8.548341   1.006779
    568          8.556195   1.007720
    569          8.684114   1.032773
    570          8.756177   1.026217
    571          8.765192   1.021202
    572          8.776045   1.013340
    573          8.794275   0.995076
    574          8.889640   0.772581
    575          8.912404   0.688832
    576          8.936678   0.591099
    577          8.939753   0.578305
    578          8.978468   0.415337
    579          8.990717   0.365002
    580          9.002195   0.319320
    581          9.030608   0.215242
    582          9.057462   0.132343
    583          9.063467   0.116168
    584          9.073930   0.090144
    585          9.101483   0.034773
    586          9.101974   0.033957
    587          9.123453   0.003707
    588          9.160224  -0.026074
    589          9.162433  -0.027119
    590          9.181077  -0.033256
    591          9.182026  -0.033453
    592          9.185582  -0.034098
    593          9.188834  -0.034570
    594          9.189554  -0.034660
    595          9.195513  -0.035212
    596          9.199162  -0.035390
    597          9.201881  -0.035450
    598          9.204342  -0.035454
    599          9.205119  -0.035445
    600          9.207320  -0.035397
    601          9.214904  -0.034979
    602          9.240268  -0.031416
    603          9.242169  -0.031053
    604          9.246307  -0.030231
    605          9.247979  -0.029888
    606          9.308903  -0.016311
    607          9.354801  -0.008463
    608          9.388915  -0.004731
    609          9.404669  -0.003527
    610          9.414344  -0.002923
    611          9.414950  -0.002888
    612          9.435362  -0.001905
    613          9.458235  -0.001161
    614          9.464926  -0.000998
    615          9.470027  -0.000889
    616          9.471914  -0.000851
    617          9.478861  -0.000723
    618          9.485031  -0.000625
    619          9.490661  -0.000546
    620          9.491779  -0.000531
    621          9.493825  -0.000506
    622          9.496549  -0.000473
    623          9.500492  -0.000429
    624          9.508279  -0.000353
    625          9.508289  -0.000353
    626          9.542012  -0.000146
    627          9.564548  -0.000078
    628          9.569842  -0.000067
    629          9.598244  -0.000029
    630          9.600814  -0.000027
    631          9.606402  -0.000023
    632          9.619205  -0.000015
    633          9.623820  -0.000013
    634          9.625240  -0.000013
    635          9.637728  -0.000009
    636          9.637919  -0.000009
    637          9.667453  -0.000003
    638          9.669995  -0.000003
    639          9.684864  -0.000002
    640          9.691952  -0.000001
    641          9.741296  -0.000000
    642          9.746089  -0.000000
    643          9.788553  -0.000000
    644          9.794602  -0.000000
    645          9.844500  -0.000000
    646          9.860949  -0.000000
    647          9.868696  -0.000000
    648          9.875211  -0.000000
    649          9.887924  -0.000000
    650          9.898018  -0.000000
    651          9.904952  -0.000000
    652          9.920867  -0.000000
    653          9.927766  -0.000000
    654          9.931923  -0.000000
    655          9.938908  -0.000000
    656          9.951246  -0.000000
    657          9.960884  -0.000000
    658          9.974547  -0.000000
    659          9.975694  -0.000000
    660          9.985661  -0.000000
    661          9.996400  -0.000000
    662         10.006695  -0.000000
    663         10.009965  -0.000000
    664         10.014036  -0.000000
    665         10.015947  -0.000000
    666         10.021075  -0.000000
    667         10.027542  -0.000000
    668         10.029377  -0.000000
    669         10.037210  -0.000000
    670         10.101775  -0.000000
    671         10.106761  -0.000000
    672         10.111292  -0.000000
    673         10.123732  -0.000000
    674         10.160245  -0.000000
    675         10.168987  -0.000000
    676         10.197782  -0.000000
    677         10.200602  -0.000000
    678         10.215946  -0.000000
    679         10.226053  -0.000000
    680         10.226525  -0.000000
    681         10.250617  -0.000000
    682         10.253676  -0.000000
    683         10.258812  -0.000000
    684         10.267005  -0.000000
    685         10.275550  -0.000000
    686         10.281329  -0.000000
    687         10.284349  -0.000000
    688         10.292648  -0.000000
    689         10.303649  -0.000000
    690         10.305200  -0.000000
    691         10.314505  -0.000000
 
 -0.1345275E-16 -0.2500000E+00  0.3333333E+00  0.4166667E-01
      1        -39.896842   1.000000
      2        -39.883493   1.000000
      3        -39.866150   1.000000
      4        -39.856072   1.000000
      5        -39.850656   1.000000
      6        -39.848099   1.000000
      7        -39.841877   1.000000
      8        -39.839536   1.000000
      9        -39.837666   1.000000
     10        -39.831659   1.000000
     11        -39.825273   1.000000
     12        -39.822666   1.000000
     13        -39.818313   1.000000
     14        -39.814798   1.000000
     15        -39.813535   1.000000
     16        -39.811636   1.000000
     17        -39.807602   1.000000
     18        -39.804929   1.000000
     19        -39.804016   1.000000
     20        -39.799074   1.000000
     21        -39.793870   1.000000
     22        -39.791507   1.000000
     23        -39.788337   1.000000
     24        -39.785844   1.000000
     25        -39.784086   1.000000
     26        -39.782791   1.000000
     27        -39.781914   1.000000
     28        -39.780160   1.000000
     29        -39.778637   1.000000
     30        -39.776236   1.000000
     31        -39.774302   1.000000
     32        -39.772050   1.000000
     33        -39.770916   1.000000
     34        -39.769955   1.000000
     35        -39.768061   1.000000
     36        -39.766770   1.000000
     37        -39.765904   1.000000
     38        -39.765220   1.000000
     39        -39.764897   1.000000
     40        -39.764153   1.000000
     41        -39.762102   1.000000
     42        -39.760824   1.000000
     43        -39.760454   1.000000
     44        -39.760217   1.000000
     45        -39.759556   1.000000
     46        -39.756307   1.000000
     47        -39.755604   1.000000
     48        -39.753777   1.000000
     49        -39.753139   1.000000
     50        -39.752104   1.000000
     51        -39.750963   1.000000
     52        -39.750118   1.000000
     53        -39.749836   1.000000
     54        -39.749213   1.000000
     55        -39.747532   1.000000
     56        -39.746615   1.000000
     57        -39.746000   1.000000
     58        -39.745465   1.000000
     59        -39.744600   1.000000
     60        -39.743474   1.000000
     61        -39.742724   1.000000
     62        -39.741562   1.000000
     63        -39.740792   1.000000
     64        -39.740029   1.000000
     65        -39.739073   1.000000
     66        -39.738483   1.000000
     67        -39.738321   1.000000
     68        -39.737365   1.000000
     69        -39.736262   1.000000
     70        -39.735542   1.000000
     71        -39.734744   1.000000
     72        -39.734049   1.000000
     73        -39.733381   1.000000
     74        -39.732157   1.000000
     75        -39.730906   1.000000
     76        -39.730531   1.000000
     77        -39.729588   1.000000
     78        -39.726631   1.000000
     79        -39.726176   1.000000
     80        -39.724772   1.000000
     81        -39.724352   1.000000
     82        -39.723940   1.000000
     83        -39.723485   1.000000
     84        -39.723216   1.000000
     85        -39.722738   1.000000
     86        -39.722312   1.000000
     87        -39.721898   1.000000
     88        -39.720018   1.000000
     89        -39.719313   1.000000
     90        -39.718691   1.000000
     91        -39.717830   1.000000
     92        -39.717319   1.000000
     93        -39.716181   1.000000
     94        -39.715817   1.000000
     95        -39.714697   1.000000
     96        -39.713831   1.000000
     97        -18.377058   1.000000
     98        -18.318220   1.000000
     99        -18.313355   1.000000
    100        -18.307263   1.000000
    101        -18.302303   1.000000
    102        -18.297007   1.000000
    103        -18.294961   1.000000
    104        -18.294304   1.000000
    105        -18.289776   1.000000
    106        -18.282304   1.000000
    107        -18.280252   1.000000
    108        -18.272322   1.000000
    109        -18.261853   1.000000
    110        -18.259740   1.000000
    111        -18.255794   1.000000
    112        -18.253758   1.000000
    113        -18.247508   1.000000
    114        -18.241062   1.000000
    115        -18.236668   1.000000
    116        -18.234298   1.000000
    117        -18.220804   1.000000
    118        -18.220499   1.000000
    119        -18.217074   1.000000
    120        -18.216288   1.000000
    121        -18.212587   1.000000
    122        -18.209383   1.000000
    123        -18.206896   1.000000
    124        -18.205199   1.000000
    125        -18.203143   1.000000
    126        -18.202526   1.000000
    127        -18.201815   1.000000
    128        -18.200374   1.000000
    129        -18.200090   1.000000
    130        -18.198837   1.000000
    131        -18.197428   1.000000
    132        -18.196956   1.000000
    133        -18.194490   1.000000
    134        -18.183280   1.000000
    135        -18.180203   1.000000
    136        -18.178329   1.000000
    137        -18.173830   1.000000
    138        -18.170639   1.000000
    139        -18.169152   1.000000
    140        -18.167114   1.000000
    141        -18.165642   1.000000
    142        -18.161510   1.000000
    143        -18.158848   1.000000
    144        -18.154676   1.000000
    145        -18.152614   1.000000
    146        -18.144434   1.000000
    147        -18.138245   1.000000
    148        -18.137229   1.000000
    149        -18.134992   1.000000
    150        -18.134753   1.000000
    151        -18.128553   1.000000
    152        -18.126695   1.000000
    153        -18.120819   1.000000
    154        -18.116356   1.000000
    155        -18.115086   1.000000
    156        -18.112882   1.000000
    157        -18.110496   1.000000
    158        -18.093611   1.000000
    159        -18.090741   1.000000
    160        -18.082620   1.000000
    161        -18.080411   1.000000
    162        -18.078401   1.000000
    163        -18.075229   1.000000
    164        -18.073913   1.000000
    165        -18.073174   1.000000
    166        -18.071587   1.000000
    167        -18.063138   1.000000
    168        -18.062039   1.000000
    169        -18.059505   1.000000
    170        -18.058760   1.000000
    171        -18.053497   1.000000
    172        -18.052655   1.000000
    173        -18.050518   1.000000
    174        -18.024619   1.000000
    175        -18.000728   1.000000
    176        -17.988569   1.000000
    177        -17.983008   1.000000
    178        -17.982216   1.000000
    179        -17.970767   1.000000
    180        -17.960850   1.000000
    181        -17.955107   1.000000
    182        -17.952927   1.000000
    183        -17.950719   1.000000
    184        -17.948149   1.000000
    185        -17.947617   1.000000
    186        -17.943510   1.000000
    187        -17.942694   1.000000
    188        -17.941851   1.000000
    189        -17.941056   1.000000
    190        -17.937965   1.000000
    191        -17.934763   1.000000
    192        -17.933286   1.000000
    193        -17.927137   1.000000
    194        -17.926208   1.000000
    195        -17.914591   1.000000
    196        -17.912831   1.000000
    197        -17.903019   1.000000
    198        -17.895867   1.000000
    199        -17.892563   1.000000
    200        -17.885989   1.000000
    201        -17.879266   1.000000
    202        -17.874654   1.000000
    203        -17.872950   1.000000
    204        -17.871515   1.000000
    205        -17.868136   1.000000
    206        -17.862546   1.000000
    207        -17.861481   1.000000
    208        -17.860019   1.000000
    209        -17.858949   1.000000
    210        -17.857813   1.000000
    211        -17.856909   1.000000
    212        -17.855871   1.000000
    213        -17.852093   1.000000
    214        -17.850334   1.000000
    215        -17.836394   1.000000
    216        -17.834274   1.000000
    217        -17.832276   1.000000
    218        -17.829661   1.000000
    219        -17.827323   1.000000
    220        -17.824445   1.000000
    221        -17.819039   1.000000
    222        -17.817652   1.000000
    223        -17.806268   1.000000
    224        -17.804373   1.000000
    225        -17.799911   1.000000
    226        -17.798490   1.000000
    227        -17.796070   1.000000
    228        -17.795178   1.000000
    229        -17.793265   1.000000
    230        -17.792432   1.000000
    231        -17.786459   1.000000
    232        -17.784654   1.000000
    233        -17.782165   1.000000
    234        -17.779934   1.000000
    235        -17.772086   1.000000
    236        -17.769048   1.000000
    237        -17.766449   1.000000
    238        -17.765807   1.000000
    239        -17.762528   1.000000
    240        -17.761607   1.000000
    241        -17.760378   1.000000
    242        -17.751175   1.000000
    243        -17.748812   1.000000
    244        -17.747019   1.000000
    245        -17.744651   1.000000
    246        -17.741171   1.000000
    247        -17.739811   1.000000
    248        -17.738819   1.000000
    249        -17.735896   1.000000
    250        -17.733138   1.000000
    251        -17.729323   1.000000
    252        -17.728131   1.000000
    253        -17.725053   1.000000
    254        -17.723020   1.000000
    255        -17.711179   1.000000
    256        -17.708886   1.000000
    257        -17.705205   1.000000
    258        -17.704437   1.000000
    259        -17.701996   1.000000
    260        -17.696169   1.000000
    261        -17.689675   1.000000
    262        -17.686680   1.000000
    263        -17.686043   1.000000
    264        -17.684768   1.000000
    265        -17.683856   1.000000
    266        -17.681710   1.000000
    267        -17.681342   1.000000
    268        -17.679673   1.000000
    269        -17.677897   1.000000
    270        -17.675535   1.000000
    271        -17.672528   1.000000
    272        -17.670978   1.000000
    273        -17.669797   1.000000
    274        -17.669416   1.000000
    275        -17.666676   1.000000
    276        -17.662319   1.000000
    277        -17.660348   1.000000
    278        -17.659540   1.000000
    279        -17.658977   1.000000
    280        -17.650104   1.000000
    281        -17.648240   1.000000
    282        -17.648042   1.000000
    283        -17.647218   1.000000
    284        -17.644832   1.000000
    285        -17.644522   1.000000
    286        -17.643079   1.000000
    287        -17.640278   1.000000
    288        -17.639698   1.000000
    289        -17.638646   1.000000
    290        -17.637004   1.000000
    291        -17.636310   1.000000
    292        -17.632915   1.000000
    293        -17.631946   1.000000
    294        -17.631594   1.000000
    295        -17.630972   1.000000
    296        -17.630063   1.000000
    297        -17.628280   1.000000
    298        -17.627183   1.000000
    299        -17.626323   1.000000
    300        -17.624121   1.000000
    301        -17.623473   1.000000
    302        -17.622111   1.000000
    303        -17.621631   1.000000
    304        -17.620142   1.000000
    305        -17.618702   1.000000
    306        -17.617559   1.000000
    307        -17.617129   1.000000
    308        -17.616698   1.000000
    309        -17.616122   1.000000
    310        -17.615057   1.000000
    311        -17.614060   1.000000
    312        -17.606752   1.000000
    313        -17.605645   1.000000
    314        -17.604039   1.000000
    315        -17.603120   1.000000
    316        -17.602654   1.000000
    317        -17.596442   1.000000
    318        -17.595945   1.000000
    319        -17.595268   1.000000
    320        -17.594625   1.000000
    321        -17.592353   1.000000
    322        -17.591131   1.000000
    323        -17.585680   1.000000
    324        -17.582388   1.000000
    325        -17.581276   1.000000
    326        -17.580682   1.000000
    327        -17.580063   1.000000
    328        -17.577633   1.000000
    329        -17.577169   1.000000
    330        -17.576676   1.000000
    331        -17.575735   1.000000
    332        -17.572320   1.000000
    333        -17.569347   1.000000
    334        -17.568168   1.000000
    335        -17.566521   1.000000
    336        -17.566393   1.000000
    337        -17.565171   1.000000
    338        -17.563754   1.000000
    339        -17.563463   1.000000
    340        -17.562769   1.000000
    341        -17.560691   1.000000
    342        -17.559374   1.000000
    343        -17.558631   1.000000
    344        -17.554327   1.000000
    345        -17.552732   1.000000
    346        -17.550288   1.000000
    347        -17.549128   1.000000
    348        -17.547232   1.000000
    349        -17.546724   1.000000
    350        -17.545296   1.000000
    351        -17.544535   1.000000
    352        -17.543383   1.000000
    353        -17.540852   1.000000
    354        -17.536112   1.000000
    355        -17.534012   1.000000
    356        -17.528300   1.000000
    357        -17.521558   1.000000
    358        -17.520087   1.000000
    359        -17.516253   1.000000
    360        -17.515885   1.000000
    361        -17.513487   1.000000
    362        -17.512473   1.000000
    363        -17.510622   1.000000
    364        -17.505291   1.000000
    365        -17.502847   1.000000
    366        -17.500641   1.000000
    367        -17.499406   1.000000
    368        -17.497743   1.000000
    369        -17.496307   1.000000
    370        -17.495504   1.000000
    371        -17.492460   1.000000
    372        -17.490455   1.000000
    373        -17.487845   1.000000
    374        -17.480839   1.000000
    375        -17.480517   1.000000
    376        -17.477270   1.000000
    377        -17.475380   1.000000
    378        -17.474123   1.000000
    379        -17.468411   1.000000
    380        -17.453760   1.000000
    381        -17.447333   1.000000
    382        -17.438110   1.000000
    383        -17.435173   1.000000
    384        -17.425651   1.000000
    385          2.489569   1.000000
    386          3.571042   1.000000
    387          3.866873   1.000000
    388          4.330905   1.000000
    389          4.572256   1.000000
    390          4.654122   1.000000
    391          4.707621   1.000000
    392          4.824183   1.000000
    393          4.878676   1.000000
    394          4.955671   1.000000
    395          5.252611   1.000000
    396          5.278470   1.000000
    397          5.361716   1.000000
    398          5.406366   1.000000
    399          5.428397   1.000000
    400          5.455726   1.000000
    401          5.518516   1.000000
    402          5.577674   1.000000
    403          5.694167   1.000000
    404          5.742242   1.000000
    405          5.960818   1.000000
    406          5.967848   1.000000
    407          5.986618   1.000000
    408          5.990113   1.000000
    409          6.002245   1.000000
    410          6.015040   1.000000
    411          6.020206   1.000000
    412          6.033524   1.000000
    413          6.041052   1.000000
    414          6.051702   1.000000
    415          6.075759   1.000000
    416          6.114886   1.000000
    417          6.133130   1.000000
    418          6.204758   1.000000
    419          6.214866   1.000000
    420          6.243548   1.000000
    421          6.248361   1.000000
    422          6.267688   1.000000
    423          6.289940   1.000000
    424          6.297227   1.000000
    425          6.310553   1.000000
    426          6.323950   1.000000
    427          6.328720   1.000000
    428          6.345370   1.000000
    429          6.362843   1.000000
    430          6.396225   1.000000
    431          6.440772   1.000000
    432          6.519183   1.000000
    433          6.525421   1.000000
    434          6.526170   1.000000
    435          6.527847   1.000000
    436          6.534333   1.000000
    437          6.538258   1.000000
    438          6.542585   1.000000
    439          6.574017   1.000000
    440          6.588849   1.000000
    441          6.590540   1.000000
    442          6.592138   1.000000
    443          6.641181   1.000000
    444          6.649523   1.000000
    445          6.656847   1.000000
    446          6.678267   1.000000
    447          6.689375   1.000000
    448          6.704728   1.000000
    449          6.724379   1.000000
    450          6.770890   1.000000
    451          6.822985   1.000000
    452          6.858014   1.000000
    453          6.864468   1.000000
    454          6.889047   1.000000
    455          6.905613   1.000000
    456          6.923560   1.000000
    457          6.925681   1.000000
    458          6.927778   1.000000
    459          6.930873   1.000000
    460          6.931504   1.000000
    461          6.933134   1.000000
    462          6.935132   1.000000
    463          7.011804   1.000000
    464          7.055948   1.000000
    465          7.062126   1.000000
    466          7.066322   1.000000
    467          7.067971   1.000000
    468          7.076747   1.000000
    469          7.077255   1.000000
    470          7.078045   1.000000
    471          7.109578   1.000000
    472          7.135691   1.000000
    473          7.164676   1.000000
    474          7.167914   1.000000
    475          7.169197   1.000000
    476          7.180859   1.000000
    477          7.185600   1.000000
    478          7.188855   1.000000
    479          7.191078   1.000000
    480          7.249371   1.000000
    481          7.254514   1.000000
    482          7.262519   1.000000
    483          7.264455   1.000000
    484          7.280776   1.000000
    485          7.300564   1.000000
    486          7.413623   1.000000
    487          7.437411   1.000000
    488          7.450805   1.000000
    489          7.463709   1.000000
    490          7.471096   1.000000
    491          7.496118   1.000000
    492          7.514062   1.000000
    493          7.525520   1.000000
    494          7.541358   1.000000
    495          7.548920   1.000000
    496          7.566810   1.000000
    497          7.585430   1.000000
    498          7.606332   1.000000
    499          7.608948   1.000000
    500          7.619165   1.000000
    501          7.640089   1.000000
    502          7.656745   1.000000
    503          7.668894   1.000000
    504          7.674865   1.000000
    505          7.802017   1.000000
    506          7.818278   1.000000
    507          7.824430   1.000000
    508          7.833073   1.000000
    509          7.876903   1.000000
    510          7.879112   1.000000
    511          7.888537   1.000000
    512          7.905845   1.000000
    513          7.913833   1.000000
    514          7.942268   1.000000
    515          7.945828   1.000000
    516          7.949199   1.000000
    517          7.966202   1.000000
    518          7.970674   1.000000
    519          7.999183   1.000000
    520          8.002659   1.000000
    521          8.007956   1.000000
    522          8.028673   1.000000
    523          8.036271   1.000000
    524          8.039421   1.000000
    525          8.044302   1.000000
    526          8.046199   1.000000
    527          8.056078   1.000000
    528          8.057769   1.000000
    529          8.061353   1.000000
    530          8.062655   1.000000
    531          8.090307   1.000000
    532          8.095779   1.000000
    533          8.099716   1.000000
    534          8.102348   1.000000
    535          8.117016   1.000000
    536          8.141596   1.000000
    537          8.145785   1.000000
    538          8.147475   1.000000
    539          8.150222   1.000000
    540          8.158341   1.000000
    541          8.178215   1.000000
    542          8.216150   1.000001
    543          8.254785   1.000004
    544          8.269528   1.000006
    545          8.283386   1.000010
    546          8.316480   1.000028
    547          8.323956   1.000035
    548          8.330872   1.000042
    549          8.338348   1.000053
    550          8.345413   1.000065
    551          8.351097   1.000076
    552          8.369150   1.000126
    553          8.396947   1.000264
    554          8.399049   1.000278
    555          8.408583   1.000355
    556          8.424110   1.000521
    557          8.433069   1.000646
    558          8.433796   1.000658
    559          8.434877   1.000675
    560          8.442753   1.000812
    561          8.447914   1.000914
    562          8.449341   1.000945
    563          8.451909   1.001002
    564          8.460496   1.001215
    565          8.487398   1.002162
    566          8.544808   1.006385
    567          8.553935   1.007440
    568          8.557625   1.007902
    569          8.687053   1.033237
    570          8.751772   1.028212
    571          8.765927   1.020734
    572          8.775609   1.013697
    573          8.794120   0.995260
    574          8.889536   0.772941
    575          8.918381   0.665425
    576          8.931728   0.611539
    577          8.941503   0.570996
    578          8.978847   0.413761
    579          8.991909   0.360184
    580          8.998907   0.332229
    581          9.022885   0.242045
    582          9.056057   0.136257
    583          9.069408   0.101053
    584          9.078692   0.079214
    585          9.104092   0.030498
    586          9.113285   0.016715
    587          9.135851  -0.009175
    588          9.150033  -0.020257
    589          9.158302  -0.025104
    590          9.171057  -0.030527
    591          9.183481  -0.033734
    592          9.184889  -0.033983
    593          9.189570  -0.034662
    594          9.190983  -0.034823
    595          9.194176  -0.035117
    596          9.199303  -0.035395
    597          9.200858  -0.035435
    598          9.203887  -0.035457
    599          9.205590  -0.035438
    600          9.208945  -0.035340
    601          9.212954  -0.035122
    602          9.234939  -0.032377
    603          9.242871  -0.030916
    604          9.251850  -0.029073
    605          9.255318  -0.028322
    606          9.307531  -0.016594
    607          9.347934  -0.009425
    608          9.393967  -0.004313
    609          9.400506  -0.003818
    610          9.405506  -0.003471
    611          9.419093  -0.002660
    612          9.429256  -0.002163
    613          9.454331  -0.001266
    614          9.458998  -0.001141
    615          9.465627  -0.000983
    616          9.472747  -0.000834
    617          9.479783  -0.000708
    618          9.483086  -0.000655
    619          9.486329  -0.000606
    620          9.490408  -0.000549
    621          9.492282  -0.000525
    622          9.494575  -0.000496
    623          9.504367  -0.000390
    624          9.506695  -0.000368
    625          9.516929  -0.000284
    626          9.552689  -0.000109
    627          9.562443  -0.000083
    628          9.574302  -0.000059
    629          9.595717  -0.000032
    630          9.607705  -0.000022
    631          9.609334  -0.000021
    632          9.615045  -0.000018
    633          9.620882  -0.000015
    634          9.624886  -0.000013
    635          9.642826  -0.000007
    636          9.649979  -0.000006
    637          9.661736  -0.000004
    638          9.668827  -0.000003
    639          9.683808  -0.000002
    640          9.693346  -0.000001
    641          9.740480  -0.000000
    642          9.746451  -0.000000
    643          9.781875  -0.000000
    644          9.796108  -0.000000
    645          9.837280  -0.000000
    646          9.861220  -0.000000
    647          9.875413  -0.000000
    648          9.882726  -0.000000
    649          9.885442  -0.000000
    650          9.903166  -0.000000
    651          9.904445  -0.000000
    652          9.917816  -0.000000
    653          9.925359  -0.000000
    654          9.934499  -0.000000
    655          9.937524  -0.000000
    656          9.945933  -0.000000
    657          9.962142  -0.000000
    658          9.974529  -0.000000
    659          9.981238  -0.000000
    660          9.985002  -0.000000
    661          9.993778  -0.000000
    662         10.006495  -0.000000
    663         10.011778  -0.000000
    664         10.013484  -0.000000
    665         10.016619  -0.000000
    666         10.017579  -0.000000
    667         10.020655  -0.000000
    668         10.025001  -0.000000
    669         10.034240  -0.000000
    670         10.097720  -0.000000
    671         10.108514  -0.000000
    672         10.112883  -0.000000
    673         10.124908  -0.000000
    674         10.167678  -0.000000
    675         10.169761  -0.000000
    676         10.198950  -0.000000
    677         10.205075  -0.000000
    678         10.223892  -0.000000
    679         10.227726  -0.000000
    680         10.230741  -0.000000
    681         10.246517  -0.000000
    682         10.253364  -0.000000
    683         10.254491  -0.000000
    684         10.262590  -0.000000
    685         10.268725  -0.000000
    686         10.277982  -0.000000
    687         10.287560  -0.000000
    688         10.294110  -0.000000
    689         10.297110  -0.000000
    690         10.307106  -0.000000
    691         10.313027  -0.000000
 
  0.2500000E+00 -0.2500000E+00  0.3333333E+00  0.4166667E-01
      1        -39.896838   1.000000
      2        -39.883486   1.000000
      3        -39.866538   1.000000
      4        -39.854338   1.000000
      5        -39.851028   1.000000
      6        -39.848915   1.000000
      7        -39.842622   1.000000
      8        -39.839331   1.000000
      9        -39.838454   1.000000
     10        -39.830946   1.000000
     11        -39.824604   1.000000
     12        -39.820613   1.000000
     13        -39.819167   1.000000
     14        -39.815805   1.000000
     15        -39.813774   1.000000
     16        -39.812751   1.000000
     17        -39.806930   1.000000
     18        -39.804554   1.000000
     19        -39.803044   1.000000
     20        -39.800144   1.000000
     21        -39.796056   1.000000
     22        -39.789310   1.000000
     23        -39.788213   1.000000
     24        -39.786505   1.000000
     25        -39.783365   1.000000
     26        -39.782761   1.000000
     27        -39.781006   1.000000
     28        -39.779732   1.000000
     29        -39.778146   1.000000
     30        -39.777362   1.000000
     31        -39.775466   1.000000
     32        -39.772783   1.000000
     33        -39.770745   1.000000
     34        -39.769511   1.000000
     35        -39.768272   1.000000
     36        -39.766720   1.000000
     37        -39.765455   1.000000
     38        -39.764711   1.000000
     39        -39.764138   1.000000
     40        -39.763764   1.000000
     41        -39.762743   1.000000
     42        -39.761599   1.000000
     43        -39.760526   1.000000
     44        -39.760073   1.000000
     45        -39.758860   1.000000
     46        -39.758496   1.000000
     47        -39.755328   1.000000
     48        -39.754564   1.000000
     49        -39.753446   1.000000
     50        -39.751510   1.000000
     51        -39.751020   1.000000
     52        -39.749867   1.000000
     53        -39.748626   1.000000
     54        -39.748012   1.000000
     55        -39.747472   1.000000
     56        -39.746274   1.000000
     57        -39.745834   1.000000
     58        -39.745342   1.000000
     59        -39.744888   1.000000
     60        -39.744194   1.000000
     61        -39.742945   1.000000
     62        -39.741884   1.000000
     63        -39.741160   1.000000
     64        -39.740890   1.000000
     65        -39.738807   1.000000
     66        -39.738473   1.000000
     67        -39.737749   1.000000
     68        -39.737140   1.000000
     69        -39.735925   1.000000
     70        -39.735117   1.000000
     71        -39.735052   1.000000
     72        -39.734552   1.000000
     73        -39.733045   1.000000
     74        -39.732585   1.000000
     75        -39.732131   1.000000
     76        -39.729836   1.000000
     77        -39.728513   1.000000
     78        -39.727520   1.000000
     79        -39.726001   1.000000
     80        -39.724752   1.000000
     81        -39.724393   1.000000
     82        -39.723862   1.000000
     83        -39.723452   1.000000
     84        -39.722955   1.000000
     85        -39.722592   1.000000
     86        -39.722292   1.000000
     87        -39.722089   1.000000
     88        -39.720256   1.000000
     89        -39.719219   1.000000
     90        -39.718586   1.000000
     91        -39.717919   1.000000
     92        -39.717323   1.000000
     93        -39.716217   1.000000
     94        -39.715798   1.000000
     95        -39.714723   1.000000
     96        -39.713798   1.000000
     97        -18.377050   1.000000
     98        -18.317435   1.000000
     99        -18.313464   1.000000
    100        -18.308767   1.000000
    101        -18.301708   1.000000
    102        -18.297114   1.000000
    103        -18.295096   1.000000
    104        -18.293974   1.000000
    105        -18.290016   1.000000
    106        -18.282355   1.000000
    107        -18.280137   1.000000
    108        -18.272038   1.000000
    109        -18.260508   1.000000
    110        -18.260074   1.000000
    111        -18.257061   1.000000
    112        -18.253456   1.000000
    113        -18.247611   1.000000
    114        -18.240884   1.000000
    115        -18.236331   1.000000
    116        -18.234131   1.000000
    117        -18.221019   1.000000
    118        -18.220636   1.000000
    119        -18.217044   1.000000
    120        -18.216430   1.000000
    121        -18.212181   1.000000
    122        -18.209545   1.000000
    123        -18.208653   1.000000
    124        -18.205009   1.000000
    125        -18.204553   1.000000
    126        -18.201339   1.000000
    127        -18.200909   1.000000
    128        -18.200718   1.000000
    129        -18.199700   1.000000
    130        -18.198582   1.000000
    131        -18.197860   1.000000
    132        -18.196037   1.000000
    133        -18.195355   1.000000
    134        -18.184326   1.000000
    135        -18.179756   1.000000
    136        -18.177768   1.000000
    137        -18.173587   1.000000
    138        -18.170966   1.000000
    139        -18.168454   1.000000
    140        -18.166440   1.000000
    141        -18.165732   1.000000
    142        -18.160726   1.000000
    143        -18.158708   1.000000
    144        -18.155476   1.000000
    145        -18.152938   1.000000
    146        -18.143961   1.000000
    147        -18.138298   1.000000
    148        -18.137338   1.000000
    149        -18.135033   1.000000
    150        -18.134254   1.000000
    151        -18.129136   1.000000
    152        -18.127329   1.000000
    153        -18.119842   1.000000
    154        -18.117043   1.000000
    155        -18.115949   1.000000
    156        -18.112433   1.000000
    157        -18.109317   1.000000
    158        -18.093418   1.000000
    159        -18.090312   1.000000
    160        -18.083326   1.000000
    161        -18.080137   1.000000
    162        -18.079112   1.000000
    163        -18.075252   1.000000
    164        -18.074790   1.000000
    165        -18.073227   1.000000
    166        -18.072815   1.000000
    167        -18.065133   1.000000
    168        -18.061771   1.000000
    169        -18.059435   1.000000
    170        -18.058453   1.000000
    171        -18.052769   1.000000
    172        -18.051155   1.000000
    173        -18.050081   1.000000
    174        -18.024610   1.000000
    175        -17.998664   1.000000
    176        -17.990856   1.000000
    177        -17.982891   1.000000
    178        -17.981882   1.000000
    179        -17.970414   1.000000
    180        -17.959028   1.000000
    181        -17.955987   1.000000
    182        -17.953835   1.000000
    183        -17.952065   1.000000
    184        -17.948950   1.000000
    185        -17.947581   1.000000
    186        -17.943957   1.000000
    187        -17.943478   1.000000
    188        -17.940374   1.000000
    189        -17.939477   1.000000
    190        -17.936167   1.000000
    191        -17.933138   1.000000
    192        -17.932479   1.000000
    193        -17.929799   1.000000
    194        -17.926593   1.000000
    195        -17.914868   1.000000
    196        -17.912831   1.000000
    197        -17.903601   1.000000
    198        -17.896925   1.000000
    199        -17.895530   1.000000
    200        -17.885007   1.000000
    201        -17.878782   1.000000
    202        -17.875146   1.000000
    203        -17.871560   1.000000
    204        -17.870891   1.000000
    205        -17.868428   1.000000
    206        -17.861602   1.000000
    207        -17.860594   1.000000
    208        -17.859904   1.000000
    209        -17.858411   1.000000
    210        -17.856900   1.000000
    211        -17.856078   1.000000
    212        -17.854025   1.000000
    213        -17.852573   1.000000
    214        -17.851860   1.000000
    215        -17.837753   1.000000
    216        -17.833014   1.000000
    217        -17.831235   1.000000
    218        -17.830300   1.000000
    219        -17.827428   1.000000
    220        -17.823926   1.000000
    221        -17.821843   1.000000
    222        -17.819622   1.000000
    223        -17.806879   1.000000
    224        -17.805181   1.000000
    225        -17.798904   1.000000
    226        -17.797149   1.000000
    227        -17.795675   1.000000
    228        -17.795009   1.000000
    229        -17.794823   1.000000
    230        -17.794010   1.000000
    231        -17.787584   1.000000
    232        -17.785990   1.000000
    233        -17.781485   1.000000
    234        -17.780458   1.000000
    235        -17.769754   1.000000
    236        -17.768925   1.000000
    237        -17.765423   1.000000
    238        -17.764763   1.000000
    239        -17.761976   1.000000
    240        -17.761426   1.000000
    241        -17.759300   1.000000
    242        -17.749284   1.000000
    243        -17.749105   1.000000
    244        -17.747573   1.000000
    245        -17.745246   1.000000
    246        -17.740981   1.000000
    247        -17.740260   1.000000
    248        -17.738941   1.000000
    249        -17.736075   1.000000
    250        -17.732476   1.000000
    251        -17.730922   1.000000
    252        -17.727866   1.000000
    253        -17.723917   1.000000
    254        -17.723068   1.000000
    255        -17.712648   1.000000
    256        -17.709947   1.000000
    257        -17.706160   1.000000
    258        -17.703034   1.000000
    259        -17.701861   1.000000
    260        -17.695972   1.000000
    261        -17.689683   1.000000
    262        -17.688289   1.000000
    263        -17.684920   1.000000
    264        -17.683623   1.000000
    265        -17.683175   1.000000
    266        -17.681595   1.000000
    267        -17.681165   1.000000
    268        -17.680549   1.000000
    269        -17.676971   1.000000
    270        -17.673923   1.000000
    271        -17.672769   1.000000
    272        -17.670987   1.000000
    273        -17.669899   1.000000
    274        -17.669087   1.000000
    275        -17.667206   1.000000
    276        -17.664010   1.000000
    277        -17.660729   1.000000
    278        -17.659356   1.000000
    279        -17.658221   1.000000
    280        -17.650131   1.000000
    281        -17.649006   1.000000
    282        -17.648732   1.000000
    283        -17.647267   1.000000
    284        -17.645919   1.000000
    285        -17.645275   1.000000
    286        -17.643787   1.000000
    287        -17.641241   1.000000
    288        -17.639754   1.000000
    289        -17.638492   1.000000
    290        -17.636704   1.000000
    291        -17.635147   1.000000
    292        -17.633388   1.000000
    293        -17.631933   1.000000
    294        -17.631292   1.000000
    295        -17.630957   1.000000
    296        -17.629924   1.000000
    297        -17.629661   1.000000
    298        -17.627260   1.000000
    299        -17.626493   1.000000
    300        -17.625616   1.000000
    301        -17.622404   1.000000
    302        -17.621803   1.000000
    303        -17.620123   1.000000
    304        -17.619192   1.000000
    305        -17.618688   1.000000
    306        -17.617785   1.000000
    307        -17.616914   1.000000
    308        -17.616449   1.000000
    309        -17.615497   1.000000
    310        -17.614917   1.000000
    311        -17.614197   1.000000
    312        -17.606742   1.000000
    313        -17.605836   1.000000
    314        -17.603962   1.000000
    315        -17.603350   1.000000
    316        -17.602250   1.000000
    317        -17.596583   1.000000
    318        -17.594965   1.000000
    319        -17.594457   1.000000
    320        -17.593560   1.000000
    321        -17.591600   1.000000
    322        -17.591180   1.000000
    323        -17.586277   1.000000
    324        -17.582408   1.000000
    325        -17.581827   1.000000
    326        -17.581034   1.000000
    327        -17.580706   1.000000
    328        -17.577756   1.000000
    329        -17.577481   1.000000
    330        -17.576232   1.000000
    331        -17.576101   1.000000
    332        -17.573550   1.000000
    333        -17.569787   1.000000
    334        -17.568457   1.000000
    335        -17.567465   1.000000
    336        -17.566222   1.000000
    337        -17.565054   1.000000
    338        -17.563946   1.000000
    339        -17.562915   1.000000
    340        -17.561570   1.000000
    341        -17.561204   1.000000
    342        -17.559451   1.000000
    343        -17.558083   1.000000
    344        -17.553144   1.000000
    345        -17.552186   1.000000
    346        -17.550566   1.000000
    347        -17.548325   1.000000
    348        -17.547036   1.000000
    349        -17.546566   1.000000
    350        -17.546164   1.000000
    351        -17.545624   1.000000
    352        -17.543233   1.000000
    353        -17.540819   1.000000
    354        -17.536122   1.000000
    355        -17.534076   1.000000
    356        -17.528618   1.000000
    357        -17.521718   1.000000
    358        -17.520114   1.000000
    359        -17.516101   1.000000
    360        -17.515695   1.000000
    361        -17.513524   1.000000
    362        -17.512958   1.000000
    363        -17.511159   1.000000
    364        -17.504988   1.000000
    365        -17.501926   1.000000
    366        -17.500079   1.000000
    367        -17.498986   1.000000
    368        -17.498299   1.000000
    369        -17.496809   1.000000
    370        -17.495396   1.000000
    371        -17.492827   1.000000
    372        -17.489225   1.000000
    373        -17.488406   1.000000
    374        -17.481071   1.000000
    375        -17.480488   1.000000
    376        -17.477346   1.000000
    377        -17.475853   1.000000
    378        -17.473658   1.000000
    379        -17.468959   1.000000
    380        -17.453461   1.000000
    381        -17.447390   1.000000
    382        -17.438232   1.000000
    383        -17.435033   1.000000
    384        -17.425629   1.000000
    385          2.489575   1.000000
    386          3.570772   1.000000
    387          3.867141   1.000000
    388          4.333379   1.000000
    389          4.570309   1.000000
    390          4.653776   1.000000
    391          4.702533   1.000000
    392          4.822404   1.000000
    393          4.879383   1.000000
    394          4.962227   1.000000
    395          5.253747   1.000000
    396          5.286247   1.000000
    397          5.364047   1.000000
    398          5.404220   1.000000
    399          5.422949   1.000000
    400          5.457659   1.000000
    401          5.500701   1.000000
    402          5.594885   1.000000
    403          5.692572   1.000000
    404          5.732778   1.000000
    405          5.958441   1.000000
    406          5.964036   1.000000
    407          5.986349   1.000000
    408          5.994327   1.000000
    409          6.008041   1.000000
    410          6.011435   1.000000
    411          6.018112   1.000000
    412          6.031815   1.000000
    413          6.040498   1.000000
    414          6.063191   1.000000
    415          6.075312   1.000000
    416          6.099378   1.000000
    417          6.149757   1.000000
    418          6.207144   1.000000
    419          6.224893   1.000000
    420          6.238954   1.000000
    421          6.248245   1.000000
    422          6.252108   1.000000
    423          6.291073   1.000000
    424          6.303502   1.000000
    425          6.308504   1.000000
    426          6.317870   1.000000
    427          6.331433   1.000000
    428          6.344113   1.000000
    429          6.384221   1.000000
    430          6.392132   1.000000
    431          6.441318   1.000000
    432          6.513851   1.000000
    433          6.520118   1.000000
    434          6.528785   1.000000
    435          6.529294   1.000000
    436          6.531129   1.000000
    437          6.539678   1.000000
    438          6.543968   1.000000
    439          6.564688   1.000000
    440          6.585994   1.000000
    441          6.587130   1.000000
    442          6.591416   1.000000
    443          6.625542   1.000000
    444          6.645896   1.000000
    445          6.661523   1.000000
    446          6.681589   1.000000
    447          6.687041   1.000000
    448          6.707813   1.000000
    449          6.767581   1.000000
    450          6.771823   1.000000
    451          6.804495   1.000000
    452          6.857577   1.000000
    453          6.876522   1.000000
    454          6.889446   1.000000
    455          6.912492   1.000000
    456          6.922191   1.000000
    457          6.924489   1.000000
    458          6.926509   1.000000
    459          6.929027   1.000000
    460          6.930720   1.000000
    461          6.934940   1.000000
    462          6.938038   1.000000
    463          6.976220   1.000000
    464          7.058625   1.000000
    465          7.064421   1.000000
    466          7.064952   1.000000
    467          7.069739   1.000000
    468          7.075705   1.000000
    469          7.082851   1.000000
    470          7.083602   1.000000
    471          7.115147   1.000000
    472          7.135276   1.000000
    473          7.139895   1.000000
    474          7.167769   1.000000
    475          7.177038   1.000000
    476          7.180755   1.000000
    477          7.185799   1.000000
    478          7.188385   1.000000
    479          7.190345   1.000000
    480          7.244515   1.000000
    481          7.255703   1.000000
    482          7.262002   1.000000
    483          7.264587   1.000000
    484          7.295814   1.000000
    485          7.302816   1.000000
    486          7.416115   1.000000
    487          7.436221   1.000000
    488          7.439722   1.000000
    489          7.465488   1.000000
    490          7.473772   1.000000
    491          7.492044   1.000000
    492          7.512923   1.000000
    493          7.526268   1.000000
    494          7.538226   1.000000
    495          7.546589   1.000000
    496          7.561084   1.000000
    497          7.596913   1.000000
    498          7.605624   1.000000
    499          7.610371   1.000000
    500          7.618619   1.000000
    501          7.657132   1.000000
    502          7.660763   1.000000
    503          7.665524   1.000000
    504          7.673068   1.000000
    505          7.803527   1.000000
    506          7.820498   1.000000
    507          7.821855   1.000000
    508          7.838114   1.000000
    509          7.876125   1.000000
    510          7.881946   1.000000
    511          7.889249   1.000000
    512          7.910127   1.000000
    513          7.911446   1.000000
    514          7.929172   1.000000
    515          7.940415   1.000000
    516          7.947519   1.000000
    517          7.960480   1.000000
    518          7.970592   1.000000
    519          7.999739   1.000000
    520          8.002673   1.000000
    521          8.012919   1.000000
    522          8.023701   1.000000
    523          8.031937   1.000000
    524          8.039883   1.000000
    525          8.043962   1.000000
    526          8.044492   1.000000
    527          8.055537   1.000000
    528          8.057195   1.000000
    529          8.059213   1.000000
    530          8.064288   1.000000
    531          8.087344   1.000000
    532          8.092707   1.000000
    533          8.100149   1.000000
    534          8.103011   1.000000
    535          8.130433   1.000000
    536          8.142613   1.000000
    537          8.146237   1.000000
    538          8.148325   1.000000
    539          8.152586   1.000000
    540          8.157923   1.000000
    541          8.176059   1.000000
    542          8.218947   1.000001
    543          8.256781   1.000004
    544          8.263316   1.000005
    545          8.280983   1.000009
    546          8.317247   1.000028
    547          8.325164   1.000036
    548          8.330191   1.000042
    549          8.336859   1.000051
    550          8.352088   1.000078
    551          8.354098   1.000083
    552          8.370032   1.000129
    553          8.393328   1.000240
    554          8.396559   1.000261
    555          8.417863   1.000447
    556          8.421552   1.000490
    557          8.432260   1.000634
    558          8.435765   1.000689
    559          8.436991   1.000709
    560          8.441288   1.000784
    561          8.444291   1.000841
    562          8.449351   1.000945
    563          8.455797   1.001094
    564          8.464198   1.001318
    565          8.484825   1.002049
    566          8.541845   1.006068
    567          8.551061   1.007094
    568          8.557137   1.007839
    569          8.686067   1.033085
    570          8.758844   1.024868
    571          8.764916   1.021375
    572          8.776036   1.013348
    573          8.791438   0.998366
    574          8.882632   0.796345
    575          8.912386   0.688903
    576          8.936668   0.591140
    577          8.938621   0.583023
    578          8.981061   0.404576
    579          8.988036   0.375901
    580          9.001367   0.322557
    581          9.038696   0.188529
    582          9.056684   0.134504
    583          9.058791   0.128688
    584          9.076422   0.084353
    585          9.096429   0.043519
    586          9.113453   0.016481
    587          9.129090  -0.002541
    588          9.154878  -0.023232
    589          9.161147  -0.026519
    590          9.176312  -0.032113
    591          9.183498  -0.033737
    592          9.186180  -0.034193
    593          9.188017  -0.034462
    594          9.189506  -0.034654
    595          9.196921  -0.035294
    596          9.199950  -0.035414
    597          9.203114  -0.035458
    598          9.203559  -0.035458
    599          9.204487  -0.035452
    600          9.207627  -0.035388
    601          9.214995  -0.034971
    602          9.240008  -0.031465
    603          9.243698  -0.030754
    604          9.245448  -0.030405
    605          9.246086  -0.030276
    606          9.310342  -0.016016
    607          9.356836  -0.008192
    608          9.395028  -0.004229
    609          9.404155  -0.003562
    610          9.411166  -0.003111
    611          9.414921  -0.002890
    612          9.435425  -0.001903
    613          9.457317  -0.001185
    614          9.464278  -0.001013
    615          9.465844  -0.000978
    616          9.471830  -0.000852
    617          9.478481  -0.000730
    618          9.484375  -0.000635
    619          9.488969  -0.000569
    620          9.491123  -0.000540
    621          9.494009  -0.000503
    622          9.497236  -0.000465
    623          9.501153  -0.000422
    624          9.507349  -0.000362
    625          9.508951  -0.000347
    626          9.542340  -0.000145
    627          9.560606  -0.000088
    628          9.569479  -0.000068
    629          9.593411  -0.000034
    630          9.604863  -0.000024
    631          9.608977  -0.000021
    632          9.618676  -0.000016
    633          9.620699  -0.000015
    634          9.627456  -0.000012
    635          9.635163  -0.000009
    636          9.639869  -0.000008
    637          9.663510  -0.000004
    638          9.669240  -0.000003
    639          9.685345  -0.000002
    640          9.692847  -0.000001
    641          9.740885  -0.000000
    642          9.745971  -0.000000
    643          9.789280  -0.000000
    644          9.797473  -0.000000
    645          9.840467  -0.000000
    646          9.864018  -0.000000
    647          9.873916  -0.000000
    648          9.876958  -0.000000
    649          9.887027  -0.000000
    650          9.894580  -0.000000
    651          9.903988  -0.000000
    652          9.920580  -0.000000
    653          9.929013  -0.000000
    654          9.933769  -0.000000
    655          9.937186  -0.000000
    656          9.952182  -0.000000
    657          9.959902  -0.000000
    658          9.971360  -0.000000
    659          9.977936  -0.000000
    660          9.985207  -0.000000
    661          9.997794  -0.000000
    662         10.005525  -0.000000
    663         10.011370  -0.000000
    664         10.013932  -0.000000
    665         10.016363  -0.000000
    666         10.021598  -0.000000
    667         10.027251  -0.000000
    668         10.029234  -0.000000
    669         10.037569  -0.000000
    670         10.105674  -0.000000
    671         10.107358  -0.000000
    672         10.111562  -0.000000
    673         10.125580  -0.000000
    674         10.162671  -0.000000
    675         10.168317  -0.000000
    676         10.189823  -0.000000
    677         10.204158  -0.000000
    678         10.218709  -0.000000
    679         10.223852  -0.000000
    680         10.228613  -0.000000
    681         10.247629  -0.000000
    682         10.254352  -0.000000
    683         10.258614  -0.000000
    684         10.266995  -0.000000
    685         10.274317  -0.000000
    686         10.280069  -0.000000
    687         10.285085  -0.000000
    688         10.291311  -0.000000
    689         10.305363  -0.000000
    690         10.308101  -0.000000
    691         10.313075  -0.000000
 
  0.5000000E+00 -0.1797743E-16  0.3333333E+00  0.4166667E-01
      1        -39.889879   1.000000
      2        -39.879162   1.000000
      3        -39.873841   1.000000
      4        -39.867130   1.000000
      5        -39.855503   1.000000
      6        -39.852833   1.000000
      7        -39.843673   1.000000
      8        -39.842598   1.000000
      9        -39.835897   1.000000
     10        -39.826346   1.000000
     11        -39.821201   1.000000
     12        -39.817355   1.000000
     13        -39.812665   1.000000
     14        -39.805954   1.000000
     15        -39.805553   1.000000
     16        -39.805154   1.000000
     17        -39.804113   1.000000
     18        -39.802068   1.000000
     19        -39.800869   1.000000
     20        -39.800395   1.000000
     21        -39.798216   1.000000
     22        -39.796417   1.000000
     23        -39.792744   1.000000
     24        -39.790072   1.000000
     25        -39.787766   1.000000
     26        -39.787576   1.000000
     27        -39.784817   1.000000
     28        -39.784166   1.000000
     29        -39.779603   1.000000
     30        -39.779530   1.000000
     31        -39.774083   1.000000
     32        -39.772258   1.000000
     33        -39.771767   1.000000
     34        -39.769625   1.000000
     35        -39.768094   1.000000
     36        -39.766765   1.000000
     37        -39.766524   1.000000
     38        -39.764598   1.000000
     39        -39.763666   1.000000
     40        -39.763039   1.000000
     41        -39.761621   1.000000
     42        -39.760774   1.000000
     43        -39.760361   1.000000
     44        -39.759916   1.000000
     45        -39.759404   1.000000
     46        -39.757845   1.000000
     47        -39.757368   1.000000
     48        -39.756581   1.000000
     49        -39.753334   1.000000
     50        -39.753146   1.000000
     51        -39.750715   1.000000
     52        -39.749309   1.000000
     53        -39.749252   1.000000
     54        -39.748264   1.000000
     55        -39.746904   1.000000
     56        -39.746311   1.000000
     57        -39.745926   1.000000
     58        -39.745123   1.000000
     59        -39.744522   1.000000
     60        -39.743268   1.000000
     61        -39.742873   1.000000
     62        -39.742358   1.000000
     63        -39.741192   1.000000
     64        -39.739785   1.000000
     65        -39.738088   1.000000
     66        -39.737728   1.000000
     67        -39.736618   1.000000
     68        -39.736406   1.000000
     69        -39.735783   1.000000
     70        -39.735044   1.000000
     71        -39.733925   1.000000
     72        -39.732992   1.000000
     73        -39.732438   1.000000
     74        -39.730545   1.000000
     75        -39.729900   1.000000
     76        -39.728005   1.000000
     77        -39.727393   1.000000
     78        -39.726951   1.000000
     79        -39.726884   1.000000
     80        -39.725941   1.000000
     81        -39.725083   1.000000
     82        -39.724713   1.000000
     83        -39.724135   1.000000
     84        -39.723564   1.000000
     85        -39.723185   1.000000
     86        -39.722832   1.000000
     87        -39.721386   1.000000
     88        -39.720606   1.000000
     89        -39.719465   1.000000
     90        -39.719166   1.000000
     91        -39.717655   1.000000
     92        -39.717455   1.000000
     93        -39.716717   1.000000
     94        -39.716289   1.000000
     95        -39.715429   1.000000
     96        -39.714123   1.000000
     97        -18.348090   1.000000
     98        -18.342854   1.000000
     99        -18.288558   1.000000
    100        -18.280505   1.000000
    101        -18.280275   1.000000
    102        -18.277040   1.000000
    103        -18.276432   1.000000
    104        -18.273082   1.000000
    105        -18.267974   1.000000
    106        -18.267944   1.000000
    107        -18.261910   1.000000
    108        -18.257170   1.000000
    109        -18.256239   1.000000
    110        -18.254722   1.000000
    111        -18.252392   1.000000
    112        -18.250618   1.000000
    113        -18.249402   1.000000
    114        -18.248701   1.000000
    115        -18.247374   1.000000
    116        -18.245229   1.000000
    117        -18.243921   1.000000
    118        -18.241666   1.000000
    119        -18.224651   1.000000
    120        -18.223640   1.000000
    121        -18.220517   1.000000
    122        -18.217957   1.000000
    123        -18.217741   1.000000
    124        -18.215477   1.000000
    125        -18.213871   1.000000
    126        -18.213418   1.000000
    127        -18.212250   1.000000
    128        -18.208734   1.000000
    129        -18.200976   1.000000
    130        -18.200738   1.000000
    131        -18.197220   1.000000
    132        -18.193421   1.000000
    133        -18.189563   1.000000
    134        -18.188686   1.000000
    135        -18.187423   1.000000
    136        -18.187273   1.000000
    137        -18.176457   1.000000
    138        -18.174877   1.000000
    139        -18.172291   1.000000
    140        -18.171431   1.000000
    141        -18.170413   1.000000
    142        -18.169976   1.000000
    143        -18.162048   1.000000
    144        -18.161990   1.000000
    145        -18.159799   1.000000
    146        -18.159660   1.000000
    147        -18.149194   1.000000
    148        -18.148060   1.000000
    149        -18.131473   1.000000
    150        -18.128734   1.000000
    151        -18.127590   1.000000
    152        -18.126951   1.000000
    153        -18.126766   1.000000
    154        -18.125173   1.000000
    155        -18.124641   1.000000
    156        -18.123345   1.000000
    157        -18.091396   1.000000
    158        -18.089555   1.000000
    159        -18.083597   1.000000
    160        -18.081698   1.000000
    161        -18.070835   1.000000
    162        -18.066979   1.000000
    163        -18.066476   1.000000
    164        -18.064855   1.000000
    165        -18.064810   1.000000
    166        -18.063359   1.000000
    167        -18.042838   1.000000
    168        -18.039027   1.000000
    169        -18.032539   1.000000
    170        -18.028319   1.000000
    171        -18.020167   1.000000
    172        -18.020056   1.000000
    173        -18.014541   1.000000
    174        -18.014116   1.000000
    175        -18.013069   1.000000
    176        -18.012832   1.000000
    177        -18.005534   1.000000
    178        -17.999064   1.000000
    179        -17.998835   1.000000
    180        -17.998752   1.000000
    181        -17.997545   1.000000
    182        -17.996001   1.000000
    183        -17.987776   1.000000
    184        -17.984554   1.000000
    185        -17.982174   1.000000
    186        -17.978460   1.000000
    187        -17.967581   1.000000
    188        -17.966747   1.000000
    189        -17.955845   1.000000
    190        -17.952048   1.000000
    191        -17.949668   1.000000
    192        -17.949475   1.000000
    193        -17.937960   1.000000
    194        -17.936100   1.000000
    195        -17.926232   1.000000
    196        -17.925905   1.000000
    197        -17.923940   1.000000
    198        -17.923793   1.000000
    199        -17.901499   1.000000
    200        -17.897535   1.000000
    201        -17.893080   1.000000
    202        -17.890659   1.000000
    203        -17.889763   1.000000
    204        -17.887637   1.000000
    205        -17.887282   1.000000
    206        -17.886279   1.000000
    207        -17.884393   1.000000
    208        -17.881649   1.000000
    209        -17.870831   1.000000
    210        -17.869891   1.000000
    211        -17.868898   1.000000
    212        -17.868152   1.000000
    213        -17.819362   1.000000
    214        -17.817129   1.000000
    215        -17.805713   1.000000
    216        -17.802055   1.000000
    217        -17.801975   1.000000
    218        -17.797481   1.000000
    219        -17.796422   1.000000
    220        -17.794823   1.000000
    221        -17.793126   1.000000
    222        -17.792804   1.000000
    223        -17.790312   1.000000
    224        -17.786657   1.000000
    225        -17.785372   1.000000
    226        -17.784055   1.000000
    227        -17.783749   1.000000
    228        -17.781389   1.000000
    229        -17.771792   1.000000
    230        -17.770828   1.000000
    231        -17.765524   1.000000
    232        -17.765125   1.000000
    233        -17.761143   1.000000
    234        -17.757853   1.000000
    235        -17.757486   1.000000
    236        -17.755322   1.000000
    237        -17.754943   1.000000
    238        -17.752000   1.000000
    239        -17.743501   1.000000
    240        -17.739889   1.000000
    241        -17.739782   1.000000
    242        -17.737860   1.000000
    243        -17.735213   1.000000
    244        -17.734440   1.000000
    245        -17.731448   1.000000
    246        -17.730724   1.000000
    247        -17.730021   1.000000
    248        -17.727671   1.000000
    249        -17.726568   1.000000
    250        -17.726115   1.000000
    251        -17.724436   1.000000
    252        -17.724027   1.000000
    253        -17.723705   1.000000
    254        -17.722474   1.000000
    255        -17.721563   1.000000
    256        -17.721372   1.000000
    257        -17.720802   1.000000
    258        -17.720712   1.000000
    259        -17.711800   1.000000
    260        -17.709118   1.000000
    261        -17.707845   1.000000
    262        -17.706072   1.000000
    263        -17.705267   1.000000
    264        -17.704067   1.000000
    265        -17.702430   1.000000
    266        -17.701768   1.000000
    267        -17.698616   1.000000
    268        -17.696381   1.000000
    269        -17.672864   1.000000
    270        -17.665806   1.000000
    271        -17.663501   1.000000
    272        -17.662500   1.000000
    273        -17.661043   1.000000
    274        -17.660289   1.000000
    275        -17.658596   1.000000
    276        -17.658118   1.000000
    277        -17.657292   1.000000
    278        -17.657196   1.000000
    279        -17.655554   1.000000
    280        -17.649171   1.000000
    281        -17.646754   1.000000
    282        -17.646228   1.000000
    283        -17.645273   1.000000
    284        -17.642883   1.000000
    285        -17.642685   1.000000
    286        -17.640351   1.000000
    287        -17.639551   1.000000
    288        -17.638669   1.000000
    289        -17.632243   1.000000
    290        -17.632106   1.000000
    291        -17.628648   1.000000
    292        -17.628328   1.000000
    293        -17.627062   1.000000
    294        -17.625694   1.000000
    295        -17.625299   1.000000
    296        -17.623824   1.000000
    297        -17.620521   1.000000
    298        -17.617820   1.000000
    299        -17.613656   1.000000
    300        -17.612805   1.000000
    301        -17.611686   1.000000
    302        -17.611540   1.000000
    303        -17.610179   1.000000
    304        -17.608792   1.000000
    305        -17.604294   1.000000
    306        -17.602175   1.000000
    307        -17.602079   1.000000
    308        -17.600572   1.000000
    309        -17.600119   1.000000
    310        -17.598338   1.000000
    311        -17.596520   1.000000
    312        -17.594543   1.000000
    313        -17.593066   1.000000
    314        -17.591551   1.000000
    315        -17.590955   1.000000
    316        -17.588559   1.000000
    317        -17.587911   1.000000
    318        -17.587144   1.000000
    319        -17.587137   1.000000
    320        -17.586150   1.000000
    321        -17.585124   1.000000
    322        -17.585050   1.000000
    323        -17.584477   1.000000
    324        -17.583221   1.000000
    325        -17.583099   1.000000
    326        -17.582290   1.000000
    327        -17.582010   1.000000
    328        -17.580733   1.000000
    329        -17.580212   1.000000
    330        -17.579846   1.000000
    331        -17.579541   1.000000
    332        -17.578255   1.000000
    333        -17.577135   1.000000
    334        -17.577101   1.000000
    335        -17.576101   1.000000
    336        -17.575711   1.000000
    337        -17.573600   1.000000
    338        -17.572049   1.000000
    339        -17.570955   1.000000
    340        -17.570037   1.000000
    341        -17.569376   1.000000
    342        -17.567605   1.000000
    343        -17.567310   1.000000
    344        -17.566667   1.000000
    345        -17.555985   1.000000
    346        -17.551705   1.000000
    347        -17.551198   1.000000
    348        -17.547255   1.000000
    349        -17.546829   1.000000
    350        -17.546012   1.000000
    351        -17.544888   1.000000
    352        -17.543906   1.000000
    353        -17.542445   1.000000
    354        -17.541565   1.000000
    355        -17.540383   1.000000
    356        -17.539192   1.000000
    357        -17.538795   1.000000
    358        -17.537580   1.000000
    359        -17.536408   1.000000
    360        -17.536402   1.000000
    361        -17.533543   1.000000
    362        -17.533142   1.000000
    363        -17.525889   1.000000
    364        -17.522073   1.000000
    365        -17.517323   1.000000
    366        -17.513785   1.000000
    367        -17.502415   1.000000
    368        -17.500907   1.000000
    369        -17.500218   1.000000
    370        -17.499053   1.000000
    371        -17.497620   1.000000
    372        -17.494823   1.000000
    373        -17.490839   1.000000
    374        -17.488514   1.000000
    375        -17.486121   1.000000
    376        -17.483565   1.000000
    377        -17.475001   1.000000
    378        -17.473458   1.000000
    379        -17.456268   1.000000
    380        -17.454248   1.000000
    381        -17.452671   1.000000
    382        -17.448351   1.000000
    383        -17.438429   1.000000
    384        -17.434599   1.000000
    385          2.497313   1.000000
    386          3.820296   1.000000
    387          3.899348   1.000000
    388          4.100159   1.000000
    389          4.207840   1.000000
    390          4.577673   1.000000
    391          4.637138   1.000000
    392          4.812237   1.000000
    393          4.877578   1.000000
    394          5.073911   1.000000
    395          5.132693   1.000000
    396          5.626125   1.000000
    397          5.630514   1.000000
    398          5.657718   1.000000
    399          5.679854   1.000000
    400          5.741516   1.000000
    401          5.742347   1.000000
    402          5.747695   1.000000
    403          5.775915   1.000000
    404          5.833570   1.000000
    405          5.833984   1.000000
    406          5.838716   1.000000
    407          5.855456   1.000000
    408          5.863401   1.000000
    409          5.892236   1.000000
    410          5.907764   1.000000
    411          5.966451   1.000000
    412          6.050427   1.000000
    413          6.077864   1.000000
    414          6.186253   1.000000
    415          6.192160   1.000000
    416          6.227403   1.000000
    417          6.232769   1.000000
    418          6.234308   1.000000
    419          6.237163   1.000000
    420          6.243454   1.000000
    421          6.245105   1.000000
    422          6.245736   1.000000
    423          6.254161   1.000000
    424          6.260787   1.000000
    425          6.272645   1.000000
    426          6.293125   1.000000
    427          6.293764   1.000000
    428          6.294997   1.000000
    429          6.296772   1.000000
    430          6.301035   1.000000
    431          6.305230   1.000000
    432          6.306296   1.000000
    433          6.375684   1.000000
    434          6.402308   1.000000
    435          6.408444   1.000000
    436          6.408452   1.000000
    437          6.450127   1.000000
    438          6.513458   1.000000
    439          6.514744   1.000000
    440          6.515405   1.000000
    441          6.535057   1.000000
    442          6.549701   1.000000
    443          6.552641   1.000000
    444          6.553504   1.000000
    445          6.657796   1.000000
    446          6.710457   1.000000
    447          6.716055   1.000000
    448          6.718039   1.000000
    449          6.758356   1.000000
    450          6.825808   1.000000
    451          6.826635   1.000000
    452          6.828271   1.000000
    453          6.830938   1.000000
    454          6.834755   1.000000
    455          6.845504   1.000000
    456          6.852400   1.000000
    457          6.865568   1.000000
    458          6.875051   1.000000
    459          6.875533   1.000000
    460          6.879097   1.000000
    461          6.916858   1.000000
    462          6.925036   1.000000
    463          6.928168   1.000000
    464          6.931183   1.000000
    465          6.963807   1.000000
    466          6.977507   1.000000
    467          7.066946   1.000000
    468          7.172833   1.000000
    469          7.174749   1.000000
    470          7.179875   1.000000
    471          7.182732   1.000000
    472          7.184926   1.000000
    473          7.206623   1.000000
    474          7.214924   1.000000
    475          7.220353   1.000000
    476          7.222990   1.000000
    477          7.239370   1.000000
    478          7.249175   1.000000
    479          7.249375   1.000000
    480          7.252038   1.000000
    481          7.255474   1.000000
    482          7.257427   1.000000
    483          7.351936   1.000000
    484          7.411885   1.000000
    485          7.412725   1.000000
    486          7.413368   1.000000
    487          7.415116   1.000000
    488          7.416919   1.000000
    489          7.440563   1.000000
    490          7.446300   1.000000
    491          7.447802   1.000000
    492          7.448781   1.000000
    493          7.451536   1.000000
    494          7.452591   1.000000
    495          7.461324   1.000000
    496          7.471749   1.000000
    497          7.534309   1.000000
    498          7.554241   1.000000
    499          7.560096   1.000000
    500          7.560743   1.000000
    501          7.572781   1.000000
    502          7.581764   1.000000
    503          7.641135   1.000000
    504          7.649751   1.000000
    505          7.732975   1.000000
    506          7.739564   1.000000
    507          7.858753   1.000000
    508          7.866501   1.000000
    509          7.875919   1.000000
    510          7.926564   1.000000
    511          7.930744   1.000000
    512          7.931490   1.000000
    513          7.933592   1.000000
    514          7.935757   1.000000
    515          7.939763   1.000000
    516          7.948401   1.000000
    517          7.993779   1.000000
    518          8.015793   1.000000
    519          8.030880   1.000000
    520          8.040191   1.000000
    521          8.041963   1.000000
    522          8.042565   1.000000
    523          8.051525   1.000000
    524          8.068946   1.000000
    525          8.070097   1.000000
    526          8.072321   1.000000
    527          8.093610   1.000000
    528          8.118470   1.000000
    529          8.124186   1.000000
    530          8.124651   1.000000
    531          8.128290   1.000000
    532          8.132950   1.000000
    533          8.133480   1.000000
    534          8.134619   1.000000
    535          8.136232   1.000000
    536          8.136715   1.000000
    537          8.192532   1.000000
    538          8.231523   1.000002
    539          8.232495   1.000002
    540          8.236756   1.000002
    541          8.239339   1.000002
    542          8.239736   1.000002
    543          8.240313   1.000002
    544          8.243092   1.000003
    545          8.244300   1.000003
    546          8.246821   1.000003
    547          8.247043   1.000003
    548          8.248282   1.000003
    549          8.260391   1.000005
    550          8.263084   1.000005
    551          8.264842   1.000005
    552          8.265896   1.000006
    553          8.334191   1.000047
    554          8.336894   1.000051
    555          8.339144   1.000054
    556          8.341643   1.000058
    557          8.371421   1.000134
    558          8.390350   1.000222
    559          8.417506   1.000443
    560          8.428478   1.000579
    561          8.465383   1.001353
    562          8.470820   1.001523
    563          8.502220   1.002915
    564          8.507125   1.003209
    565          8.518959   1.004022
    566          8.527827   1.004735
    567          8.684742   1.032875
    568          8.709205   1.035392
    569          8.778214   1.011512
    570          8.784636   1.005568
    571          8.817545   0.961266
    572          8.820586   0.955905
    573          8.945617   0.553746
    574          8.981302   0.403579
    575          9.006435   0.302902
    576          9.008606   0.294603
    577          9.028601   0.222088
    578          9.065280   0.111462
    579          9.068077   0.104363
    580          9.070416   0.098576
    581          9.076450   0.084290
    582          9.085717   0.064135
    583          9.092920   0.049960
    584          9.099078   0.038858
    585          9.103819   0.030937
    586          9.114976   0.014392
    587          9.130334  -0.003831
    588          9.152230  -0.021655
    589          9.157122  -0.024480
    590          9.160874  -0.026389
    591          9.191731  -0.034901
    592          9.202435  -0.035455
    593          9.207727  -0.035384
    594          9.212550  -0.035148
    595          9.222905  -0.034166
    596          9.264612  -0.026236
    597          9.268721  -0.025292
    598          9.269959  -0.025007
    599          9.272621  -0.024391
    600          9.278529  -0.023024
    601          9.288411  -0.020759
    602          9.289212  -0.020578
    603          9.293761  -0.019557
    604          9.294672  -0.019355
    605          9.310843  -0.015915
    606          9.332326  -0.011893
    607          9.339776  -0.010666
    608          9.341769  -0.010353
    609          9.343583  -0.010074
    610          9.345396  -0.009800
    611          9.349061  -0.009262
    612          9.350921  -0.008997
    613          9.353590  -0.008627
    614          9.355521  -0.008366
    615          9.361738  -0.007566
    616          9.369497  -0.006649
    617          9.377426  -0.005803
    618          9.379310  -0.005616
    619          9.448829  -0.001429
    620          9.454311  -0.001267
    621          9.469735  -0.000895
    622          9.482960  -0.000657
    623          9.485639  -0.000616
    624          9.487235  -0.000593
    625          9.645463  -0.000007
    626          9.653897  -0.000005
    627          9.683687  -0.000002
    628          9.716453  -0.000001
    629          9.725885  -0.000000
    630          9.738142  -0.000000
    631          9.742563  -0.000000
    632          9.743873  -0.000000
    633          9.752694  -0.000000
    634          9.757405  -0.000000
    635          9.763145  -0.000000
    636          9.766951  -0.000000
    637          9.776700  -0.000000
    638          9.788174  -0.000000
    639          9.788529  -0.000000
    640          9.795505  -0.000000
    641          9.800143  -0.000000
    642          9.802006  -0.000000
    643          9.803362  -0.000000
    644          9.803588  -0.000000
    645          9.807889  -0.000000
    646          9.809633  -0.000000
    647          9.814840  -0.000000
    648          9.823575  -0.000000
    649          9.823634  -0.000000
    650          9.833212  -0.000000
    651          9.846163  -0.000000
    652          9.868561  -0.000000
    653          9.879922  -0.000000
    654          9.882431  -0.000000
    655          9.890059  -0.000000
    656          9.893971  -0.000000
    657          9.926529  -0.000000
    658          9.928750  -0.000000
    659          9.936515  -0.000000
    660          9.939337  -0.000000
    661          9.944813  -0.000000
    662          9.946854  -0.000000
    663          9.963420  -0.000000
    664          9.966597  -0.000000
    665          9.967897  -0.000000
    666          9.971748  -0.000000
    667          9.972568  -0.000000
    668          9.977583  -0.000000
    669          9.996326  -0.000000
    670         10.008802  -0.000000
    671         10.009561  -0.000000
    672         10.013238  -0.000000
    673         10.052667  -0.000000
    674         10.055681  -0.000000
    675         10.075821  -0.000000
    676         10.096228  -0.000000
    677         10.098949  -0.000000
    678         10.100314  -0.000000
    679         10.104911  -0.000000
    680         10.105840  -0.000000
    681         10.107898  -0.000000
    682         10.109331  -0.000000
    683         10.124204  -0.000000
    684         10.127849  -0.000000
    685         10.138273  -0.000000
    686         10.139807  -0.000000
    687         10.199858  -0.000000
    688         10.219456  -0.000000
    689         10.224890  -0.000000
    690         10.229833  -0.000000
    691         10.289699  -0.000000
 
  0.2690550E-16  0.5000000E+00  0.3333333E+00  0.4166667E-01
      1        -39.889408   1.000000
      2        -39.879869   1.000000
      3        -39.873806   1.000000
      4        -39.868083   1.000000
      5        -39.854346   1.000000
      6        -39.852268   1.000000
      7        -39.843422   1.000000
      8        -39.842341   1.000000
      9        -39.834303   1.000000
     10        -39.830264   1.000000
     11        -39.821764   1.000000
     12        -39.816449   1.000000
     13        -39.811583   1.000000
     14        -39.806340   1.000000
     15        -39.805581   1.000000
     16        -39.805297   1.000000
     17        -39.803758   1.000000
     18        -39.802060   1.000000
     19        -39.801077   1.000000
     20        -39.800130   1.000000
     21        -39.797902   1.000000
     22        -39.797007   1.000000
     23        -39.792959   1.000000
     24        -39.789992   1.000000
     25        -39.788066   1.000000
     26        -39.786573   1.000000
     27        -39.784983   1.000000
     28        -39.784095   1.000000
     29        -39.780046   1.000000
     30        -39.778553   1.000000
     31        -39.774583   1.000000
     32        -39.772923   1.000000
     33        -39.771427   1.000000
     34        -39.769431   1.000000
     35        -39.768353   1.000000
     36        -39.767018   1.000000
     37        -39.766163   1.000000
     38        -39.764830   1.000000
     39        -39.763466   1.000000
     40        -39.762919   1.000000
     41        -39.761764   1.000000
     42        -39.760804   1.000000
     43        -39.760384   1.000000
     44        -39.759925   1.000000
     45        -39.759171   1.000000
     46        -39.757956   1.000000
     47        -39.757324   1.000000
     48        -39.756901   1.000000
     49        -39.753566   1.000000
     50        -39.752345   1.000000
     51        -39.750924   1.000000
     52        -39.749579   1.000000
     53        -39.748989   1.000000
     54        -39.747890   1.000000
     55        -39.747110   1.000000
     56        -39.746371   1.000000
     57        -39.745457   1.000000
     58        -39.745286   1.000000
     59        -39.744122   1.000000
     60        -39.743791   1.000000
     61        -39.743273   1.000000
     62        -39.742824   1.000000
     63        -39.741090   1.000000
     64        -39.739595   1.000000
     65        -39.738096   1.000000
     66        -39.737490   1.000000
     67        -39.737025   1.000000
     68        -39.736355   1.000000
     69        -39.735443   1.000000
     70        -39.735191   1.000000
     71        -39.733375   1.000000
     72        -39.733004   1.000000
     73        -39.732443   1.000000
     74        -39.731124   1.000000
     75        -39.730483   1.000000
     76        -39.727811   1.000000
     77        -39.727165   1.000000
     78        -39.726914   1.000000
     79        -39.726329   1.000000
     80        -39.726093   1.000000
     81        -39.725256   1.000000
     82        -39.724647   1.000000
     83        -39.724058   1.000000
     84        -39.723408   1.000000
     85        -39.722847   1.000000
     86        -39.722343   1.000000
     87        -39.721723   1.000000
     88        -39.720834   1.000000
     89        -39.719504   1.000000
     90        -39.718895   1.000000
     91        -39.718324   1.000000
     92        -39.717606   1.000000
     93        -39.717192   1.000000
     94        -39.716582   1.000000
     95        -39.714636   1.000000
     96        -39.714029   1.000000
     97        -18.348048   1.000000
     98        -18.342919   1.000000
     99        -18.288410   1.000000
    100        -18.280653   1.000000
    101        -18.280238   1.000000
    102        -18.277085   1.000000
    103        -18.276334   1.000000
    104        -18.273059   1.000000
    105        -18.268267   1.000000
    106        -18.267480   1.000000
    107        -18.261817   1.000000
    108        -18.257199   1.000000
    109        -18.255979   1.000000
    110        -18.254845   1.000000
    111        -18.252295   1.000000
    112        -18.250822   1.000000
    113        -18.249220   1.000000
    114        -18.248521   1.000000
    115        -18.247834   1.000000
    116        -18.245281   1.000000
    117        -18.244119   1.000000
    118        -18.241761   1.000000
    119        -18.224609   1.000000
    120        -18.223582   1.000000
    121        -18.220777   1.000000
    122        -18.217627   1.000000
    123        -18.217337   1.000000
    124        -18.215436   1.000000
    125        -18.214051   1.000000
    126        -18.213769   1.000000
    127        -18.211896   1.000000
    128        -18.208824   1.000000
    129        -18.200809   1.000000
    130        -18.200431   1.000000
    131        -18.197636   1.000000
    132        -18.193645   1.000000
    133        -18.189667   1.000000
    134        -18.188446   1.000000
    135        -18.187844   1.000000
    136        -18.187021   1.000000
    137        -18.176722   1.000000
    138        -18.174544   1.000000
    139        -18.172204   1.000000
    140        -18.171304   1.000000
    141        -18.170673   1.000000
    142        -18.169974   1.000000
    143        -18.162073   1.000000
    144        -18.161652   1.000000
    145        -18.160378   1.000000
    146        -18.159349   1.000000
    147        -18.149356   1.000000
    148        -18.147793   1.000000
    149        -18.131586   1.000000
    150        -18.128269   1.000000
    151        -18.127872   1.000000
    152        -18.127292   1.000000
    153        -18.126365   1.000000
    154        -18.125601   1.000000
    155        -18.124512   1.000000
    156        -18.123362   1.000000
    157        -18.091778   1.000000
    158        -18.089190   1.000000
    159        -18.082992   1.000000
    160        -18.081671   1.000000
    161        -18.070916   1.000000
    162        -18.067226   1.000000
    163        -18.066378   1.000000
    164        -18.065158   1.000000
    165        -18.064452   1.000000
    166        -18.063616   1.000000
    167        -18.042801   1.000000
    168        -18.039229   1.000000
    169        -18.032465   1.000000
    170        -18.028382   1.000000
    171        -18.020599   1.000000
    172        -18.019431   1.000000
    173        -18.014636   1.000000
    174        -18.013830   1.000000
    175        -18.013536   1.000000
    176        -18.012688   1.000000
    177        -18.005708   1.000000
    178        -17.999542   1.000000
    179        -17.998978   1.000000
    180        -17.998692   1.000000
    181        -17.997171   1.000000
    182        -17.996040   1.000000
    183        -17.987735   1.000000
    184        -17.984707   1.000000
    185        -17.982322   1.000000
    186        -17.978508   1.000000
    187        -17.968087   1.000000
    188        -17.966807   1.000000
    189        -17.954759   1.000000
    190        -17.951731   1.000000
    191        -17.949869   1.000000
    192        -17.949655   1.000000
    193        -17.938495   1.000000
    194        -17.935840   1.000000
    195        -17.926385   1.000000
    196        -17.925792   1.000000
    197        -17.924184   1.000000
    198        -17.923655   1.000000
    199        -17.902001   1.000000
    200        -17.897713   1.000000
    201        -17.891981   1.000000
    202        -17.890776   1.000000
    203        -17.889752   1.000000
    204        -17.887674   1.000000
    205        -17.887364   1.000000
    206        -17.886278   1.000000
    207        -17.884113   1.000000
    208        -17.881797   1.000000
    209        -17.870819   1.000000
    210        -17.869934   1.000000
    211        -17.868916   1.000000
    212        -17.867942   1.000000
    213        -17.819283   1.000000
    214        -17.817529   1.000000
    215        -17.805438   1.000000
    216        -17.802377   1.000000
    217        -17.800875   1.000000
    218        -17.797950   1.000000
    219        -17.797025   1.000000
    220        -17.795023   1.000000
    221        -17.793372   1.000000
    222        -17.792949   1.000000
    223        -17.790449   1.000000
    224        -17.786379   1.000000
    225        -17.784874   1.000000
    226        -17.783936   1.000000
    227        -17.783602   1.000000
    228        -17.781870   1.000000
    229        -17.771284   1.000000
    230        -17.770718   1.000000
    231        -17.766299   1.000000
    232        -17.764286   1.000000
    233        -17.760758   1.000000
    234        -17.757917   1.000000
    235        -17.757457   1.000000
    236        -17.755673   1.000000
    237        -17.754913   1.000000
    238        -17.751769   1.000000
    239        -17.743175   1.000000
    240        -17.740211   1.000000
    241        -17.739191   1.000000
    242        -17.738495   1.000000
    243        -17.735695   1.000000
    244        -17.733653   1.000000
    245        -17.731792   1.000000
    246        -17.731190   1.000000
    247        -17.730148   1.000000
    248        -17.727895   1.000000
    249        -17.726947   1.000000
    250        -17.725745   1.000000
    251        -17.724567   1.000000
    252        -17.724254   1.000000
    253        -17.723801   1.000000
    254        -17.722141   1.000000
    255        -17.721636   1.000000
    256        -17.721198   1.000000
    257        -17.721012   1.000000
    258        -17.720130   1.000000
    259        -17.712217   1.000000
    260        -17.708728   1.000000
    261        -17.707883   1.000000
    262        -17.705919   1.000000
    263        -17.705444   1.000000
    264        -17.703176   1.000000
    265        -17.702932   1.000000
    266        -17.701595   1.000000
    267        -17.699204   1.000000
    268        -17.696162   1.000000
    269        -17.671953   1.000000
    270        -17.666170   1.000000
    271        -17.664620   1.000000
    272        -17.662844   1.000000
    273        -17.661651   1.000000
    274        -17.660438   1.000000
    275        -17.659111   1.000000
    276        -17.658213   1.000000
    277        -17.657452   1.000000
    278        -17.656478   1.000000
    279        -17.655215   1.000000
    280        -17.649511   1.000000
    281        -17.646751   1.000000
    282        -17.645675   1.000000
    283        -17.644774   1.000000
    284        -17.643006   1.000000
    285        -17.642027   1.000000
    286        -17.640277   1.000000
    287        -17.639734   1.000000
    288        -17.639188   1.000000
    289        -17.633459   1.000000
    290        -17.631125   1.000000
    291        -17.628468   1.000000
    292        -17.627759   1.000000
    293        -17.627136   1.000000
    294        -17.626104   1.000000
    295        -17.625332   1.000000
    296        -17.623685   1.000000
    297        -17.620618   1.000000
    298        -17.617342   1.000000
    299        -17.613830   1.000000
    300        -17.613218   1.000000
    301        -17.611653   1.000000
    302        -17.611189   1.000000
    303        -17.609733   1.000000
    304        -17.608841   1.000000
    305        -17.603890   1.000000
    306        -17.602020   1.000000
    307        -17.601372   1.000000
    308        -17.600740   1.000000
    309        -17.599873   1.000000
    310        -17.598115   1.000000
    311        -17.596362   1.000000
    312        -17.594339   1.000000
    313        -17.593490   1.000000
    314        -17.591426   1.000000
    315        -17.590968   1.000000
    316        -17.588443   1.000000
    317        -17.587824   1.000000
    318        -17.587430   1.000000
    319        -17.586734   1.000000
    320        -17.586296   1.000000
    321        -17.585627   1.000000
    322        -17.585067   1.000000
    323        -17.584082   1.000000
    324        -17.583594   1.000000
    325        -17.583166   1.000000
    326        -17.582147   1.000000
    327        -17.581871   1.000000
    328        -17.580800   1.000000
    329        -17.580458   1.000000
    330        -17.579993   1.000000
    331        -17.579675   1.000000
    332        -17.578363   1.000000
    333        -17.577189   1.000000
    334        -17.576714   1.000000
    335        -17.575957   1.000000
    336        -17.575883   1.000000
    337        -17.573573   1.000000
    338        -17.572051   1.000000
    339        -17.570754   1.000000
    340        -17.569996   1.000000
    341        -17.569512   1.000000
    342        -17.567896   1.000000
    343        -17.567216   1.000000
    344        -17.566718   1.000000
    345        -17.555229   1.000000
    346        -17.551848   1.000000
    347        -17.551098   1.000000
    348        -17.547288   1.000000
    349        -17.547026   1.000000
    350        -17.545853   1.000000
    351        -17.545021   1.000000
    352        -17.544469   1.000000
    353        -17.542975   1.000000
    354        -17.541413   1.000000
    355        -17.540492   1.000000
    356        -17.539454   1.000000
    357        -17.538878   1.000000
    358        -17.537052   1.000000
    359        -17.536299   1.000000
    360        -17.536161   1.000000
    361        -17.533714   1.000000
    362        -17.533382   1.000000
    363        -17.525680   1.000000
    364        -17.522174   1.000000
    365        -17.517033   1.000000
    366        -17.513864   1.000000
    367        -17.503182   1.000000
    368        -17.501299   1.000000
    369        -17.500149   1.000000
    370        -17.498657   1.000000
    371        -17.497729   1.000000
    372        -17.494901   1.000000
    373        -17.491066   1.000000
    374        -17.488314   1.000000
    375        -17.486413   1.000000
    376        -17.483228   1.000000
    377        -17.474816   1.000000
    378        -17.473794   1.000000
    379        -17.456191   1.000000
    380        -17.454361   1.000000
    381        -17.452490   1.000000
    382        -17.448420   1.000000
    383        -17.438203   1.000000
    384        -17.434655   1.000000
    385          2.497783   1.000000
    386          3.820449   1.000000
    387          3.898680   1.000000
    388          4.100313   1.000000
    389          4.206036   1.000000
    390          4.577262   1.000000
    391          4.638065   1.000000
    392          4.811834   1.000000
    393          4.879351   1.000000
    394          5.074032   1.000000
    395          5.132568   1.000000
    396          5.626226   1.000000
    397          5.630218   1.000000
    398          5.657406   1.000000
    399          5.680154   1.000000
    400          5.741860   1.000000
    401          5.742661   1.000000
    402          5.747770   1.000000
    403          5.777281   1.000000
    404          5.833387   1.000000
    405          5.834706   1.000000
    406          5.838706   1.000000
    407          5.857146   1.000000
    408          5.862985   1.000000
    409          5.893052   1.000000
    410          5.907016   1.000000
    411          5.963309   1.000000
    412          6.051264   1.000000
    413          6.075680   1.000000
    414          6.185932   1.000000
    415          6.192131   1.000000
    416          6.226538   1.000000
    417          6.233130   1.000000
    418          6.234723   1.000000
    419          6.237426   1.000000
    420          6.243121   1.000000
    421          6.244819   1.000000
    422          6.245396   1.000000
    423          6.254689   1.000000
    424          6.260931   1.000000
    425          6.271812   1.000000
    426          6.292054   1.000000
    427          6.294354   1.000000
    428          6.295011   1.000000
    429          6.298387   1.000000
    430          6.301514   1.000000
    431          6.305177   1.000000
    432          6.306093   1.000000
    433          6.373891   1.000000
    434          6.402467   1.000000
    435          6.408396   1.000000
    436          6.409267   1.000000
    437          6.450159   1.000000
    438          6.512162   1.000000
    439          6.515042   1.000000
    440          6.515480   1.000000
    441          6.534640   1.000000
    442          6.549142   1.000000
    443          6.552524   1.000000
    444          6.553193   1.000000
    445          6.662531   1.000000
    446          6.710595   1.000000
    447          6.715612   1.000000
    448          6.717911   1.000000
    449          6.751610   1.000000
    450          6.825158   1.000000
    451          6.827696   1.000000
    452          6.828491   1.000000
    453          6.831443   1.000000
    454          6.834353   1.000000
    455          6.845067   1.000000
    456          6.851500   1.000000
    457          6.865070   1.000000
    458          6.874493   1.000000
    459          6.876006   1.000000
    460          6.878647   1.000000
    461          6.917053   1.000000
    462          6.924480   1.000000
    463          6.928976   1.000000
    464          6.931116   1.000000
    465          6.965213   1.000000
    466          6.976958   1.000000
    467          7.068125   1.000000
    468          7.171834   1.000000
    469          7.175631   1.000000
    470          7.179619   1.000000
    471          7.182221   1.000000
    472          7.184694   1.000000
    473          7.207435   1.000000
    474          7.215966   1.000000
    475          7.220434   1.000000
    476          7.223118   1.000000
    477          7.236842   1.000000
    478          7.248813   1.000000
    479          7.250189   1.000000
    480          7.251804   1.000000
    481          7.255350   1.000000
    482          7.256728   1.000000
    483          7.358399   1.000000
    484          7.410931   1.000000
    485          7.411865   1.000000
    486          7.413859   1.000000
    487          7.414604   1.000000
    488          7.417452   1.000000
    489          7.439900   1.000000
    490          7.446486   1.000000
    491          7.447722   1.000000
    492          7.448574   1.000000
    493          7.451210   1.000000
    494          7.452854   1.000000
    495          7.463277   1.000000
    496          7.471506   1.000000
    497          7.537135   1.000000
    498          7.554183   1.000000
    499          7.559117   1.000000
    500          7.560546   1.000000
    501          7.573252   1.000000
    502          7.581850   1.000000
    503          7.641211   1.000000
    504          7.649084   1.000000
    505          7.730418   1.000000
    506          7.739006   1.000000
    507          7.856489   1.000000
    508          7.868067   1.000000
    509          7.877685   1.000000
    510          7.926478   1.000000
    511          7.930061   1.000000
    512          7.932064   1.000000
    513          7.933602   1.000000
    514          7.934784   1.000000
    515          7.942743   1.000000
    516          7.948328   1.000000
    517          7.998786   1.000000
    518          8.015123   1.000000
    519          8.035074   1.000000
    520          8.039870   1.000000
    521          8.042121   1.000000
    522          8.043904   1.000000
    523          8.050970   1.000000
    524          8.068637   1.000000
    525          8.070546   1.000000
    526          8.072661   1.000000
    527          8.096343   1.000000
    528          8.117072   1.000000
    529          8.123935   1.000000
    530          8.124947   1.000000
    531          8.129632   1.000000
    532          8.131715   1.000000
    533          8.133405   1.000000
    534          8.134141   1.000000
    535          8.136430   1.000000
    536          8.137577   1.000000
    537          8.192072   1.000000
    538          8.228724   1.000002
    539          8.233585   1.000002
    540          8.236571   1.000002
    541          8.238178   1.000002
    542          8.239406   1.000002
    543          8.240847   1.000002
    544          8.242884   1.000003
    545          8.244007   1.000003
    546          8.247327   1.000003
    547          8.248119   1.000003
    548          8.249877   1.000003
    549          8.261203   1.000005
    550          8.263427   1.000005
    551          8.264675   1.000005
    552          8.266896   1.000006
    553          8.335744   1.000049
    554          8.336983   1.000051
    555          8.338902   1.000054
    556          8.342855   1.000060
    557          8.368351   1.000123
    558          8.390090   1.000221
    559          8.412225   1.000389
    560          8.429465   1.000593
    561          8.463572   1.001300
    562          8.472848   1.001591
    563          8.501209   1.002858
    564          8.506732   1.003185
    565          8.516879   1.003868
    566          8.529867   1.004913
    567          8.684196   1.032786
    568          8.708408   1.035365
    569          8.780034   1.009910
    570          8.783189   1.006978
    571          8.815799   0.964243
    572          8.820377   0.956281
    573          8.944145   0.559931
    574          8.980846   0.405467
    575          8.994184   0.351028
    576          9.022119   0.244767
    577          9.035138   0.200102
    578          9.060697   0.123519
    579          9.067394   0.106078
    580          9.070831   0.097563
    581          9.075647   0.086137
    582          9.086460   0.062614
    583          9.091116   0.053390
    584          9.098394   0.040046
    585          9.102009   0.033898
    586          9.115946   0.013088
    587          9.133729  -0.007191
    588          9.150648  -0.020657
    589          9.155237  -0.023437
    590          9.160832  -0.026369
    591          9.194248  -0.035123
    592          9.201725  -0.035448
    593          9.210172  -0.035284
    594          9.211984  -0.035184
    595          9.233724  -0.032583
    596          9.257159  -0.027916
    597          9.266863  -0.025720
    598          9.270832  -0.024805
    599          9.274055  -0.024059
    600          9.279139  -0.022883
    601          9.287149  -0.021045
    602          9.290049  -0.020389
    603          9.292958  -0.019736
    604          9.293988  -0.019507
    605          9.313705  -0.015340
    606          9.328672  -0.012527
    607          9.339141  -0.010767
    608          9.342406  -0.010254
    609          9.344019  -0.010007
    610          9.345764  -0.009745
    611          9.348432  -0.009352
    612          9.352163  -0.008823
    613          9.354143  -0.008551
    614          9.356114  -0.008287
    615          9.359286  -0.007874
    616          9.367814  -0.006840
    617          9.375927  -0.005957
    618          9.380568  -0.005493
    619          9.445934  -0.001521
    620          9.455166  -0.001243
    621          9.470606  -0.000877
    622          9.481084  -0.000686
    623          9.485565  -0.000617
    624          9.487917  -0.000583
    625          9.647098  -0.000006
    626          9.651120  -0.000006
    627          9.672975  -0.000003
    628          9.717158  -0.000001
    629          9.723891  -0.000000
    630          9.741263  -0.000000
    631          9.742681  -0.000000
    632          9.743363  -0.000000
    633          9.754187  -0.000000
    634          9.757600  -0.000000
    635          9.762986  -0.000000
    636          9.767308  -0.000000
    637          9.778788  -0.000000
    638          9.785274  -0.000000
    639          9.790497  -0.000000
    640          9.794809  -0.000000
    641          9.798456  -0.000000
    642          9.800358  -0.000000
    643          9.801787  -0.000000
    644          9.803143  -0.000000
    645          9.807417  -0.000000
    646          9.808988  -0.000000
    647          9.813999  -0.000000
    648          9.823609  -0.000000
    649          9.826250  -0.000000
    650          9.834934  -0.000000
    651          9.845931  -0.000000
    652          9.868687  -0.000000
    653          9.879205  -0.000000
    654          9.883633  -0.000000
    655          9.889104  -0.000000
    656          9.893678  -0.000000
    657          9.920171  -0.000000
    658          9.929265  -0.000000
    659          9.936964  -0.000000
    660          9.940426  -0.000000
    661          9.943678  -0.000000
    662          9.946803  -0.000000
    663          9.964176  -0.000000
    664          9.966235  -0.000000
    665          9.969259  -0.000000
    666          9.971667  -0.000000
    667          9.972907  -0.000000
    668          9.980177  -0.000000
    669         10.000225  -0.000000
    670         10.008280  -0.000000
    671         10.008945  -0.000000
    672         10.012698  -0.000000
    673         10.054059  -0.000000
    674         10.056425  -0.000000
    675         10.075261  -0.000000
    676         10.096869  -0.000000
    677         10.099689  -0.000000
    678         10.101408  -0.000000
    679         10.105835  -0.000000
    680         10.106813  -0.000000
    681         10.108932  -0.000000
    682         10.109821  -0.000000
    683         10.125126  -0.000000
    684         10.129411  -0.000000
    685         10.136770  -0.000000
    686         10.139780  -0.000000
    687         10.200837  -0.000000
    688         10.220425  -0.000000
    689         10.225268  -0.000000
    690         10.230843  -0.000000
    691         10.290426  -0.000000
 
  0.5000000E+00  0.5000000E+00  0.3333333E+00  0.4166667E-01
      1        -39.889408   1.000000
      2        -39.879869   1.000000
      3        -39.873806   1.000000
      4        -39.868083   1.000000
      5        -39.854346   1.000000
      6        -39.852268   1.000000
      7        -39.843422   1.000000
      8        -39.842341   1.000000
      9        -39.834303   1.000000
     10        -39.830264   1.000000
     11        -39.821764   1.000000
     12        -39.816449   1.000000
     13        -39.811583   1.000000
     14        -39.806340   1.000000
     15        -39.805581   1.000000
     16        -39.805297   1.000000
     17        -39.803758   1.000000
     18        -39.802060   1.000000
     19        -39.801077   1.000000
     20        -39.800130   1.000000
     21        -39.797902   1.000000
     22        -39.797007   1.000000
     23        -39.792959   1.000000
     24        -39.789992   1.000000
     25        -39.788066   1.000000
     26        -39.786573   1.000000
     27        -39.784983   1.000000
     28        -39.784095   1.000000
     29        -39.780046   1.000000
     30        -39.778553   1.000000
     31        -39.774583   1.000000
     32        -39.772923   1.000000
     33        -39.771427   1.000000
     34        -39.769431   1.000000
     35        -39.768353   1.000000
     36        -39.767018   1.000000
     37        -39.766163   1.000000
     38        -39.764830   1.000000
     39        -39.763466   1.000000
     40        -39.762919   1.000000
     41        -39.761764   1.000000
     42        -39.760804   1.000000
     43        -39.760384   1.000000
     44        -39.759925   1.000000
     45        -39.759171   1.000000
     46        -39.757956   1.000000
     47        -39.757324   1.000000
     48        -39.756901   1.000000
     49        -39.753566   1.000000
     50        -39.752345   1.000000
     51        -39.750924   1.000000
     52        -39.749579   1.000000
     53        -39.748989   1.000000
     54        -39.747890   1.000000
     55        -39.747110   1.000000
     56        -39.746371   1.000000
     57        -39.745457   1.000000
     58        -39.745286   1.000000
     59        -39.744122   1.000000
     60        -39.743791   1.000000
     61        -39.743273   1.000000
     62        -39.742824   1.000000
     63        -39.741090   1.000000
     64        -39.739595   1.000000
     65        -39.738096   1.000000
     66        -39.737490   1.000000
     67        -39.737025   1.000000
     68        -39.736355   1.000000
     69        -39.735443   1.000000
     70        -39.735191   1.000000
     71        -39.733375   1.000000
     72        -39.733004   1.000000
     73        -39.732443   1.000000
     74        -39.731124   1.000000
     75        -39.730483   1.000000
     76        -39.727811   1.000000
     77        -39.727165   1.000000
     78        -39.726914   1.000000
     79        -39.726329   1.000000
     80        -39.726093   1.000000
     81        -39.725256   1.000000
     82        -39.724647   1.000000
     83        -39.724058   1.000000
     84        -39.723408   1.000000
     85        -39.722847   1.000000
     86        -39.722343   1.000000
     87        -39.721723   1.000000
     88        -39.720834   1.000000
     89        -39.719504   1.000000
     90        -39.718895   1.000000
     91        -39.718324   1.000000
     92        -39.717606   1.000000
     93        -39.717192   1.000000
     94        -39.716582   1.000000
     95        -39.714636   1.000000
     96        -39.714029   1.000000
     97        -18.348048   1.000000
     98        -18.342919   1.000000
     99        -18.288410   1.000000
    100        -18.280653   1.000000
    101        -18.280238   1.000000
    102        -18.277085   1.000000
    103        -18.276334   1.000000
    104        -18.273059   1.000000
    105        -18.268267   1.000000
    106        -18.267480   1.000000
    107        -18.261817   1.000000
    108        -18.257199   1.000000
    109        -18.255979   1.000000
    110        -18.254845   1.000000
    111        -18.252295   1.000000
    112        -18.250822   1.000000
    113        -18.249220   1.000000
    114        -18.248521   1.000000
    115        -18.247834   1.000000
    116        -18.245281   1.000000
    117        -18.244119   1.000000
    118        -18.241761   1.000000
    119        -18.224609   1.000000
    120        -18.223582   1.000000
    121        -18.220777   1.000000
    122        -18.217627   1.000000
    123        -18.217337   1.000000
    124        -18.215436   1.000000
    125        -18.214051   1.000000
    126        -18.213769   1.000000
    127        -18.211896   1.000000
    128        -18.208824   1.000000
    129        -18.200809   1.000000
    130        -18.200431   1.000000
    131        -18.197636   1.000000
    132        -18.193645   1.000000
    133        -18.189667   1.000000
    134        -18.188446   1.000000
    135        -18.187844   1.000000
    136        -18.187021   1.000000
    137        -18.176722   1.000000
    138        -18.174544   1.000000
    139        -18.172204   1.000000
    140        -18.171304   1.000000
    141        -18.170673   1.000000
    142        -18.169974   1.000000
    143        -18.162073   1.000000
    144        -18.161652   1.000000
    145        -18.160378   1.000000
    146        -18.159349   1.000000
    147        -18.149356   1.000000
    148        -18.147793   1.000000
    149        -18.131586   1.000000
    150        -18.128269   1.000000
    151        -18.127872   1.000000
    152        -18.127292   1.000000
    153        -18.126365   1.000000
    154        -18.125601   1.000000
    155        -18.124512   1.000000
    156        -18.123362   1.000000
    157        -18.091778   1.000000
    158        -18.089190   1.000000
    159        -18.082992   1.000000
    160        -18.081671   1.000000
    161        -18.070916   1.000000
    162        -18.067226   1.000000
    163        -18.066378   1.000000
    164        -18.065158   1.000000
    165        -18.064452   1.000000
    166        -18.063616   1.000000
    167        -18.042801   1.000000
    168        -18.039229   1.000000
    169        -18.032465   1.000000
    170        -18.028382   1.000000
    171        -18.020599   1.000000
    172        -18.019431   1.000000
    173        -18.014636   1.000000
    174        -18.013830   1.000000
    175        -18.013536   1.000000
    176        -18.012688   1.000000
    177        -18.005708   1.000000
    178        -17.999542   1.000000
    179        -17.998978   1.000000
    180        -17.998692   1.000000
    181        -17.997171   1.000000
    182        -17.996040   1.000000
    183        -17.987735   1.000000
    184        -17.984707   1.000000
    185        -17.982322   1.000000
    186        -17.978508   1.000000
    187        -17.968087   1.000000
    188        -17.966807   1.000000
    189        -17.954759   1.000000
    190        -17.951731   1.000000
    191        -17.949869   1.000000
    192        -17.949655   1.000000
    193        -17.938495   1.000000
    194        -17.935840   1.000000
    195        -17.926385   1.000000
    196        -17.925792   1.000000
    197        -17.924184   1.000000
    198        -17.923655   1.000000
    199        -17.902001   1.000000
    200        -17.897713   1.000000
    201        -17.891981   1.000000
    202        -17.890776   1.000000
    203        -17.889752   1.000000
    204        -17.887674   1.000000
    205        -17.887364   1.000000
    206        -17.886278   1.000000
    207        -17.884113   1.000000
    208        -17.881797   1.000000
    209        -17.870819   1.000000
    210        -17.869934   1.000000
    211        -17.868916   1.000000
    212        -17.867942   1.000000
    213        -17.819283   1.000000
    214        -17.817529   1.000000
    215        -17.805438   1.000000
    216        -17.802377   1.000000
    217        -17.800875   1.000000
    218        -17.797950   1.000000
    219        -17.797025   1.000000
    220        -17.795023   1.000000
    221        -17.793372   1.000000
    222        -17.792949   1.000000
    223        -17.790449   1.000000
    224        -17.786379   1.000000
    225        -17.784874   1.000000
    226        -17.783936   1.000000
    227        -17.783602   1.000000
    228        -17.781870   1.000000
    229        -17.771284   1.000000
    230        -17.770718   1.000000
    231        -17.766299   1.000000
    232        -17.764286   1.000000
    233        -17.760758   1.000000
    234        -17.757917   1.000000
    235        -17.757457   1.000000
    236        -17.755673   1.000000
    237        -17.754913   1.000000
    238        -17.751769   1.000000
    239        -17.743175   1.000000
    240        -17.740211   1.000000
    241        -17.739191   1.000000
    242        -17.738495   1.000000
    243        -17.735695   1.000000
    244        -17.733653   1.000000
    245        -17.731792   1.000000
    246        -17.731190   1.000000
    247        -17.730148   1.000000
    248        -17.727895   1.000000
    249        -17.726947   1.000000
    250        -17.725745   1.000000
    251        -17.724567   1.000000
    252        -17.724254   1.000000
    253        -17.723801   1.000000
    254        -17.722141   1.000000
    255        -17.721636   1.000000
    256        -17.721198   1.000000
    257        -17.721012   1.000000
    258        -17.720130   1.000000
    259        -17.712216   1.000000
    260        -17.708728   1.000000
    261        -17.707883   1.000000
    262        -17.705920   1.000000
    263        -17.705444   1.000000
    264        -17.703176   1.000000
    265        -17.702932   1.000000
    266        -17.701595   1.000000
    267        -17.699204   1.000000
    268        -17.696162   1.000000
    269        -17.671953   1.000000
    270        -17.666170   1.000000
    271        -17.664620   1.000000
    272        -17.662844   1.000000
    273        -17.661651   1.000000
    274        -17.660438   1.000000
    275        -17.659111   1.000000
    276        -17.658213   1.000000
    277        -17.657452   1.000000
    278        -17.656478   1.000000
    279        -17.655215   1.000000
    280        -17.649511   1.000000
    281        -17.646751   1.000000
    282        -17.645675   1.000000
    283        -17.644774   1.000000
    284        -17.643006   1.000000
    285        -17.642027   1.000000
    286        -17.640277   1.000000
    287        -17.639734   1.000000
    288        -17.639188   1.000000
    289        -17.633459   1.000000
    290        -17.631125   1.000000
    291        -17.628468   1.000000
    292        -17.627759   1.000000
    293        -17.627136   1.000000
    294        -17.626103   1.000000
    295        -17.625332   1.000000
    296        -17.623685   1.000000
    297        -17.620618   1.000000
    298        -17.617342   1.000000
    299        -17.613830   1.000000
    300        -17.613218   1.000000
    301        -17.611653   1.000000
    302        -17.611189   1.000000
    303        -17.609733   1.000000
    304        -17.608841   1.000000
    305        -17.603890   1.000000
    306        -17.602020   1.000000
    307        -17.601372   1.000000
    308        -17.600740   1.000000
    309        -17.599873   1.000000
    310        -17.598115   1.000000
    311        -17.596362   1.000000
    312        -17.594339   1.000000
    313        -17.593490   1.000000
    314        -17.591426   1.000000
    315        -17.590968   1.000000
    316        -17.588443   1.000000
    317        -17.587824   1.000000
    318        -17.587430   1.000000
    319        -17.586734   1.000000
    320        -17.586296   1.000000
    321        -17.585627   1.000000
    322        -17.585067   1.000000
    323        -17.584082   1.000000
    324        -17.583594   1.000000
    325        -17.583166   1.000000
    326        -17.582147   1.000000
    327        -17.581871   1.000000
    328        -17.580800   1.000000
    329        -17.580458   1.000000
    330        -17.579993   1.000000
    331        -17.579675   1.000000
    332        -17.578363   1.000000
    333        -17.577189   1.000000
    334        -17.576714   1.000000
    335        -17.575957   1.000000
    336        -17.575883   1.000000
    337        -17.573573   1.000000
    338        -17.572051   1.000000
    339        -17.570754   1.000000
    340        -17.569996   1.000000
    341        -17.569512   1.000000
    342        -17.567896   1.000000
    343        -17.567216   1.000000
    344        -17.566718   1.000000
    345        -17.555229   1.000000
    346        -17.551848   1.000000
    347        -17.551098   1.000000
    348        -17.547288   1.000000
    349        -17.547026   1.000000
    350        -17.545853   1.000000
    351        -17.545021   1.000000
    352        -17.544469   1.000000
    353        -17.542975   1.000000
    354        -17.541413   1.000000
    355        -17.540492   1.000000
    356        -17.539454   1.000000
    357        -17.538878   1.000000
    358        -17.537052   1.000000
    359        -17.536299   1.000000
    360        -17.536161   1.000000
    361        -17.533714   1.000000
    362        -17.533382   1.000000
    363        -17.525680   1.000000
    364        -17.522174   1.000000
    365        -17.517033   1.000000
    366        -17.513864   1.000000
    367        -17.503182   1.000000
    368        -17.501299   1.000000
    369        -17.500149   1.000000
    370        -17.498657   1.000000
    371        -17.497729   1.000000
    372        -17.494901   1.000000
    373        -17.491066   1.000000
    374        -17.488314   1.000000
    375        -17.486413   1.000000
    376        -17.483228   1.000000
    377        -17.474816   1.000000
    378        -17.473794   1.000000
    379        -17.456191   1.000000
    380        -17.454361   1.000000
    381        -17.452490   1.000000
    382        -17.448420   1.000000
    383        -17.438203   1.000000
    384        -17.434655   1.000000
    385          2.497783   1.000000
    386          3.820449   1.000000
    387          3.898680   1.000000
    388          4.100313   1.000000
    389          4.206036   1.000000
    390          4.577262   1.000000
    391          4.638065   1.000000
    392          4.811834   1.000000
    393          4.879351   1.000000
    394          5.074032   1.000000
    395          5.132568   1.000000
    396          5.626226   1.000000
    397          5.630218   1.000000
    398          5.657406   1.000000
    399          5.680154   1.000000
    400          5.741860   1.000000
    401          5.742661   1.000000
    402          5.747771   1.000000
    403          5.777281   1.000000
    404          5.833387   1.000000
    405          5.834706   1.000000
    406          5.838706   1.000000
    407          5.857146   1.000000
    408          5.862985   1.000000
    409          5.893052   1.000000
    410          5.907016   1.000000
    411          5.963309   1.000000
    412          6.051263   1.000000
    413          6.075680   1.000000
    414          6.185932   1.000000
    415          6.192131   1.000000
    416          6.226538   1.000000
    417          6.233130   1.000000
    418          6.234723   1.000000
    419          6.237426   1.000000
    420          6.243121   1.000000
    421          6.244819   1.000000
    422          6.245396   1.000000
    423          6.254689   1.000000
    424          6.260931   1.000000
    425          6.271812   1.000000
    426          6.292054   1.000000
    427          6.294354   1.000000
    428          6.295011   1.000000
    429          6.298387   1.000000
    430          6.301514   1.000000
    431          6.305177   1.000000
    432          6.306093   1.000000
    433          6.373891   1.000000
    434          6.402467   1.000000
    435          6.408396   1.000000
    436          6.409267   1.000000
    437          6.450159   1.000000
    438          6.512162   1.000000
    439          6.515042   1.000000
    440          6.515480   1.000000
    441          6.534640   1.000000
    442          6.549142   1.000000
    443          6.552524   1.000000
    444          6.553193   1.000000
    445          6.662531   1.000000
    446          6.710595   1.000000
    447          6.715612   1.000000
    448          6.717911   1.000000
    449          6.751610   1.000000
    450          6.825158   1.000000
    451          6.827696   1.000000
    452          6.828491   1.000000
    453          6.831443   1.000000
    454          6.834353   1.000000
    455          6.845067   1.000000
    456          6.851500   1.000000
    457          6.865070   1.000000
    458          6.874493   1.000000
    459          6.876006   1.000000
    460          6.878647   1.000000
    461          6.917053   1.000000
    462          6.924480   1.000000
    463          6.928976   1.000000
    464          6.931116   1.000000
    465          6.965213   1.000000
    466          6.976958   1.000000
    467          7.068125   1.000000
    468          7.171834   1.000000
    469          7.175631   1.000000
    470          7.179619   1.000000
    471          7.182222   1.000000
    472          7.184694   1.000000
    473          7.207435   1.000000
    474          7.215966   1.000000
    475          7.220434   1.000000
    476          7.223118   1.000000
    477          7.236842   1.000000
    478          7.248813   1.000000
    479          7.250189   1.000000
    480          7.251804   1.000000
    481          7.255350   1.000000
    482          7.256728   1.000000
    483          7.358399   1.000000
    484          7.410931   1.000000
    485          7.411865   1.000000
    486          7.413859   1.000000
    487          7.414604   1.000000
    488          7.417452   1.000000
    489          7.439899   1.000000
    490          7.446486   1.000000
    491          7.447722   1.000000
    492          7.448574   1.000000
    493          7.451210   1.000000
    494          7.452854   1.000000
    495          7.463277   1.000000
    496          7.471506   1.000000
    497          7.537135   1.000000
    498          7.554183   1.000000
    499          7.559117   1.000000
    500          7.560546   1.000000
    501          7.573252   1.000000
    502          7.581850   1.000000
    503          7.641211   1.000000
    504          7.649084   1.000000
    505          7.730418   1.000000
    506          7.739006   1.000000
    507          7.856489   1.000000
    508          7.868067   1.000000
    509          7.877685   1.000000
    510          7.926478   1.000000
    511          7.930061   1.000000
    512          7.932064   1.000000
    513          7.933602   1.000000
    514          7.934784   1.000000
    515          7.942743   1.000000
    516          7.948328   1.000000
    517          7.998786   1.000000
    518          8.015123   1.000000
    519          8.035074   1.000000
    520          8.039870   1.000000
    521          8.042121   1.000000
    522          8.043904   1.000000
    523          8.050970   1.000000
    524          8.068637   1.000000
    525          8.070546   1.000000
    526          8.072661   1.000000
    527          8.096343   1.000000
    528          8.117072   1.000000
    529          8.123935   1.000000
    530          8.124947   1.000000
    531          8.129632   1.000000
    532          8.131714   1.000000
    533          8.133405   1.000000
    534          8.134141   1.000000
    535          8.136429   1.000000
    536          8.137577   1.000000
    537          8.192072   1.000000
    538          8.228724   1.000002
    539          8.233585   1.000002
    540          8.236571   1.000002
    541          8.238178   1.000002
    542          8.239406   1.000002
    543          8.240847   1.000002
    544          8.242884   1.000003
    545          8.244007   1.000003
    546          8.247327   1.000003
    547          8.248119   1.000003
    548          8.249877   1.000003
    549          8.261203   1.000005
    550          8.263427   1.000005
    551          8.264675   1.000005
    552          8.266896   1.000006
    553          8.335744   1.000049
    554          8.336983   1.000051
    555          8.338902   1.000054
    556          8.342855   1.000060
    557          8.368351   1.000123
    558          8.390090   1.000221
    559          8.412226   1.000389
    560          8.429465   1.000593
    561          8.463572   1.001300
    562          8.472848   1.001591
    563          8.501209   1.002858
    564          8.506732   1.003185
    565          8.516879   1.003868
    566          8.529867   1.004913
    567          8.684196   1.032786
    568          8.708408   1.035365
    569          8.780034   1.009910
    570          8.783189   1.006978
    571          8.815799   0.964243
    572          8.820377   0.956282
    573          8.944145   0.559931
    574          8.980846   0.405467
    575          8.994184   0.351028
    576          9.022119   0.244767
    577          9.035138   0.200102
    578          9.060697   0.123519
    579          9.067394   0.106078
    580          9.070831   0.097563
    581          9.075647   0.086137
    582          9.086460   0.062614
    583          9.091116   0.053390
    584          9.098394   0.040046
    585          9.102009   0.033898
    586          9.115946   0.013088
    587          9.133729  -0.007191
    588          9.150648  -0.020657
    589          9.155237  -0.023437
    590          9.160832  -0.026369
    591          9.194248  -0.035123
    592          9.201725  -0.035448
    593          9.210172  -0.035284
    594          9.211984  -0.035184
    595          9.233724  -0.032583
    596          9.257159  -0.027916
    597          9.266863  -0.025720
    598          9.270832  -0.024805
    599          9.274055  -0.024059
    600          9.279139  -0.022883
    601          9.287149  -0.021045
    602          9.290049  -0.020389
    603          9.292958  -0.019736
    604          9.293988  -0.019507
    605          9.313705  -0.015340
    606          9.328672  -0.012527
    607          9.339141  -0.010767
    608          9.342406  -0.010254
    609          9.344019  -0.010007
    610          9.345764  -0.009745
    611          9.348432  -0.009352
    612          9.352163  -0.008823
    613          9.354143  -0.008551
    614          9.356114  -0.008287
    615          9.359286  -0.007874
    616          9.367814  -0.006840
    617          9.375927  -0.005957
    618          9.380568  -0.005493
    619          9.445934  -0.001521
    620          9.455166  -0.001243
    621          9.470606  -0.000877
    622          9.481084  -0.000686
    623          9.485565  -0.000617
    624          9.487917  -0.000583
    625          9.647098  -0.000006
    626          9.651120  -0.000006
    627          9.672975  -0.000003
    628          9.717158  -0.000001
    629          9.723891  -0.000000
    630          9.741263  -0.000000
    631          9.742681  -0.000000
    632          9.743363  -0.000000
    633          9.754187  -0.000000
    634          9.757600  -0.000000
    635          9.762986  -0.000000
    636          9.767308  -0.000000
    637          9.778788  -0.000000
    638          9.785274  -0.000000
    639          9.790497  -0.000000
    640          9.794809  -0.000000
    641          9.798456  -0.000000
    642          9.800358  -0.000000
    643          9.801787  -0.000000
    644          9.803143  -0.000000
    645          9.807417  -0.000000
    646          9.808988  -0.000000
    647          9.813999  -0.000000
    648          9.823609  -0.000000
    649          9.826250  -0.000000
    650          9.834934  -0.000000
    651          9.845931  -0.000000
    652          9.868687  -0.000000
    653          9.879205  -0.000000
    654          9.883633  -0.000000
    655          9.889104  -0.000000
    656          9.893678  -0.000000
    657          9.920171  -0.000000
    658          9.929265  -0.000000
    659          9.936964  -0.000000
    660          9.940426  -0.000000
    661          9.943678  -0.000000
    662          9.946803  -0.000000
    663          9.964176  -0.000000
    664          9.966235  -0.000000
    665          9.969260  -0.000000
    666          9.971667  -0.000000
    667          9.972907  -0.000000
    668          9.980177  -0.000000
    669         10.000225  -0.000000
    670         10.008280  -0.000000
    671         10.008945  -0.000000
    672         10.012698  -0.000000
    673         10.054059  -0.000000
    674         10.056425  -0.000000
    675         10.075261  -0.000000
    676         10.096869  -0.000000
    677         10.099689  -0.000000
    678         10.101408  -0.000000
    679         10.105835  -0.000000
    680         10.106813  -0.000000
    681         10.108932  -0.000000
    682         10.109821  -0.000000
    683         10.125126  -0.000000
    684         10.129411  -0.000000
    685         10.136770  -0.000000
    686         10.139780  -0.000000
    687         10.200837  -0.000000
    688         10.220425  -0.000000
    689         10.225268  -0.000000
    690         10.230843  -0.000000
    691         10.287959  -0.000000
 
  0.2500000E+00  0.2500000E+00  0.3333333E+00  0.4166667E-01
      1        -39.890479   1.000000
      2        -39.877703   1.000000
      3        -39.871271   1.000000
      4        -39.868130   1.000000
      5        -39.860800   1.000000
      6        -39.857301   1.000000
      7        -39.838985   1.000000
      8        -39.836904   1.000000
      9        -39.829319   1.000000
     10        -39.825031   1.000000
     11        -39.824329   1.000000
     12        -39.820351   1.000000
     13        -39.817632   1.000000
     14        -39.813703   1.000000
     15        -39.811284   1.000000
     16        -39.807037   1.000000
     17        -39.802865   1.000000
     18        -39.799775   1.000000
     19        -39.798815   1.000000
     20        -39.796164   1.000000
     21        -39.795694   1.000000
     22        -39.793155   1.000000
     23        -39.791553   1.000000
     24        -39.790151   1.000000
     25        -39.787689   1.000000
     26        -39.784304   1.000000
     27        -39.782107   1.000000
     28        -39.781603   1.000000
     29        -39.779669   1.000000
     30        -39.778144   1.000000
     31        -39.776719   1.000000
     32        -39.775775   1.000000
     33        -39.773810   1.000000
     34        -39.771638   1.000000
     35        -39.770755   1.000000
     36        -39.770297   1.000000
     37        -39.768169   1.000000
     38        -39.766148   1.000000
     39        -39.765182   1.000000
     40        -39.762312   1.000000
     41        -39.760703   1.000000
     42        -39.759783   1.000000
     43        -39.758217   1.000000
     44        -39.757853   1.000000
     45        -39.756933   1.000000
     46        -39.756167   1.000000
     47        -39.754826   1.000000
     48        -39.754374   1.000000
     49        -39.753597   1.000000
     50        -39.753059   1.000000
     51        -39.752402   1.000000
     52        -39.751242   1.000000
     53        -39.750977   1.000000
     54        -39.749661   1.000000
     55        -39.748565   1.000000
     56        -39.746488   1.000000
     57        -39.745161   1.000000
     58        -39.744278   1.000000
     59        -39.743734   1.000000
     60        -39.743362   1.000000
     61        -39.742655   1.000000
     62        -39.741654   1.000000
     63        -39.740876   1.000000
     64        -39.740196   1.000000
     65        -39.738892   1.000000
     66        -39.737871   1.000000
     67        -39.736802   1.000000
     68        -39.735974   1.000000
     69        -39.735568   1.000000
     70        -39.734190   1.000000
     71        -39.733795   1.000000
     72        -39.733286   1.000000
     73        -39.731533   1.000000
     74        -39.730416   1.000000
     75        -39.730050   1.000000
     76        -39.728983   1.000000
     77        -39.728091   1.000000
     78        -39.727281   1.000000
     79        -39.726800   1.000000
     80        -39.725571   1.000000
     81        -39.725106   1.000000
     82        -39.724369   1.000000
     83        -39.723898   1.000000
     84        -39.723316   1.000000
     85        -39.722888   1.000000
     86        -39.722588   1.000000
     87        -39.721838   1.000000
     88        -39.721317   1.000000
     89        -39.719622   1.000000
     90        -39.719076   1.000000
     91        -39.717806   1.000000
     92        -39.717582   1.000000
     93        -39.716925   1.000000
     94        -39.715852   1.000000
     95        -39.715043   1.000000
     96        -39.714234   1.000000
     97        -18.355990   1.000000
     98        -18.318118   1.000000
     99        -18.312960   1.000000
    100        -18.296760   1.000000
    101        -18.285066   1.000000
    102        -18.278865   1.000000
    103        -18.276514   1.000000
    104        -18.274300   1.000000
    105        -18.266725   1.000000
    106        -18.262949   1.000000
    107        -18.261967   1.000000
    108        -18.257022   1.000000
    109        -18.255586   1.000000
    110        -18.254514   1.000000
    111        -18.251309   1.000000
    112        -18.243323   1.000000
    113        -18.241236   1.000000
    114        -18.237649   1.000000
    115        -18.233200   1.000000
    116        -18.232508   1.000000
    117        -18.231486   1.000000
    118        -18.230106   1.000000
    119        -18.228362   1.000000
    120        -18.226677   1.000000
    121        -18.221127   1.000000
    122        -18.217490   1.000000
    123        -18.216758   1.000000
    124        -18.214719   1.000000
    125        -18.214208   1.000000
    126        -18.213539   1.000000
    127        -18.211212   1.000000
    128        -18.210969   1.000000
    129        -18.209234   1.000000
    130        -18.208223   1.000000
    131        -18.200217   1.000000
    132        -18.198436   1.000000
    133        -18.195132   1.000000
    134        -18.194695   1.000000
    135        -18.193528   1.000000
    136        -18.191068   1.000000
    137        -18.189634   1.000000
    138        -18.185263   1.000000
    139        -18.178464   1.000000
    140        -18.173086   1.000000
    141        -18.171533   1.000000
    142        -18.169649   1.000000
    143        -18.167449   1.000000
    144        -18.166838   1.000000
    145        -18.165265   1.000000
    146        -18.158977   1.000000
    147        -18.154342   1.000000
    148        -18.141010   1.000000
    149        -18.119082   1.000000
    150        -18.116830   1.000000
    151        -18.115024   1.000000
    152        -18.113976   1.000000
    153        -18.113147   1.000000
    154        -18.110895   1.000000
    155        -18.110692   1.000000
    156        -18.109750   1.000000
    157        -18.108819   1.000000
    158        -18.106777   1.000000
    159        -18.087528   1.000000
    160        -18.085998   1.000000
    161        -18.077324   1.000000
    162        -18.059891   1.000000
    163        -18.057555   1.000000
    164        -18.052021   1.000000
    165        -18.050800   1.000000
    166        -18.048408   1.000000
    167        -18.046277   1.000000
    168        -18.044411   1.000000
    169        -18.043974   1.000000
    170        -18.043500   1.000000
    171        -18.042147   1.000000
    172        -18.040302   1.000000
    173        -18.038094   1.000000
    174        -18.034276   1.000000
    175        -18.033402   1.000000
    176        -18.029663   1.000000
    177        -18.027484   1.000000
    178        -18.026150   1.000000
    179        -18.004279   1.000000
    180        -17.985577   1.000000
    181        -17.981217   1.000000
    182        -17.979644   1.000000
    183        -17.974942   1.000000
    184        -17.971902   1.000000
    185        -17.966171   1.000000
    186        -17.963171   1.000000
    187        -17.955611   1.000000
    188        -17.951055   1.000000
    189        -17.940634   1.000000
    190        -17.939220   1.000000
    191        -17.938532   1.000000
    192        -17.931675   1.000000
    193        -17.930299   1.000000
    194        -17.924625   1.000000
    195        -17.921429   1.000000
    196        -17.914994   1.000000
    197        -17.912060   1.000000
    198        -17.910991   1.000000
    199        -17.908144   1.000000
    200        -17.897051   1.000000
    201        -17.895435   1.000000
    202        -17.892944   1.000000
    203        -17.892155   1.000000
    204        -17.891073   1.000000
    205        -17.889192   1.000000
    206        -17.886690   1.000000
    207        -17.886496   1.000000
    208        -17.883958   1.000000
    209        -17.875005   1.000000
    210        -17.863296   1.000000
    211        -17.860956   1.000000
    212        -17.854999   1.000000
    213        -17.853309   1.000000
    214        -17.849559   1.000000
    215        -17.833206   1.000000
    216        -17.832616   1.000000
    217        -17.830109   1.000000
    218        -17.824680   1.000000
    219        -17.820471   1.000000
    220        -17.817329   1.000000
    221        -17.814681   1.000000
    222        -17.814250   1.000000
    223        -17.802570   1.000000
    224        -17.793033   1.000000
    225        -17.783190   1.000000
    226        -17.770960   1.000000
    227        -17.769582   1.000000
    228        -17.766104   1.000000
    229        -17.764550   1.000000
    230        -17.763303   1.000000
    231        -17.761039   1.000000
    232        -17.759530   1.000000
    233        -17.756741   1.000000
    234        -17.753058   1.000000
    235        -17.751561   1.000000
    236        -17.750174   1.000000
    237        -17.744933   1.000000
    238        -17.740777   1.000000
    239        -17.738989   1.000000
    240        -17.734104   1.000000
    241        -17.732437   1.000000
    242        -17.731428   1.000000
    243        -17.729516   1.000000
    244        -17.728289   1.000000
    245        -17.726342   1.000000
    246        -17.724659   1.000000
    247        -17.723745   1.000000
    248        -17.723055   1.000000
    249        -17.722369   1.000000
    250        -17.721016   1.000000
    251        -17.720318   1.000000
    252        -17.718603   1.000000
    253        -17.718231   1.000000
    254        -17.716885   1.000000
    255        -17.712675   1.000000
    256        -17.712036   1.000000
    257        -17.710362   1.000000
    258        -17.709780   1.000000
    259        -17.709200   1.000000
    260        -17.706067   1.000000
    261        -17.704772   1.000000
    262        -17.702756   1.000000
    263        -17.700066   1.000000
    264        -17.697260   1.000000
    265        -17.694997   1.000000
    266        -17.684959   1.000000
    267        -17.683392   1.000000
    268        -17.682048   1.000000
    269        -17.680641   1.000000
    270        -17.679843   1.000000
    271        -17.677222   1.000000
    272        -17.676194   1.000000
    273        -17.674840   1.000000
    274        -17.668775   1.000000
    275        -17.668049   1.000000
    276        -17.667647   1.000000
    277        -17.666952   1.000000
    278        -17.664835   1.000000
    279        -17.664291   1.000000
    280        -17.663342   1.000000
    281        -17.650915   1.000000
    282        -17.649657   1.000000
    283        -17.647346   1.000000
    284        -17.646757   1.000000
    285        -17.639899   1.000000
    286        -17.638378   1.000000
    287        -17.632855   1.000000
    288        -17.629628   1.000000
    289        -17.627991   1.000000
    290        -17.626557   1.000000
    291        -17.625451   1.000000
    292        -17.624320   1.000000
    293        -17.622978   1.000000
    294        -17.622485   1.000000
    295        -17.621718   1.000000
    296        -17.620880   1.000000
    297        -17.620246   1.000000
    298        -17.619137   1.000000
    299        -17.616894   1.000000
    300        -17.615429   1.000000
    301        -17.614116   1.000000
    302        -17.613057   1.000000
    303        -17.612313   1.000000
    304        -17.611488   1.000000
    305        -17.610366   1.000000
    306        -17.609707   1.000000
    307        -17.608143   1.000000
    308        -17.607531   1.000000
    309        -17.606536   1.000000
    310        -17.600859   1.000000
    311        -17.600326   1.000000
    312        -17.596380   1.000000
    313        -17.593907   1.000000
    314        -17.593543   1.000000
    315        -17.592483   1.000000
    316        -17.591194   1.000000
    317        -17.589808   1.000000
    318        -17.589132   1.000000
    319        -17.588420   1.000000
    320        -17.587748   1.000000
    321        -17.585915   1.000000
    322        -17.585807   1.000000
    323        -17.584783   1.000000
    324        -17.583389   1.000000
    325        -17.582996   1.000000
    326        -17.582449   1.000000
    327        -17.582128   1.000000
    328        -17.581667   1.000000
    329        -17.580527   1.000000
    330        -17.579918   1.000000
    331        -17.579018   1.000000
    332        -17.578647   1.000000
    333        -17.577508   1.000000
    334        -17.577048   1.000000
    335        -17.576052   1.000000
    336        -17.575169   1.000000
    337        -17.573089   1.000000
    338        -17.571594   1.000000
    339        -17.570173   1.000000
    340        -17.568128   1.000000
    341        -17.566937   1.000000
    342        -17.565840   1.000000
    343        -17.563392   1.000000
    344        -17.562669   1.000000
    345        -17.560795   1.000000
    346        -17.554659   1.000000
    347        -17.553563   1.000000
    348        -17.552553   1.000000
    349        -17.551754   1.000000
    350        -17.542744   1.000000
    351        -17.542397   1.000000
    352        -17.541014   1.000000
    353        -17.538663   1.000000
    354        -17.537629   1.000000
    355        -17.535870   1.000000
    356        -17.534640   1.000000
    357        -17.534326   1.000000
    358        -17.533403   1.000000
    359        -17.529223   1.000000
    360        -17.527632   1.000000
    361        -17.526051   1.000000
    362        -17.521322   1.000000
    363        -17.520619   1.000000
    364        -17.518554   1.000000
    365        -17.517587   1.000000
    366        -17.517044   1.000000
    367        -17.516069   1.000000
    368        -17.515466   1.000000
    369        -17.513580   1.000000
    370        -17.512321   1.000000
    371        -17.510767   1.000000
    372        -17.493054   1.000000
    373        -17.488281   1.000000
    374        -17.485956   1.000000
    375        -17.471555   1.000000
    376        -17.468444   1.000000
    377        -17.467604   1.000000
    378        -17.467264   1.000000
    379        -17.463449   1.000000
    380        -17.453932   1.000000
    381        -17.453457   1.000000
    382        -17.448532   1.000000
    383        -17.448055   1.000000
    384        -17.435339   1.000000
    385          2.497493   1.000000
    386          3.762381   1.000000
    387          4.028573   1.000000
    388          4.117137   1.000000
    389          4.205216   1.000000
    390          4.381456   1.000000
    391          4.492986   1.000000
    392          5.006924   1.000000
    393          5.150711   1.000000
    394          5.183339   1.000000
    395          5.314350   1.000000
    396          5.321364   1.000000
    397          5.333057   1.000000
    398          5.406970   1.000000
    399          5.556592   1.000000
    400          5.741687   1.000000
    401          5.790713   1.000000
    402          5.797882   1.000000
    403          5.818333   1.000000
    404          5.828432   1.000000
    405          5.858373   1.000000
    406          5.864333   1.000000
    407          5.903968   1.000000
    408          6.003897   1.000000
    409          6.006186   1.000000
    410          6.010062   1.000000
    411          6.040041   1.000000
    412          6.105644   1.000000
    413          6.112174   1.000000
    414          6.115407   1.000000
    415          6.120538   1.000000
    416          6.125595   1.000000
    417          6.145934   1.000000
    418          6.153417   1.000000
    419          6.162757   1.000000
    420          6.185102   1.000000
    421          6.206426   1.000000
    422          6.211996   1.000000
    423          6.226412   1.000000
    424          6.246030   1.000000
    425          6.285500   1.000000
    426          6.312009   1.000000
    427          6.315869   1.000000
    428          6.328862   1.000000
    429          6.335498   1.000000
    430          6.367364   1.000000
    431          6.395827   1.000000
    432          6.420347   1.000000
    433          6.441623   1.000000
    434          6.455670   1.000000
    435          6.478262   1.000000
    436          6.507121   1.000000
    437          6.516963   1.000000
    438          6.523353   1.000000
    439          6.529443   1.000000
    440          6.530405   1.000000
    441          6.541724   1.000000
    442          6.554136   1.000000
    443          6.562010   1.000000
    444          6.580100   1.000000
    445          6.593370   1.000000
    446          6.617809   1.000000
    447          6.649134   1.000000
    448          6.668189   1.000000
    449          6.679022   1.000000
    450          6.686165   1.000000
    451          6.697627   1.000000
    452          6.701174   1.000000
    453          6.750113   1.000000
    454          6.782271   1.000000
    455          6.812073   1.000000
    456          6.823145   1.000000
    457          6.867459   1.000000
    458          6.902077   1.000000
    459          6.909432   1.000000
    460          6.912927   1.000000
    461          6.920458   1.000000
    462          6.969234   1.000000
    463          7.000811   1.000000
    464          7.014746   1.000000
    465          7.016129   1.000000
    466          7.046543   1.000000
    467          7.094860   1.000000
    468          7.126562   1.000000
    469          7.148075   1.000000
    470          7.200734   1.000000
    471          7.203934   1.000000
    472          7.206679   1.000000
    473          7.212753   1.000000
    474          7.222256   1.000000
    475          7.233010   1.000000
    476          7.248997   1.000000
    477          7.258234   1.000000
    478          7.259842   1.000000
    479          7.270835   1.000000
    480          7.281296   1.000000
    481          7.293691   1.000000
    482          7.304106   1.000000
    483          7.308260   1.000000
    484          7.327578   1.000000
    485          7.342804   1.000000
    486          7.361667   1.000000
    487          7.382639   1.000000
    488          7.391210   1.000000
    489          7.407676   1.000000
    490          7.419777   1.000000
    491          7.430265   1.000000
    492          7.450322   1.000000
    493          7.473159   1.000000
    494          7.477972   1.000000
    495          7.490800   1.000000
    496          7.570852   1.000000
    497          7.586853   1.000000
    498          7.597749   1.000000
    499          7.626062   1.000000
    500          7.640386   1.000000
    501          7.674895   1.000000
    502          7.704801   1.000000
    503          7.720223   1.000000
    504          7.736917   1.000000
    505          7.780870   1.000000
    506          7.789807   1.000000
    507          7.793770   1.000000
    508          7.795889   1.000000
    509          7.817121   1.000000
    510          7.831839   1.000000
    511          7.846373   1.000000
    512          7.861218   1.000000
    513          7.865413   1.000000
    514          7.871459   1.000000
    515          7.914345   1.000000
    516          7.924598   1.000000
    517          7.931865   1.000000
    518          7.935379   1.000000
    519          7.946372   1.000000
    520          7.952058   1.000000
    521          7.978870   1.000000
    522          7.979763   1.000000
    523          8.026016   1.000000
    524          8.030164   1.000000
    525          8.053371   1.000000
    526          8.056914   1.000000
    527          8.078420   1.000000
    528          8.099904   1.000000
    529          8.118741   1.000000
    530          8.126168   1.000000
    531          8.129609   1.000000
    532          8.132720   1.000000
    533          8.142260   1.000000
    534          8.144110   1.000000
    535          8.174433   1.000000
    536          8.180970   1.000000
    537          8.207844   1.000001
    538          8.210126   1.000001
    539          8.226023   1.000001
    540          8.234252   1.000002
    541          8.235698   1.000002
    542          8.239557   1.000002
    543          8.250480   1.000003
    544          8.253151   1.000004
    545          8.258403   1.000004
    546          8.272764   1.000007
    547          8.295905   1.000015
    548          8.304069   1.000019
    549          8.307447   1.000021
    550          8.312104   1.000024
    551          8.319164   1.000030
    552          8.329219   1.000040
    553          8.342128   1.000059
    554          8.345551   1.000065
    555          8.345931   1.000066
    556          8.348569   1.000071
    557          8.352757   1.000080
    558          8.356817   1.000089
    559          8.364937   1.000112
    560          8.367712   1.000121
    561          8.393979   1.000244
    562          8.395002   1.000251
    563          8.582819   1.011630
    564          8.627907   1.020673
    565          8.634030   1.022070
    566          8.684615   1.032854
    567          8.712018   1.035451
    568          8.786897   1.003279
    569          8.793622   0.995848
    570          8.825038   0.947647
    571          8.848683   0.895476
    572          8.856904   0.874036
    573          8.862668   0.858004
    574          8.870408   0.835204
    575          8.873969   0.824237
    576          8.883810   0.792422
    577          8.933836   0.602859
    578          8.940551   0.574973
    579          9.015628   0.268298
    580          9.022615   0.243002
    581          9.029657   0.218474
    582          9.033116   0.206806
    583          9.047573   0.160910
    584          9.085235   0.065130
    585          9.093050   0.049717
    586          9.117187   0.011452
    587          9.143246  -0.015413
    588          9.168086  -0.029470
    589          9.183906  -0.033811
    590          9.202864  -0.035457
    591          9.222608  -0.034202
    592          9.228095  -0.033468
    593          9.240662  -0.031341
    594          9.252904  -0.028847
    595          9.264285  -0.026310
    596          9.283381  -0.021906
    597          9.288980  -0.020630
    598          9.295749  -0.019117
    599          9.299151  -0.018373
    600          9.301019  -0.017969
    601          9.310768  -0.015930
    602          9.312103  -0.015660
    603          9.317196  -0.014654
    604          9.320185  -0.014081
    605          9.323229  -0.013511
    606          9.330377  -0.012229
    607          9.337436  -0.011042
    608          9.343699  -0.010056
    609          9.347414  -0.009501
    610          9.349541  -0.009193
    611          9.371300  -0.006449
    612          9.414219  -0.002930
    613          9.418640  -0.002684
    614          9.468212  -0.000926
    615          9.483565  -0.000647
    616          9.489625  -0.000560
    617          9.500746  -0.000427
    618          9.506698  -0.000368
    619          9.509397  -0.000344
    620          9.519522  -0.000265
    621          9.524571  -0.000233
    622          9.535592  -0.000174
    623          9.548670  -0.000122
    624          9.556335  -0.000099
    625          9.571057  -0.000065
    626          9.574734  -0.000059
    627          9.588048  -0.000040
    628          9.591780  -0.000036
    629          9.601866  -0.000026
    630          9.608458  -0.000021
    631          9.615523  -0.000017
    632          9.622416  -0.000014
    633          9.627831  -0.000012
    634          9.633322  -0.000010
    635          9.666341  -0.000003
    636          9.690418  -0.000001
    637          9.703026  -0.000001
    638          9.708050  -0.000001
    639          9.731256  -0.000000
    640          9.738194  -0.000000
    641          9.751752  -0.000000
    642          9.756802  -0.000000
    643          9.768399  -0.000000
    644          9.784646  -0.000000
    645          9.792963  -0.000000
    646          9.806920  -0.000000
    647          9.813056  -0.000000
    648          9.834575  -0.000000
    649          9.840248  -0.000000
    650          9.852874  -0.000000
    651          9.875838  -0.000000
    652          9.881321  -0.000000
    653          9.886045  -0.000000
    654          9.892909  -0.000000
    655          9.905846  -0.000000
    656          9.908420  -0.000000
    657          9.915917  -0.000000
    658          9.926536  -0.000000
    659          9.946509  -0.000000
    660          9.950632  -0.000000
    661          9.961775  -0.000000
    662          9.993825  -0.000000
    663         10.004711  -0.000000
    664         10.025285  -0.000000
    665         10.032545  -0.000000
    666         10.051649  -0.000000
    667         10.057192  -0.000000
    668         10.066097  -0.000000
    669         10.068528  -0.000000
    670         10.073522  -0.000000
    671         10.075568  -0.000000
    672         10.080924  -0.000000
    673         10.090391  -0.000000
    674         10.095406  -0.000000
    675         10.102541  -0.000000
    676         10.112219  -0.000000
    677         10.116759  -0.000000
    678         10.120016  -0.000000
    679         10.125810  -0.000000
    680         10.130674  -0.000000
    681         10.139158  -0.000000
    682         10.153099  -0.000000
    683         10.158023  -0.000000
    684         10.163689  -0.000000
    685         10.169999  -0.000000
    686         10.173445  -0.000000
    687         10.180710  -0.000000
    688         10.186994  -0.000000
    689         10.189409  -0.000000
    690         10.197626  -0.000000
    691         10.207998  -0.000000
 
 -0.2500000E+00  0.5000000E+00  0.3333333E+00  0.4166667E-01
      1        -39.890293   1.000000
      2        -39.877870   1.000000
      3        -39.872136   1.000000
      4        -39.867461   1.000000
      5        -39.861503   1.000000
      6        -39.856034   1.000000
      7        -39.841446   1.000000
      8        -39.831785   1.000000
      9        -39.829858   1.000000
     10        -39.827863   1.000000
     11        -39.823876   1.000000
     12        -39.820391   1.000000
     13        -39.817198   1.000000
     14        -39.816185   1.000000
     15        -39.811334   1.000000
     16        -39.805907   1.000000
     17        -39.801411   1.000000
     18        -39.799739   1.000000
     19        -39.798697   1.000000
     20        -39.796855   1.000000
     21        -39.795070   1.000000
     22        -39.793386   1.000000
     23        -39.791168   1.000000
     24        -39.789732   1.000000
     25        -39.788299   1.000000
     26        -39.784690   1.000000
     27        -39.782977   1.000000
     28        -39.781431   1.000000
     29        -39.779481   1.000000
     30        -39.778179   1.000000
     31        -39.776826   1.000000
     32        -39.775309   1.000000
     33        -39.774002   1.000000
     34        -39.772274   1.000000
     35        -39.770419   1.000000
     36        -39.769659   1.000000
     37        -39.768316   1.000000
     38        -39.766671   1.000000
     39        -39.764414   1.000000
     40        -39.762354   1.000000
     41        -39.760954   1.000000
     42        -39.759731   1.000000
     43        -39.758385   1.000000
     44        -39.757782   1.000000
     45        -39.756478   1.000000
     46        -39.756124   1.000000
     47        -39.755079   1.000000
     48        -39.754350   1.000000
     49        -39.753812   1.000000
     50        -39.753259   1.000000
     51        -39.752517   1.000000
     52        -39.751534   1.000000
     53        -39.750927   1.000000
     54        -39.749210   1.000000
     55        -39.748152   1.000000
     56        -39.746283   1.000000
     57        -39.745278   1.000000
     58        -39.744468   1.000000
     59        -39.743841   1.000000
     60        -39.743453   1.000000
     61        -39.742586   1.000000
     62        -39.741856   1.000000
     63        -39.740958   1.000000
     64        -39.740340   1.000000
     65        -39.738668   1.000000
     66        -39.737769   1.000000
     67        -39.736973   1.000000
     68        -39.735887   1.000000
     69        -39.735373   1.000000
     70        -39.734267   1.000000
     71        -39.733919   1.000000
     72        -39.733111   1.000000
     73        -39.731565   1.000000
     74        -39.730853   1.000000
     75        -39.729843   1.000000
     76        -39.728999   1.000000
     77        -39.728089   1.000000
     78        -39.727470   1.000000
     79        -39.726554   1.000000
     80        -39.725595   1.000000
     81        -39.724935   1.000000
     82        -39.724159   1.000000
     83        -39.723823   1.000000
     84        -39.723118   1.000000
     85        -39.722804   1.000000
     86        -39.722654   1.000000
     87        -39.721995   1.000000
     88        -39.721084   1.000000
     89        -39.720110   1.000000
     90        -39.718803   1.000000
     91        -39.718528   1.000000
     92        -39.717532   1.000000
     93        -39.716910   1.000000
     94        -39.715841   1.000000
     95        -39.714827   1.000000
     96        -39.714164   1.000000
     97        -18.356002   1.000000
     98        -18.318201   1.000000
     99        -18.312899   1.000000
    100        -18.296821   1.000000
    101        -18.284843   1.000000
    102        -18.278647   1.000000
    103        -18.276457   1.000000
    104        -18.274322   1.000000
    105        -18.266745   1.000000
    106        -18.263598   1.000000
    107        -18.261616   1.000000
    108        -18.257010   1.000000
    109        -18.255793   1.000000
    110        -18.254403   1.000000
    111        -18.251145   1.000000
    112        -18.242956   1.000000
    113        -18.240930   1.000000
    114        -18.237632   1.000000
    115        -18.233389   1.000000
    116        -18.232623   1.000000
    117        -18.231854   1.000000
    118        -18.230227   1.000000
    119        -18.228440   1.000000
    120        -18.226992   1.000000
    121        -18.220891   1.000000
    122        -18.217419   1.000000
    123        -18.216655   1.000000
    124        -18.214892   1.000000
    125        -18.213888   1.000000
    126        -18.213662   1.000000
    127        -18.211368   1.000000
    128        -18.210417   1.000000
    129        -18.209711   1.000000
    130        -18.208275   1.000000
    131        -18.200547   1.000000
    132        -18.198425   1.000000
    133        -18.195705   1.000000
    134        -18.194359   1.000000
    135        -18.193191   1.000000
    136        -18.191112   1.000000
    137        -18.189756   1.000000
    138        -18.185013   1.000000
    139        -18.178595   1.000000
    140        -18.172980   1.000000
    141        -18.171569   1.000000
    142        -18.169672   1.000000
    143        -18.167463   1.000000
    144        -18.166738   1.000000
    145        -18.165066   1.000000
    146        -18.158951   1.000000
    147        -18.154107   1.000000
    148        -18.141206   1.000000
    149        -18.118915   1.000000
    150        -18.116913   1.000000
    151        -18.115017   1.000000
    152        -18.113612   1.000000
    153        -18.113095   1.000000
    154        -18.111082   1.000000
    155        -18.110660   1.000000
    156        -18.109556   1.000000
    157        -18.108896   1.000000
    158        -18.107001   1.000000
    159        -18.087815   1.000000
    160        -18.085870   1.000000
    161        -18.077420   1.000000
    162        -18.059691   1.000000
    163        -18.057489   1.000000
    164        -18.052417   1.000000
    165        -18.050503   1.000000
    166        -18.048637   1.000000
    167        -18.045958   1.000000
    168        -18.044895   1.000000
    169        -18.043947   1.000000
    170        -18.043104   1.000000
    171        -18.042229   1.000000
    172        -18.040042   1.000000
    173        -18.038064   1.000000
    174        -18.034595   1.000000
    175        -18.033535   1.000000
    176        -18.029768   1.000000
    177        -18.027574   1.000000
    178        -18.026155   1.000000
    179        -18.004125   1.000000
    180        -17.985384   1.000000
    181        -17.981695   1.000000
    182        -17.979255   1.000000
    183        -17.974812   1.000000
    184        -17.972106   1.000000
    185        -17.966262   1.000000
    186        -17.963146   1.000000
    187        -17.955912   1.000000
    188        -17.950991   1.000000
    189        -17.940600   1.000000
    190        -17.939108   1.000000
    191        -17.938347   1.000000
    192        -17.931747   1.000000
    193        -17.930526   1.000000
    194        -17.924642   1.000000
    195        -17.921323   1.000000
    196        -17.915294   1.000000
    197        -17.912047   1.000000
    198        -17.911181   1.000000
    199        -17.907938   1.000000
    200        -17.897233   1.000000
    201        -17.895626   1.000000
    202        -17.893157   1.000000
    203        -17.892276   1.000000
    204        -17.890523   1.000000
    205        -17.888970   1.000000
    206        -17.886708   1.000000
    207        -17.886258   1.000000
    208        -17.883990   1.000000
    209        -17.874957   1.000000
    210        -17.863509   1.000000
    211        -17.860899   1.000000
    212        -17.854909   1.000000
    213        -17.853203   1.000000
    214        -17.849536   1.000000
    215        -17.833558   1.000000
    216        -17.832173   1.000000
    217        -17.830290   1.000000
    218        -17.824832   1.000000
    219        -17.820472   1.000000
    220        -17.817309   1.000000
    221        -17.814550   1.000000
    222        -17.814295   1.000000
    223        -17.802256   1.000000
    224        -17.792774   1.000000
    225        -17.783352   1.000000
    226        -17.772650   1.000000
    227        -17.768851   1.000000
    228        -17.765809   1.000000
    229        -17.764539   1.000000
    230        -17.763252   1.000000
    231        -17.760457   1.000000
    232        -17.759280   1.000000
    233        -17.756462   1.000000
    234        -17.753559   1.000000
    235        -17.751072   1.000000
    236        -17.750467   1.000000
    237        -17.745209   1.000000
    238        -17.740951   1.000000
    239        -17.738805   1.000000
    240        -17.733670   1.000000
    241        -17.732135   1.000000
    242        -17.731070   1.000000
    243        -17.729733   1.000000
    244        -17.728550   1.000000
    245        -17.726521   1.000000
    246        -17.725568   1.000000
    247        -17.723992   1.000000
    248        -17.723094   1.000000
    249        -17.722346   1.000000
    250        -17.720675   1.000000
    251        -17.720207   1.000000
    252        -17.718877   1.000000
    253        -17.718163   1.000000
    254        -17.716484   1.000000
    255        -17.712776   1.000000
    256        -17.711746   1.000000
    257        -17.710205   1.000000
    258        -17.710046   1.000000
    259        -17.708947   1.000000
    260        -17.706474   1.000000
    261        -17.704948   1.000000
    262        -17.702591   1.000000
    263        -17.700193   1.000000
    264        -17.697172   1.000000
    265        -17.694511   1.000000
    266        -17.685734   1.000000
    267        -17.683523   1.000000
    268        -17.682106   1.000000
    269        -17.680437   1.000000
    270        -17.680111   1.000000
    271        -17.677178   1.000000
    272        -17.676075   1.000000
    273        -17.674726   1.000000
    274        -17.669330   1.000000
    275        -17.668208   1.000000
    276        -17.667663   1.000000
    277        -17.666499   1.000000
    278        -17.664927   1.000000
    279        -17.663939   1.000000
    280        -17.663437   1.000000
    281        -17.650349   1.000000
    282        -17.649604   1.000000
    283        -17.648134   1.000000
    284        -17.646544   1.000000
    285        -17.640068   1.000000
    286        -17.638467   1.000000
    287        -17.632979   1.000000
    288        -17.629372   1.000000
    289        -17.627751   1.000000
    290        -17.626367   1.000000
    291        -17.624939   1.000000
    292        -17.624082   1.000000
    293        -17.622890   1.000000
    294        -17.622472   1.000000
    295        -17.621574   1.000000
    296        -17.621150   1.000000
    297        -17.620331   1.000000
    298        -17.619084   1.000000
    299        -17.617570   1.000000
    300        -17.615347   1.000000
    301        -17.614182   1.000000
    302        -17.613114   1.000000
    303        -17.612128   1.000000
    304        -17.611564   1.000000
    305        -17.610237   1.000000
    306        -17.609849   1.000000
    307        -17.608223   1.000000
    308        -17.607345   1.000000
    309        -17.606578   1.000000
    310        -17.600858   1.000000
    311        -17.600074   1.000000
    312        -17.596596   1.000000
    313        -17.593853   1.000000
    314        -17.593388   1.000000
    315        -17.592357   1.000000
    316        -17.590670   1.000000
    317        -17.589830   1.000000
    318        -17.589699   1.000000
    319        -17.588453   1.000000
    320        -17.587949   1.000000
    321        -17.585946   1.000000
    322        -17.585497   1.000000
    323        -17.584964   1.000000
    324        -17.583542   1.000000
    325        -17.582969   1.000000
    326        -17.582298   1.000000
    327        -17.581879   1.000000
    328        -17.581388   1.000000
    329        -17.580555   1.000000
    330        -17.579894   1.000000
    331        -17.579195   1.000000
    332        -17.578718   1.000000
    333        -17.577560   1.000000
    334        -17.576775   1.000000
    335        -17.575999   1.000000
    336        -17.575049   1.000000
    337        -17.573070   1.000000
    338        -17.571554   1.000000
    339        -17.570257   1.000000
    340        -17.568047   1.000000
    341        -17.567329   1.000000
    342        -17.565853   1.000000
    343        -17.564228   1.000000
    344        -17.562614   1.000000
    345        -17.560813   1.000000
    346        -17.554501   1.000000
    347        -17.553342   1.000000
    348        -17.552346   1.000000
    349        -17.551458   1.000000
    350        -17.542950   1.000000
    351        -17.541956   1.000000
    352        -17.541044   1.000000
    353        -17.538812   1.000000
    354        -17.537749   1.000000
    355        -17.535524   1.000000
    356        -17.534860   1.000000
    357        -17.534486   1.000000
    358        -17.533373   1.000000
    359        -17.529251   1.000000
    360        -17.527670   1.000000
    361        -17.526110   1.000000
    362        -17.521326   1.000000
    363        -17.520364   1.000000
    364        -17.518619   1.000000
    365        -17.517655   1.000000
    366        -17.517202   1.000000
    367        -17.516180   1.000000
    368        -17.515404   1.000000
    369        -17.513604   1.000000
    370        -17.512209   1.000000
    371        -17.511061   1.000000
    372        -17.493045   1.000000
    373        -17.488566   1.000000
    374        -17.485973   1.000000
    375        -17.471715   1.000000
    376        -17.468631   1.000000
    377        -17.467435   1.000000
    378        -17.466855   1.000000
    379        -17.463562   1.000000
    380        -17.454071   1.000000
    381        -17.453311   1.000000
    382        -17.448509   1.000000
    383        -17.448123   1.000000
    384        -17.435252   1.000000
    385          2.497727   1.000000
    386          3.762315   1.000000
    387          4.028536   1.000000
    388          4.116982   1.000000
    389          4.204532   1.000000
    390          4.381297   1.000000
    391          4.493135   1.000000
    392          5.006731   1.000000
    393          5.150405   1.000000
    394          5.184648   1.000000
    395          5.314266   1.000000
    396          5.321476   1.000000
    397          5.332788   1.000000
    398          5.408656   1.000000
    399          5.557018   1.000000
    400          5.741991   1.000000
    401          5.790505   1.000000
    402          5.797710   1.000000
    403          5.818298   1.000000
    404          5.827956   1.000000
    405          5.858463   1.000000
    406          5.864296   1.000000
    407          5.902526   1.000000
    408          6.003625   1.000000
    409          6.005827   1.000000
    410          6.010139   1.000000
    411          6.040003   1.000000
    412          6.106595   1.000000
    413          6.112078   1.000000
    414          6.115274   1.000000
    415          6.120825   1.000000
    416          6.125013   1.000000
    417          6.143305   1.000000
    418          6.153590   1.000000
    419          6.163033   1.000000
    420          6.183548   1.000000
    421          6.207037   1.000000
    422          6.212452   1.000000
    423          6.227096   1.000000
    424          6.246689   1.000000
    425          6.285744   1.000000
    426          6.311473   1.000000
    427          6.315615   1.000000
    428          6.329239   1.000000
    429          6.335646   1.000000
    430          6.368736   1.000000
    431          6.396298   1.000000
    432          6.419741   1.000000
    433          6.441918   1.000000
    434          6.455479   1.000000
    435          6.477171   1.000000
    436          6.507732   1.000000
    437          6.517021   1.000000
    438          6.522809   1.000000
    439          6.529416   1.000000
    440          6.530836   1.000000
    441          6.540951   1.000000
    442          6.554196   1.000000
    443          6.561833   1.000000
    444          6.579902   1.000000
    445          6.593976   1.000000
    446          6.617425   1.000000
    447          6.650179   1.000000
    448          6.668140   1.000000
    449          6.679511   1.000000
    450          6.686254   1.000000
    451          6.697549   1.000000
    452          6.701502   1.000000
    453          6.747141   1.000000
    454          6.782756   1.000000
    455          6.812998   1.000000
    456          6.821692   1.000000
    457          6.869894   1.000000
    458          6.901878   1.000000
    459          6.909459   1.000000
    460          6.912834   1.000000
    461          6.919861   1.000000
    462          6.965464   1.000000
    463          7.000686   1.000000
    464          7.014257   1.000000
    465          7.016215   1.000000
    466          7.047252   1.000000
    467          7.098527   1.000000
    468          7.126819   1.000000
    469          7.147028   1.000000
    470          7.200024   1.000000
    471          7.203539   1.000000
    472          7.207058   1.000000
    473          7.214579   1.000000
    474          7.222618   1.000000
    475          7.232463   1.000000
    476          7.249470   1.000000
    477          7.256841   1.000000
    478          7.259950   1.000000
    479          7.271566   1.000000
    480          7.281412   1.000000
    481          7.294731   1.000000
    482          7.303285   1.000000
    483          7.308121   1.000000
    484          7.326696   1.000000
    485          7.342226   1.000000
    486          7.360526   1.000000
    487          7.383761   1.000000
    488          7.390661   1.000000
    489          7.406014   1.000000
    490          7.419963   1.000000
    491          7.429762   1.000000
    492          7.451390   1.000000
    493          7.474479   1.000000
    494          7.477681   1.000000
    495          7.490118   1.000000
    496          7.571584   1.000000
    497          7.586789   1.000000
    498          7.598400   1.000000
    499          7.624686   1.000000
    500          7.639901   1.000000
    501          7.674541   1.000000
    502          7.706195   1.000000
    503          7.723489   1.000000
    504          7.737811   1.000000
    505          7.781386   1.000000
    506          7.790252   1.000000
    507          7.794619   1.000000
    508          7.795954   1.000000
    509          7.818151   1.000000
    510          7.832400   1.000000
    511          7.847898   1.000000
    512          7.859937   1.000000
    513          7.864928   1.000000
    514          7.871298   1.000000
    515          7.914720   1.000000
    516          7.926070   1.000000
    517          7.932244   1.000000
    518          7.936025   1.000000
    519          7.945033   1.000000
    520          7.952699   1.000000
    521          7.977749   1.000000
    522          7.980239   1.000000
    523          8.026247   1.000000
    524          8.029131   1.000000
    525          8.050190   1.000000
    526          8.058674   1.000000
    527          8.075341   1.000000
    528          8.100462   1.000000
    529          8.117963   1.000000
    530          8.126481   1.000000
    531          8.130082   1.000000
    532          8.132557   1.000000
    533          8.142152   1.000000
    534          8.144539   1.000000
    535          8.176409   1.000000
    536          8.183367   1.000000
    537          8.207155   1.000001
    538          8.210866   1.000001
    539          8.224449   1.000001
    540          8.232801   1.000002
    541          8.235844   1.000002
    542          8.240889   1.000002
    543          8.251171   1.000003
    544          8.253740   1.000004
    545          8.259912   1.000005
    546          8.272765   1.000007
    547          8.291303   1.000013
    548          8.305217   1.000020
    549          8.308064   1.000021
    550          8.312481   1.000024
    551          8.319449   1.000030
    552          8.330174   1.000042
    553          8.342116   1.000059
    554          8.344663   1.000063
    555          8.346407   1.000067
    556          8.348495   1.000071
    557          8.352234   1.000079
    558          8.356226   1.000088
    559          8.365418   1.000114
    560          8.368422   1.000123
    561          8.393844   1.000243
    562          8.394528   1.000248
    563          8.584101   1.011847
    564          8.628124   1.020722
    565          8.634612   1.022204
    566          8.681032   1.032252
    567          8.712383   1.035454
    568          8.783534   1.006646
    569          8.795886   0.993130
    570          8.821975   0.953381
    571          8.849184   0.894217
    572          8.857911   0.871295
    573          8.863212   0.856449
    574          8.870565   0.834727
    575          8.873039   0.827128
    576          8.883687   0.792836
    577          8.932264   0.609336
    578          8.940875   0.573621
    579          9.012370   0.280395
    580          9.021518   0.246911
    581          9.026075   0.230825
    582          9.036125   0.196864
    583          9.052211   0.147216
    584          9.078825   0.078917
    585          9.098288   0.040231
    586          9.116068   0.012926
    587          9.160855  -0.026380
    588          9.165905  -0.028617
    589          9.186303  -0.034212
    590          9.204962  -0.035447
    591          9.214365  -0.035020
    592          9.226964  -0.033630
    593          9.239385  -0.031581
    594          9.252505  -0.028932
    595          9.264543  -0.026251
    596          9.284304  -0.021695
    597          9.289238  -0.020571
    598          9.295247  -0.019228
    599          9.296581  -0.018934
    600          9.299831  -0.018225
    601          9.310635  -0.015957
    602          9.312298  -0.015621
    603          9.316511  -0.014787
    604          9.319676  -0.014178
    605          9.323222  -0.013512
    606          9.328954  -0.012478
    607          9.337309  -0.011063
    608          9.341461  -0.010401
    609          9.346375  -0.009654
    610          9.350138  -0.009108
    611          9.370667  -0.006519
    612          9.414135  -0.002935
    613          9.420042  -0.002610
    614          9.466307  -0.000968
    615          9.484622  -0.000631
    616          9.489930  -0.000556
    617          9.500668  -0.000427
    618          9.505650  -0.000377
    619          9.510477  -0.000334
    620          9.519689  -0.000264
    621          9.523146  -0.000242
    622          9.537055  -0.000167
    623          9.550603  -0.000116
    624          9.556134  -0.000099
    625          9.571145  -0.000065
    626          9.574826  -0.000058
    627          9.587234  -0.000041
    628          9.591771  -0.000036
    629          9.605571  -0.000023
    630          9.607135  -0.000022
    631          9.616312  -0.000017
    632          9.622297  -0.000014
    633          9.627626  -0.000012
    634          9.634263  -0.000010
    635          9.666869  -0.000003
    636          9.693963  -0.000001
    637          9.703211  -0.000001
    638          9.707890  -0.000001
    639          9.732180  -0.000000
    640          9.737436  -0.000000
    641          9.751015  -0.000000
    642          9.756299  -0.000000
    643          9.763395  -0.000000
    644          9.782549  -0.000000
    645          9.791282  -0.000000
    646          9.805661  -0.000000
    647          9.813354  -0.000000
    648          9.835011  -0.000000
    649          9.838855  -0.000000
    650          9.852954  -0.000000
    651          9.875367  -0.000000
    652          9.877686  -0.000000
    653          9.886785  -0.000000
    654          9.892224  -0.000000
    655          9.904372  -0.000000
    656          9.909017  -0.000000
    657          9.917562  -0.000000
    658          9.928494  -0.000000
    659          9.947659  -0.000000
    660          9.952237  -0.000000
    661          9.962368  -0.000000
    662          9.997782  -0.000000
    663         10.003718  -0.000000
    664         10.021187  -0.000000
    665         10.032489  -0.000000
    666         10.047486  -0.000000
    667         10.055334  -0.000000
    668         10.067281  -0.000000
    669         10.069423  -0.000000
    670         10.074135  -0.000000
    671         10.076512  -0.000000
    672         10.082666  -0.000000
    673         10.090634  -0.000000
    674         10.097405  -0.000000
    675         10.102293  -0.000000
    676         10.112247  -0.000000
    677         10.116254  -0.000000
    678         10.121506  -0.000000
    679         10.127302  -0.000000
    680         10.131194  -0.000000
    681         10.139090  -0.000000
    682         10.152695  -0.000000
    683         10.159950  -0.000000
    684         10.163388  -0.000000
    685         10.170314  -0.000000
    686         10.174491  -0.000000
    687         10.180911  -0.000000
    688         10.186768  -0.000000
    689         10.189757  -0.000000
    690         10.198098  -0.000000
    691         10.205798  -0.000000
 
  0.5000000E+00  0.2500000E+00  0.3333333E+00  0.4166667E-01
      1        -39.890502   1.000000
      2        -39.877590   1.000000
      3        -39.871115   1.000000
      4        -39.868403   1.000000
      5        -39.861057   1.000000
      6        -39.857114   1.000000
      7        -39.838493   1.000000
      8        -39.836859   1.000000
      9        -39.829229   1.000000
     10        -39.825932   1.000000
     11        -39.823748   1.000000
     12        -39.821618   1.000000
     13        -39.817462   1.000000
     14        -39.812815   1.000000
     15        -39.811060   1.000000
     16        -39.806534   1.000000
     17        -39.803914   1.000000
     18        -39.799699   1.000000
     19        -39.798450   1.000000
     20        -39.796652   1.000000
     21        -39.794725   1.000000
     22        -39.793410   1.000000
     23        -39.792213   1.000000
     24        -39.789603   1.000000
     25        -39.787237   1.000000
     26        -39.784771   1.000000
     27        -39.782330   1.000000
     28        -39.781953   1.000000
     29        -39.780095   1.000000
     30        -39.777578   1.000000
     31        -39.777112   1.000000
     32        -39.775103   1.000000
     33        -39.774049   1.000000
     34        -39.771451   1.000000
     35        -39.770905   1.000000
     36        -39.769539   1.000000
     37        -39.768239   1.000000
     38        -39.767074   1.000000
     39        -39.764657   1.000000
     40        -39.763255   1.000000
     41        -39.760307   1.000000
     42        -39.759509   1.000000
     43        -39.758339   1.000000
     44        -39.757794   1.000000
     45        -39.756404   1.000000
     46        -39.756106   1.000000
     47        -39.754676   1.000000
     48        -39.754485   1.000000
     49        -39.753802   1.000000
     50        -39.752956   1.000000
     51        -39.752471   1.000000
     52        -39.751419   1.000000
     53        -39.750940   1.000000
     54        -39.749722   1.000000
     55        -39.748397   1.000000
     56        -39.746508   1.000000
     57        -39.745095   1.000000
     58        -39.744680   1.000000
     59        -39.744006   1.000000
     60        -39.743287   1.000000
     61        -39.742523   1.000000
     62        -39.741690   1.000000
     63        -39.740687   1.000000
     64        -39.740256   1.000000
     65        -39.739021   1.000000
     66        -39.737658   1.000000
     67        -39.736989   1.000000
     68        -39.736116   1.000000
     69        -39.735300   1.000000
     70        -39.734357   1.000000
     71        -39.733659   1.000000
     72        -39.733084   1.000000
     73        -39.731549   1.000000
     74        -39.730785   1.000000
     75        -39.729722   1.000000
     76        -39.728794   1.000000
     77        -39.728107   1.000000
     78        -39.727493   1.000000
     79        -39.726580   1.000000
     80        -39.725666   1.000000
     81        -39.725338   1.000000
     82        -39.724329   1.000000
     83        -39.723795   1.000000
     84        -39.723539   1.000000
     85        -39.722877   1.000000
     86        -39.722603   1.000000
     87        -39.721512   1.000000
     88        -39.721416   1.000000
     89        -39.719539   1.000000
     90        -39.719267   1.000000
     91        -39.717764   1.000000
     92        -39.717552   1.000000
     93        -39.716940   1.000000
     94        -39.715812   1.000000
     95        -39.715113   1.000000
     96        -39.714202   1.000000
     97        -18.356012   1.000000
     98        -18.318161   1.000000
     99        -18.312922   1.000000
    100        -18.296790   1.000000
    101        -18.284864   1.000000
    102        -18.278725   1.000000
    103        -18.276678   1.000000
    104        -18.274266   1.000000
    105        -18.266471   1.000000
    106        -18.263226   1.000000
    107        -18.262051   1.000000
    108        -18.257154   1.000000
    109        -18.255847   1.000000
    110        -18.254085   1.000000
    111        -18.251242   1.000000
    112        -18.243167   1.000000
    113        -18.241229   1.000000
    114        -18.237765   1.000000
    115        -18.233159   1.000000
    116        -18.232589   1.000000
    117        -18.231503   1.000000
    118        -18.230248   1.000000
    119        -18.228459   1.000000
    120        -18.226620   1.000000
    121        -18.221428   1.000000
    122        -18.217220   1.000000
    123        -18.216575   1.000000
    124        -18.214581   1.000000
    125        -18.214130   1.000000
    126        -18.213702   1.000000
    127        -18.211226   1.000000
    128        -18.210737   1.000000
    129        -18.209494   1.000000
    130        -18.208369   1.000000
    131        -18.200436   1.000000
    132        -18.198327   1.000000
    133        -18.195251   1.000000
    134        -18.194741   1.000000
    135        -18.193446   1.000000
    136        -18.190992   1.000000
    137        -18.189748   1.000000
    138        -18.185142   1.000000
    139        -18.178553   1.000000
    140        -18.173285   1.000000
    141        -18.171540   1.000000
    142        -18.169627   1.000000
    143        -18.167425   1.000000
    144        -18.166869   1.000000
    145        -18.165139   1.000000
    146        -18.158891   1.000000
    147        -18.154146   1.000000
    148        -18.141057   1.000000
    149        -18.118879   1.000000
    150        -18.116825   1.000000
    151        -18.115268   1.000000
    152        -18.113440   1.000000
    153        -18.113200   1.000000
    154        -18.110906   1.000000
    155        -18.110671   1.000000
    156        -18.109651   1.000000
    157        -18.109175   1.000000
    158        -18.106995   1.000000
    159        -18.087500   1.000000
    160        -18.085881   1.000000
    161        -18.077264   1.000000
    162        -18.060074   1.000000
    163        -18.057471   1.000000
    164        -18.051849   1.000000
    165        -18.050844   1.000000
    166        -18.048252   1.000000
    167        -18.046330   1.000000
    168        -18.044817   1.000000
    169        -18.044361   1.000000
    170        -18.043280   1.000000
    171        -18.041791   1.000000
    172        -18.040057   1.000000
    173        -18.038151   1.000000
    174        -18.034205   1.000000
    175        -18.033921   1.000000
    176        -18.029563   1.000000
    177        -18.027579   1.000000
    178        -18.025984   1.000000
    179        -18.004068   1.000000
    180        -17.985480   1.000000
    181        -17.981432   1.000000
    182        -17.979369   1.000000
    183        -17.974708   1.000000
    184        -17.972181   1.000000
    185        -17.966276   1.000000
    186        -17.963377   1.000000
    187        -17.955680   1.000000
    188        -17.950870   1.000000
    189        -17.940337   1.000000
    190        -17.939350   1.000000
    191        -17.938247   1.000000
    192        -17.931996   1.000000
    193        -17.930566   1.000000
    194        -17.924513   1.000000
    195        -17.921314   1.000000
    196        -17.915211   1.000000
    197        -17.911745   1.000000
    198        -17.911386   1.000000
    199        -17.908260   1.000000
    200        -17.896948   1.000000
    201        -17.895728   1.000000
    202        -17.892685   1.000000
    203        -17.892574   1.000000
    204        -17.890908   1.000000
    205        -17.889003   1.000000
    206        -17.886734   1.000000
    207        -17.886364   1.000000
    208        -17.884153   1.000000
    209        -17.874925   1.000000
    210        -17.863124   1.000000
    211        -17.861070   1.000000
    212        -17.855260   1.000000
    213        -17.853131   1.000000
    214        -17.849253   1.000000
    215        -17.833475   1.000000
    216        -17.832093   1.000000
    217        -17.830301   1.000000
    218        -17.824835   1.000000
    219        -17.820559   1.000000
    220        -17.817235   1.000000
    221        -17.814955   1.000000
    222        -17.814048   1.000000
    223        -17.802305   1.000000
    224        -17.792965   1.000000
    225        -17.783100   1.000000
    226        -17.771590   1.000000
    227        -17.769348   1.000000
    228        -17.766392   1.000000
    229        -17.764596   1.000000
    230        -17.763224   1.000000
    231        -17.760665   1.000000
    232        -17.759747   1.000000
    233        -17.756482   1.000000
    234        -17.753201   1.000000
    235        -17.751507   1.000000
    236        -17.750369   1.000000
    237        -17.744461   1.000000
    238        -17.741033   1.000000
    239        -17.738368   1.000000
    240        -17.733561   1.000000
    241        -17.732698   1.000000
    242        -17.731644   1.000000
    243        -17.729279   1.000000
    244        -17.728486   1.000000
    245        -17.726914   1.000000
    246        -17.725253   1.000000
    247        -17.723793   1.000000
    248        -17.722882   1.000000
    249        -17.722131   1.000000
    250        -17.721034   1.000000
    251        -17.720433   1.000000
    252        -17.718786   1.000000
    253        -17.718114   1.000000
    254        -17.716750   1.000000
    255        -17.712334   1.000000
    256        -17.711759   1.000000
    257        -17.710859   1.000000
    258        -17.710243   1.000000
    259        -17.709418   1.000000
    260        -17.705922   1.000000
    261        -17.704622   1.000000
    262        -17.702462   1.000000
    263        -17.700099   1.000000
    264        -17.697394   1.000000
    265        -17.694957   1.000000
    266        -17.685534   1.000000
    267        -17.682944   1.000000
    268        -17.681834   1.000000
    269        -17.680398   1.000000
    270        -17.680102   1.000000
    271        -17.677003   1.000000
    272        -17.676036   1.000000
    273        -17.674702   1.000000
    274        -17.668970   1.000000
    275        -17.668369   1.000000
    276        -17.667733   1.000000
    277        -17.666727   1.000000
    278        -17.664866   1.000000
    279        -17.664045   1.000000
    280        -17.663411   1.000000
    281        -17.650841   1.000000
    282        -17.649923   1.000000
    283        -17.647379   1.000000
    284        -17.646912   1.000000
    285        -17.639482   1.000000
    286        -17.638514   1.000000
    287        -17.632469   1.000000
    288        -17.629540   1.000000
    289        -17.627979   1.000000
    290        -17.626318   1.000000
    291        -17.625365   1.000000
    292        -17.624200   1.000000
    293        -17.623101   1.000000
    294        -17.622691   1.000000
    295        -17.621579   1.000000
    296        -17.620571   1.000000
    297        -17.620090   1.000000
    298        -17.618806   1.000000
    299        -17.617438   1.000000
    300        -17.615254   1.000000
    301        -17.614257   1.000000
    302        -17.613221   1.000000
    303        -17.612263   1.000000
    304        -17.611598   1.000000
    305        -17.610481   1.000000
    306        -17.609904   1.000000
    307        -17.608572   1.000000
    308        -17.607253   1.000000
    309        -17.606672   1.000000
    310        -17.601057   1.000000
    311        -17.600453   1.000000
    312        -17.596280   1.000000
    313        -17.593947   1.000000
    314        -17.593429   1.000000
    315        -17.592757   1.000000
    316        -17.591347   1.000000
    317        -17.589918   1.000000
    318        -17.589331   1.000000
    319        -17.588517   1.000000
    320        -17.587958   1.000000
    321        -17.585886   1.000000
    322        -17.585554   1.000000
    323        -17.584325   1.000000
    324        -17.583390   1.000000
    325        -17.583080   1.000000
    326        -17.582329   1.000000
    327        -17.582012   1.000000
    328        -17.581333   1.000000
    329        -17.580463   1.000000
    330        -17.579899   1.000000
    331        -17.579362   1.000000
    332        -17.578749   1.000000
    333        -17.577730   1.000000
    334        -17.577046   1.000000
    335        -17.575952   1.000000
    336        -17.575121   1.000000
    337        -17.573009   1.000000
    338        -17.571715   1.000000
    339        -17.569872   1.000000
    340        -17.568019   1.000000
    341        -17.567075   1.000000
    342        -17.566040   1.000000
    343        -17.563337   1.000000
    344        -17.562811   1.000000
    345        -17.560998   1.000000
    346        -17.554678   1.000000
    347        -17.553317   1.000000
    348        -17.552563   1.000000
    349        -17.551601   1.000000
    350        -17.542821   1.000000
    351        -17.542061   1.000000
    352        -17.541115   1.000000
    353        -17.538766   1.000000
    354        -17.537804   1.000000
    355        -17.535835   1.000000
    356        -17.534699   1.000000
    357        -17.534496   1.000000
    358        -17.533377   1.000000
    359        -17.529262   1.000000
    360        -17.527355   1.000000
    361        -17.525958   1.000000
    362        -17.521315   1.000000
    363        -17.520538   1.000000
    364        -17.518603   1.000000
    365        -17.517432   1.000000
    366        -17.516943   1.000000
    367        -17.516021   1.000000
    368        -17.515177   1.000000
    369        -17.513928   1.000000
    370        -17.512368   1.000000
    371        -17.510839   1.000000
    372        -17.493016   1.000000
    373        -17.488486   1.000000
    374        -17.486135   1.000000
    375        -17.471536   1.000000
    376        -17.468491   1.000000
    377        -17.467410   1.000000
    378        -17.467082   1.000000
    379        -17.463361   1.000000
    380        -17.453902   1.000000
    381        -17.453610   1.000000
    382        -17.448507   1.000000
    383        -17.448152   1.000000
    384        -17.435350   1.000000
    385          2.497488   1.000000
    386          3.762654   1.000000
    387          4.028619   1.000000
    388          4.117147   1.000000
    389          4.204147   1.000000
    390          4.381436   1.000000
    391          4.493756   1.000000
    392          5.007087   1.000000
    393          5.150671   1.000000
    394          5.183916   1.000000
    395          5.314402   1.000000
    396          5.321702   1.000000
    397          5.333144   1.000000
    398          5.405731   1.000000
    399          5.556696   1.000000
    400          5.741567   1.000000
    401          5.790749   1.000000
    402          5.798101   1.000000
    403          5.818342   1.000000
    404          5.827240   1.000000
    405          5.858722   1.000000
    406          5.864305   1.000000
    407          5.903487   1.000000
    408          6.003723   1.000000
    409          6.006172   1.000000
    410          6.010156   1.000000
    411          6.041374   1.000000
    412          6.106112   1.000000
    413          6.111416   1.000000
    414          6.115119   1.000000
    415          6.120909   1.000000
    416          6.125689   1.000000
    417          6.146100   1.000000
    418          6.153389   1.000000
    419          6.162524   1.000000
    420          6.184883   1.000000
    421          6.206354   1.000000
    422          6.212264   1.000000
    423          6.226280   1.000000
    424          6.246770   1.000000
    425          6.285638   1.000000
    426          6.312214   1.000000
    427          6.315877   1.000000
    428          6.328052   1.000000
    429          6.334940   1.000000
    430          6.369085   1.000000
    431          6.396411   1.000000
    432          6.420014   1.000000
    433          6.441530   1.000000
    434          6.455825   1.000000
    435          6.477512   1.000000
    436          6.507903   1.000000
    437          6.516871   1.000000
    438          6.523363   1.000000
    439          6.529024   1.000000
    440          6.530103   1.000000
    441          6.541398   1.000000
    442          6.554109   1.000000
    443          6.562004   1.000000
    444          6.579903   1.000000
    445          6.593416   1.000000
    446          6.616978   1.000000
    447          6.649035   1.000000
    448          6.668501   1.000000
    449          6.678928   1.000000
    450          6.686374   1.000000
    451          6.697368   1.000000
    452          6.701395   1.000000
    453          6.750369   1.000000
    454          6.782760   1.000000
    455          6.811991   1.000000
    456          6.822423   1.000000
    457          6.867378   1.000000
    458          6.902110   1.000000
    459          6.909360   1.000000
    460          6.912665   1.000000
    461          6.921009   1.000000
    462          6.968233   1.000000
    463          7.001263   1.000000
    464          7.014927   1.000000
    465          7.015847   1.000000
    466          7.046186   1.000000
    467          7.095009   1.000000
    468          7.126219   1.000000
    469          7.148445   1.000000
    470          7.200201   1.000000
    471          7.204066   1.000000
    472          7.206926   1.000000
    473          7.213806   1.000000
    474          7.222536   1.000000
    475          7.234305   1.000000
    476          7.248777   1.000000
    477          7.258003   1.000000
    478          7.259752   1.000000
    479          7.271063   1.000000
    480          7.281281   1.000000
    481          7.296430   1.000000
    482          7.303854   1.000000
    483          7.308265   1.000000
    484          7.327691   1.000000
    485          7.342186   1.000000
    486          7.359526   1.000000
    487          7.382779   1.000000
    488          7.390659   1.000000
    489          7.404203   1.000000
    490          7.420377   1.000000
    491          7.430141   1.000000
    492          7.451622   1.000000
    493          7.472912   1.000000
    494          7.480688   1.000000
    495          7.490415   1.000000
    496          7.568480   1.000000
    497          7.586914   1.000000
    498          7.598899   1.000000
    499          7.624529   1.000000
    500          7.640211   1.000000
    501          7.674936   1.000000
    502          7.705221   1.000000
    503          7.720821   1.000000
    504          7.737953   1.000000
    505          7.780769   1.000000
    506          7.789905   1.000000
    507          7.794423   1.000000
    508          7.795456   1.000000
    509          7.817239   1.000000
    510          7.831572   1.000000
    511          7.846673   1.000000
    512          7.861318   1.000000
    513          7.864796   1.000000
    514          7.870975   1.000000
    515          7.914913   1.000000
    516          7.926297   1.000000
    517          7.931601   1.000000
    518          7.935930   1.000000
    519          7.946740   1.000000
    520          7.952069   1.000000
    521          7.977404   1.000000
    522          7.980518   1.000000
    523          8.025067   1.000000
    524          8.029952   1.000000
    525          8.052778   1.000000
    526          8.058670   1.000000
    527          8.075961   1.000000
    528          8.100327   1.000000
    529          8.118970   1.000000
    530          8.127194   1.000000
    531          8.129238   1.000000
    532          8.131902   1.000000
    533          8.141636   1.000000
    534          8.144284   1.000000
    535          8.173719   1.000000
    536          8.181892   1.000000
    537          8.208001   1.000001
    538          8.210234   1.000001
    539          8.225266   1.000001
    540          8.233221   1.000002
    541          8.237304   1.000002
    542          8.238451   1.000002
    543          8.250368   1.000003
    544          8.252932   1.000004
    545          8.260101   1.000005
    546          8.272616   1.000007
    547          8.294562   1.000014
    548          8.303646   1.000019
    549          8.307679   1.000021
    550          8.312360   1.000024
    551          8.320329   1.000031
    552          8.330067   1.000041
    553          8.342357   1.000059
    554          8.345142   1.000064
    555          8.346079   1.000066
    556          8.348287   1.000070
    557          8.352800   1.000080
    558          8.356351   1.000088
    559          8.364675   1.000111
    560          8.368762   1.000125
    561          8.394155   1.000245
    562          8.395162   1.000252
    563          8.585701   1.012122
    564          8.630179   1.021189
    565          8.634415   1.022159
    566          8.679105   1.031910
    567          8.712039   1.035451
    568          8.784305   1.005894
    569          8.794109   0.995273
    570          8.822153   0.953055
    571          8.849050   0.894554
    572          8.857561   0.872251
    573          8.863682   0.855099
    574          8.870020   0.836380
    575          8.874083   0.823880
    576          8.884291   0.790813
    577          8.934690   0.599331
    578          8.940307   0.575995
    579          9.009910   0.289653
    580          9.023618   0.239447
    581          9.028541   0.222293
    582          9.034697   0.201557
    583          9.049483   0.155208
    584          9.082203   0.071522
    585          9.098372   0.040084
    586          9.119011   0.009109
    587          9.151658  -0.021299
    588          9.166586  -0.028891
    589          9.181520  -0.033349
    590          9.205201  -0.035444
    591          9.217116  -0.034789
    592          9.229107  -0.033318
    593          9.240035  -0.031460
    594          9.252313  -0.028974
    595          9.263029  -0.026597
    596          9.281091  -0.022433
    597          9.290046  -0.020389
    598          9.296215  -0.019014
    599          9.298427  -0.018530
    600          9.300061  -0.018176
    601          9.310494  -0.015985
    602          9.312566  -0.015567
    603          9.317077  -0.014677
    604          9.320944  -0.013937
    605          9.323625  -0.013438
    606          9.330549  -0.012199
    607          9.337427  -0.011043
    608          9.343555  -0.010078
    609          9.346227  -0.009676
    610          9.349057  -0.009262
    611          9.370262  -0.006564
    612          9.413336  -0.002981
    613          9.419520  -0.002637
    614          9.463459  -0.001032
    615          9.486397  -0.000605
    616          9.489992  -0.000555
    617          9.500863  -0.000425
    618          9.507721  -0.000358
    619          9.510994  -0.000330
    620          9.519704  -0.000264
    621          9.523718  -0.000238
    622          9.536524  -0.000170
    623          9.548877  -0.000121
    624          9.556377  -0.000099
    625          9.571923  -0.000064
    626          9.574168  -0.000060
    627          9.586993  -0.000041
    628          9.592485  -0.000035
    629          9.605765  -0.000023
    630          9.608470  -0.000021
    631          9.615173  -0.000017
    632          9.621365  -0.000014
    633          9.628462  -0.000012
    634          9.633757  -0.000010
    635          9.667079  -0.000003
    636          9.692666  -0.000001
    637          9.701302  -0.000001
    638          9.708428  -0.000001
    639          9.731175  -0.000000
    640          9.737609  -0.000000
    641          9.750496  -0.000000
    642          9.756863  -0.000000
    643          9.769613  -0.000000
    644          9.782417  -0.000000
    645          9.794123  -0.000000
    646          9.805552  -0.000000
    647          9.812635  -0.000000
    648          9.835207  -0.000000
    649          9.840255  -0.000000
    650          9.854120  -0.000000
    651          9.877663  -0.000000
    652          9.878984  -0.000000
    653          9.886140  -0.000000
    654          9.892337  -0.000000
    655          9.905368  -0.000000
    656          9.908974  -0.000000
    657          9.916874  -0.000000
    658          9.925532  -0.000000
    659          9.946816  -0.000000
    660          9.952186  -0.000000
    661          9.961444  -0.000000
    662          9.993644  -0.000000
    663         10.003947  -0.000000
    664         10.024843  -0.000000
    665         10.032396  -0.000000
    666         10.046104  -0.000000
    667         10.059063  -0.000000
    668         10.065765  -0.000000
    669         10.067725  -0.000000
    670         10.073383  -0.000000
    671         10.074668  -0.000000
    672         10.083105  -0.000000
    673         10.089352  -0.000000
    674         10.097430  -0.000000
    675         10.102805  -0.000000
    676         10.112217  -0.000000
    677         10.115532  -0.000000
    678         10.120543  -0.000000
    679         10.127213  -0.000000
    680         10.131484  -0.000000
    681         10.138948  -0.000000
    682         10.152422  -0.000000
    683         10.158369  -0.000000
    684         10.163318  -0.000000
    685         10.170637  -0.000000
    686         10.172349  -0.000000
    687         10.180863  -0.000000
    688         10.186644  -0.000000
    689         10.191795  -0.000000
    690         10.197636  -0.000000
    691         10.205822  -0.000000
 
 -0.2500000E+00 -0.2500000E+00  0.3333333E+00  0.4166667E-01
      1        -39.890502   1.000000
      2        -39.877590   1.000000
      3        -39.871115   1.000000
      4        -39.868403   1.000000
      5        -39.861057   1.000000
      6        -39.857114   1.000000
      7        -39.838493   1.000000
      8        -39.836859   1.000000
      9        -39.829229   1.000000
     10        -39.825932   1.000000
     11        -39.823748   1.000000
     12        -39.821618   1.000000
     13        -39.817462   1.000000
     14        -39.812815   1.000000
     15        -39.811060   1.000000
     16        -39.806534   1.000000
     17        -39.803914   1.000000
     18        -39.799699   1.000000
     19        -39.798450   1.000000
     20        -39.796652   1.000000
     21        -39.794725   1.000000
     22        -39.793410   1.000000
     23        -39.792213   1.000000
     24        -39.789603   1.000000
     25        -39.787237   1.000000
     26        -39.784771   1.000000
     27        -39.782330   1.000000
     28        -39.781953   1.000000
     29        -39.780095   1.000000
     30        -39.777578   1.000000
     31        -39.777113   1.000000
     32        -39.775103   1.000000
     33        -39.774049   1.000000
     34        -39.771451   1.000000
     35        -39.770905   1.000000
     36        -39.769539   1.000000
     37        -39.768239   1.000000
     38        -39.767074   1.000000
     39        -39.764657   1.000000
     40        -39.763255   1.000000
     41        -39.760307   1.000000
     42        -39.759509   1.000000
     43        -39.758339   1.000000
     44        -39.757794   1.000000
     45        -39.756404   1.000000
     46        -39.756106   1.000000
     47        -39.754676   1.000000
     48        -39.754485   1.000000
     49        -39.753802   1.000000
     50        -39.752956   1.000000
     51        -39.752471   1.000000
     52        -39.751419   1.000000
     53        -39.750940   1.000000
     54        -39.749722   1.000000
     55        -39.748397   1.000000
     56        -39.746508   1.000000
     57        -39.745095   1.000000
     58        -39.744680   1.000000
     59        -39.744006   1.000000
     60        -39.743287   1.000000
     61        -39.742523   1.000000
     62        -39.741690   1.000000
     63        -39.740687   1.000000
     64        -39.740256   1.000000
     65        -39.739021   1.000000
     66        -39.737658   1.000000
     67        -39.736989   1.000000
     68        -39.736116   1.000000
     69        -39.735300   1.000000
     70        -39.734357   1.000000
     71        -39.733659   1.000000
     72        -39.733084   1.000000
     73        -39.731549   1.000000
     74        -39.730785   1.000000
     75        -39.729722   1.000000
     76        -39.728794   1.000000
     77        -39.728107   1.000000
     78        -39.727493   1.000000
     79        -39.726580   1.000000
     80        -39.725666   1.000000
     81        -39.725338   1.000000
     82        -39.724329   1.000000
     83        -39.723795   1.000000
     84        -39.723539   1.000000
     85        -39.722877   1.000000
     86        -39.722603   1.000000
     87        -39.721512   1.000000
     88        -39.721416   1.000000
     89        -39.719539   1.000000
     90        -39.719267   1.000000
     91        -39.717764   1.000000
     92        -39.717552   1.000000
     93        -39.716940   1.000000
     94        -39.715812   1.000000
     95        -39.715113   1.000000
     96        -39.714202   1.000000
     97        -18.356012   1.000000
     98        -18.318161   1.000000
     99        -18.312922   1.000000
    100        -18.296790   1.000000
    101        -18.284864   1.000000
    102        -18.278725   1.000000
    103        -18.276678   1.000000
    104        -18.274266   1.000000
    105        -18.266471   1.000000
    106        -18.263226   1.000000
    107        -18.262051   1.000000
    108        -18.257154   1.000000
    109        -18.255847   1.000000
    110        -18.254085   1.000000
    111        -18.251242   1.000000
    112        -18.243167   1.000000
    113        -18.241229   1.000000
    114        -18.237765   1.000000
    115        -18.233159   1.000000
    116        -18.232589   1.000000
    117        -18.231503   1.000000
    118        -18.230248   1.000000
    119        -18.228459   1.000000
    120        -18.226620   1.000000
    121        -18.221428   1.000000
    122        -18.217220   1.000000
    123        -18.216575   1.000000
    124        -18.214581   1.000000
    125        -18.214130   1.000000
    126        -18.213702   1.000000
    127        -18.211226   1.000000
    128        -18.210737   1.000000
    129        -18.209494   1.000000
    130        -18.208369   1.000000
    131        -18.200436   1.000000
    132        -18.198327   1.000000
    133        -18.195251   1.000000
    134        -18.194741   1.000000
    135        -18.193446   1.000000
    136        -18.190992   1.000000
    137        -18.189748   1.000000
    138        -18.185142   1.000000
    139        -18.178553   1.000000
    140        -18.173285   1.000000
    141        -18.171540   1.000000
    142        -18.169627   1.000000
    143        -18.167424   1.000000
    144        -18.166870   1.000000
    145        -18.165139   1.000000
    146        -18.158891   1.000000
    147        -18.154146   1.000000
    148        -18.141057   1.000000
    149        -18.118879   1.000000
    150        -18.116825   1.000000
    151        -18.115268   1.000000
    152        -18.113440   1.000000
    153        -18.113200   1.000000
    154        -18.110906   1.000000
    155        -18.110671   1.000000
    156        -18.109651   1.000000
    157        -18.109175   1.000000
    158        -18.106995   1.000000
    159        -18.087500   1.000000
    160        -18.085881   1.000000
    161        -18.077264   1.000000
    162        -18.060074   1.000000
    163        -18.057471   1.000000
    164        -18.051849   1.000000
    165        -18.050844   1.000000
    166        -18.048252   1.000000
    167        -18.046330   1.000000
    168        -18.044817   1.000000
    169        -18.044361   1.000000
    170        -18.043280   1.000000
    171        -18.041791   1.000000
    172        -18.040057   1.000000
    173        -18.038151   1.000000
    174        -18.034205   1.000000
    175        -18.033921   1.000000
    176        -18.029563   1.000000
    177        -18.027579   1.000000
    178        -18.025984   1.000000
    179        -18.004068   1.000000
    180        -17.985480   1.000000
    181        -17.981432   1.000000
    182        -17.979369   1.000000
    183        -17.974708   1.000000
    184        -17.972181   1.000000
    185        -17.966276   1.000000
    186        -17.963377   1.000000
    187        -17.955680   1.000000
    188        -17.950870   1.000000
    189        -17.940337   1.000000
    190        -17.939350   1.000000
    191        -17.938247   1.000000
    192        -17.931996   1.000000
    193        -17.930566   1.000000
    194        -17.924513   1.000000
    195        -17.921314   1.000000
    196        -17.915211   1.000000
    197        -17.911745   1.000000
    198        -17.911386   1.000000
    199        -17.908260   1.000000
    200        -17.896948   1.000000
    201        -17.895728   1.000000
    202        -17.892685   1.000000
    203        -17.892574   1.000000
    204        -17.890908   1.000000
    205        -17.889003   1.000000
    206        -17.886734   1.000000
    207        -17.886364   1.000000
    208        -17.884153   1.000000
    209        -17.874925   1.000000
    210        -17.863124   1.000000
    211        -17.861070   1.000000
    212        -17.855260   1.000000
    213        -17.853131   1.000000
    214        -17.849253   1.000000
    215        -17.833475   1.000000
    216        -17.832093   1.000000
    217        -17.830301   1.000000
    218        -17.824835   1.000000
    219        -17.820559   1.000000
    220        -17.817235   1.000000
    221        -17.814955   1.000000
    222        -17.814048   1.000000
    223        -17.802305   1.000000
    224        -17.792965   1.000000
    225        -17.783100   1.000000
    226        -17.771590   1.000000
    227        -17.769348   1.000000
    228        -17.766392   1.000000
    229        -17.764596   1.000000
    230        -17.763224   1.000000
    231        -17.760665   1.000000
    232        -17.759747   1.000000
    233        -17.756482   1.000000
    234        -17.753201   1.000000
    235        -17.751507   1.000000
    236        -17.750369   1.000000
    237        -17.744461   1.000000
    238        -17.741033   1.000000
    239        -17.738368   1.000000
    240        -17.733561   1.000000
    241        -17.732698   1.000000
    242        -17.731644   1.000000
    243        -17.729279   1.000000
    244        -17.728486   1.000000
    245        -17.726914   1.000000
    246        -17.725253   1.000000
    247        -17.723793   1.000000
    248        -17.722882   1.000000
    249        -17.722131   1.000000
    250        -17.721034   1.000000
    251        -17.720433   1.000000
    252        -17.718786   1.000000
    253        -17.718114   1.000000
    254        -17.716750   1.000000
    255        -17.712334   1.000000
    256        -17.711759   1.000000
    257        -17.710859   1.000000
    258        -17.710243   1.000000
    259        -17.709418   1.000000
    260        -17.705922   1.000000
    261        -17.704622   1.000000
    262        -17.702462   1.000000
    263        -17.700099   1.000000
    264        -17.697394   1.000000
    265        -17.694957   1.000000
    266        -17.685534   1.000000
    267        -17.682944   1.000000
    268        -17.681834   1.000000
    269        -17.680398   1.000000
    270        -17.680102   1.000000
    271        -17.677003   1.000000
    272        -17.676036   1.000000
    273        -17.674702   1.000000
    274        -17.668970   1.000000
    275        -17.668369   1.000000
    276        -17.667733   1.000000
    277        -17.666727   1.000000
    278        -17.664866   1.000000
    279        -17.664045   1.000000
    280        -17.663411   1.000000
    281        -17.650841   1.000000
    282        -17.649923   1.000000
    283        -17.647379   1.000000
    284        -17.646912   1.000000
    285        -17.639482   1.000000
    286        -17.638514   1.000000
    287        -17.632469   1.000000
    288        -17.629540   1.000000
    289        -17.627979   1.000000
    290        -17.626318   1.000000
    291        -17.625365   1.000000
    292        -17.624200   1.000000
    293        -17.623101   1.000000
    294        -17.622691   1.000000
    295        -17.621579   1.000000
    296        -17.620571   1.000000
    297        -17.620090   1.000000
    298        -17.618806   1.000000
    299        -17.617438   1.000000
    300        -17.615254   1.000000
    301        -17.614257   1.000000
    302        -17.613221   1.000000
    303        -17.612263   1.000000
    304        -17.611598   1.000000
    305        -17.610481   1.000000
    306        -17.609904   1.000000
    307        -17.608572   1.000000
    308        -17.607253   1.000000
    309        -17.606672   1.000000
    310        -17.601057   1.000000
    311        -17.600453   1.000000
    312        -17.596280   1.000000
    313        -17.593947   1.000000
    314        -17.593429   1.000000
    315        -17.592757   1.000000
    316        -17.591347   1.000000
    317        -17.589918   1.000000
    318        -17.589331   1.000000
    319        -17.588517   1.000000
    320        -17.587958   1.000000
    321        -17.585886   1.000000
    322        -17.585554   1.000000
    323        -17.584325   1.000000
    324        -17.583390   1.000000
    325        -17.583080   1.000000
    326        -17.582329   1.000000
    327        -17.582012   1.000000
    328        -17.581333   1.000000
    329        -17.580463   1.000000
    330        -17.579899   1.000000
    331        -17.579362   1.000000
    332        -17.578749   1.000000
    333        -17.577730   1.000000
    334        -17.577046   1.000000
    335        -17.575952   1.000000
    336        -17.575121   1.000000
    337        -17.573009   1.000000
    338        -17.571715   1.000000
    339        -17.569872   1.000000
    340        -17.568019   1.000000
    341        -17.567075   1.000000
    342        -17.566040   1.000000
    343        -17.563337   1.000000
    344        -17.562811   1.000000
    345        -17.560998   1.000000
    346        -17.554678   1.000000
    347        -17.553317   1.000000
    348        -17.552563   1.000000
    349        -17.551601   1.000000
    350        -17.542821   1.000000
    351        -17.542061   1.000000
    352        -17.541115   1.000000
    353        -17.538766   1.000000
    354        -17.537804   1.000000
    355        -17.535835   1.000000
    356        -17.534699   1.000000
    357        -17.534496   1.000000
    358        -17.533377   1.000000
    359        -17.529262   1.000000
    360        -17.527355   1.000000
    361        -17.525958   1.000000
    362        -17.521315   1.000000
    363        -17.520538   1.000000
    364        -17.518603   1.000000
    365        -17.517432   1.000000
    366        -17.516943   1.000000
    367        -17.516021   1.000000
    368        -17.515177   1.000000
    369        -17.513928   1.000000
    370        -17.512368   1.000000
    371        -17.510839   1.000000
    372        -17.493016   1.000000
    373        -17.488486   1.000000
    374        -17.486135   1.000000
    375        -17.471536   1.000000
    376        -17.468491   1.000000
    377        -17.467410   1.000000
    378        -17.467082   1.000000
    379        -17.463361   1.000000
    380        -17.453902   1.000000
    381        -17.453610   1.000000
    382        -17.448507   1.000000
    383        -17.448152   1.000000
    384        -17.435350   1.000000
    385          2.497488   1.000000
    386          3.762654   1.000000
    387          4.028619   1.000000
    388          4.117147   1.000000
    389          4.204147   1.000000
    390          4.381436   1.000000
    391          4.493756   1.000000
    392          5.007087   1.000000
    393          5.150671   1.000000
    394          5.183916   1.000000
    395          5.314402   1.000000
    396          5.321702   1.000000
    397          5.333144   1.000000
    398          5.405731   1.000000
    399          5.556696   1.000000
    400          5.741567   1.000000
    401          5.790749   1.000000
    402          5.798101   1.000000
    403          5.818342   1.000000
    404          5.827240   1.000000
    405          5.858722   1.000000
    406          5.864305   1.000000
    407          5.903487   1.000000
    408          6.003723   1.000000
    409          6.006172   1.000000
    410          6.010156   1.000000
    411          6.041374   1.000000
    412          6.106112   1.000000
    413          6.111416   1.000000
    414          6.115119   1.000000
    415          6.120909   1.000000
    416          6.125689   1.000000
    417          6.146100   1.000000
    418          6.153389   1.000000
    419          6.162524   1.000000
    420          6.184883   1.000000
    421          6.206354   1.000000
    422          6.212264   1.000000
    423          6.226280   1.000000
    424          6.246770   1.000000
    425          6.285637   1.000000
    426          6.312214   1.000000
    427          6.315877   1.000000
    428          6.328052   1.000000
    429          6.334940   1.000000
    430          6.369085   1.000000
    431          6.396411   1.000000
    432          6.420014   1.000000
    433          6.441530   1.000000
    434          6.455825   1.000000
    435          6.477512   1.000000
    436          6.507903   1.000000
    437          6.516871   1.000000
    438          6.523363   1.000000
    439          6.529024   1.000000
    440          6.530103   1.000000
    441          6.541398   1.000000
    442          6.554109   1.000000
    443          6.562004   1.000000
    444          6.579903   1.000000
    445          6.593416   1.000000
    446          6.616978   1.000000
    447          6.649035   1.000000
    448          6.668501   1.000000
    449          6.678928   1.000000
    450          6.686374   1.000000
    451          6.697368   1.000000
    452          6.701395   1.000000
    453          6.750369   1.000000
    454          6.782760   1.000000
    455          6.811991   1.000000
    456          6.822423   1.000000
    457          6.867378   1.000000
    458          6.902110   1.000000
    459          6.909360   1.000000
    460          6.912665   1.000000
    461          6.921009   1.000000
    462          6.968233   1.000000
    463          7.001263   1.000000
    464          7.014927   1.000000
    465          7.015847   1.000000
    466          7.046186   1.000000
    467          7.095009   1.000000
    468          7.126219   1.000000
    469          7.148445   1.000000
    470          7.200201   1.000000
    471          7.204066   1.000000
    472          7.206926   1.000000
    473          7.213806   1.000000
    474          7.222536   1.000000
    475          7.234305   1.000000
    476          7.248777   1.000000
    477          7.258003   1.000000
    478          7.259752   1.000000
    479          7.271063   1.000000
    480          7.281281   1.000000
    481          7.296430   1.000000
    482          7.303854   1.000000
    483          7.308265   1.000000
    484          7.327691   1.000000
    485          7.342186   1.000000
    486          7.359526   1.000000
    487          7.382779   1.000000
    488          7.390659   1.000000
    489          7.404204   1.000000
    490          7.420377   1.000000
    491          7.430141   1.000000
    492          7.451622   1.000000
    493          7.472912   1.000000
    494          7.480688   1.000000
    495          7.490415   1.000000
    496          7.568480   1.000000
    497          7.586914   1.000000
    498          7.598899   1.000000
    499          7.624529   1.000000
    500          7.640211   1.000000
    501          7.674936   1.000000
    502          7.705221   1.000000
    503          7.720821   1.000000
    504          7.737953   1.000000
    505          7.780769   1.000000
    506          7.789905   1.000000
    507          7.794423   1.000000
    508          7.795456   1.000000
    509          7.817239   1.000000
    510          7.831572   1.000000
    511          7.846673   1.000000
    512          7.861318   1.000000
    513          7.864796   1.000000
    514          7.870975   1.000000
    515          7.914913   1.000000
    516          7.926297   1.000000
    517          7.931601   1.000000
    518          7.935930   1.000000
    519          7.946740   1.000000
    520          7.952069   1.000000
    521          7.977404   1.000000
    522          7.980518   1.000000
    523          8.025068   1.000000
    524          8.029952   1.000000
    525          8.052778   1.000000
    526          8.058670   1.000000
    527          8.075961   1.000000
    528          8.100327   1.000000
    529          8.118970   1.000000
    530          8.127194   1.000000
    531          8.129238   1.000000
    532          8.131902   1.000000
    533          8.141636   1.000000
    534          8.144284   1.000000
    535          8.173719   1.000000
    536          8.181892   1.000000
    537          8.208001   1.000001
    538          8.210234   1.000001
    539          8.225266   1.000001
    540          8.233221   1.000002
    541          8.237304   1.000002
    542          8.238451   1.000002
    543          8.250368   1.000003
    544          8.252932   1.000004
    545          8.260101   1.000005
    546          8.272616   1.000007
    547          8.294562   1.000014
    548          8.303646   1.000019
    549          8.307679   1.000021
    550          8.312360   1.000024
    551          8.320329   1.000031
    552          8.330067   1.000041
    553          8.342357   1.000059
    554          8.345142   1.000064
    555          8.346079   1.000066
    556          8.348287   1.000070
    557          8.352800   1.000080
    558          8.356351   1.000088
    559          8.364675   1.000111
    560          8.368762   1.000125
    561          8.394155   1.000245
    562          8.395162   1.000252
    563          8.585701   1.012122
    564          8.630179   1.021189
    565          8.634415   1.022159
    566          8.679105   1.031910
    567          8.712039   1.035451
    568          8.784305   1.005894
    569          8.794109   0.995273
    570          8.822153   0.953055
    571          8.849050   0.894553
    572          8.857561   0.872251
    573          8.863682   0.855099
    574          8.870020   0.836380
    575          8.874083   0.823880
    576          8.884291   0.790813
    577          8.934690   0.599331
    578          8.940307   0.575995
    579          9.009910   0.289653
    580          9.023618   0.239448
    581          9.028541   0.222293
    582          9.034697   0.201556
    583          9.049483   0.155208
    584          9.082203   0.071522
    585          9.098372   0.040084
    586          9.119011   0.009109
    587          9.151658  -0.021299
    588          9.166586  -0.028891
    589          9.181520  -0.033349
    590          9.205201  -0.035444
    591          9.217116  -0.034789
    592          9.229107  -0.033318
    593          9.240035  -0.031460
    594          9.252313  -0.028974
    595          9.263030  -0.026597
    596          9.281091  -0.022433
    597          9.290046  -0.020389
    598          9.296215  -0.019014
    599          9.298427  -0.018530
    600          9.300061  -0.018176
    601          9.310494  -0.015985
    602          9.312566  -0.015567
    603          9.317077  -0.014677
    604          9.320944  -0.013937
    605          9.323625  -0.013438
    606          9.330549  -0.012199
    607          9.337427  -0.011043
    608          9.343555  -0.010078
    609          9.346227  -0.009676
    610          9.349057  -0.009262
    611          9.370262  -0.006564
    612          9.413336  -0.002981
    613          9.419520  -0.002637
    614          9.463459  -0.001032
    615          9.486397  -0.000605
    616          9.489992  -0.000555
    617          9.500863  -0.000425
    618          9.507721  -0.000358
    619          9.510994  -0.000330
    620          9.519704  -0.000264
    621          9.523718  -0.000238
    622          9.536524  -0.000170
    623          9.548877  -0.000121
    624          9.556377  -0.000099
    625          9.571923  -0.000064
    626          9.574168  -0.000060
    627          9.586993  -0.000041
    628          9.592485  -0.000035
    629          9.605765  -0.000023
    630          9.608470  -0.000021
    631          9.615173  -0.000017
    632          9.621365  -0.000014
    633          9.628462  -0.000012
    634          9.633757  -0.000010
    635          9.667079  -0.000003
    636          9.692666  -0.000001
    637          9.701302  -0.000001
    638          9.708428  -0.000001
    639          9.731175  -0.000000
    640          9.737609  -0.000000
    641          9.750496  -0.000000
    642          9.756863  -0.000000
    643          9.769613  -0.000000
    644          9.782417  -0.000000
    645          9.794123  -0.000000
    646          9.805552  -0.000000
    647          9.812635  -0.000000
    648          9.835207  -0.000000
    649          9.840255  -0.000000
    650          9.854120  -0.000000
    651          9.877663  -0.000000
    652          9.878984  -0.000000
    653          9.886140  -0.000000
    654          9.892337  -0.000000
    655          9.905368  -0.000000
    656          9.908974  -0.000000
    657          9.916874  -0.000000
    658          9.925532  -0.000000
    659          9.946816  -0.000000
    660          9.952186  -0.000000
    661          9.961444  -0.000000
    662          9.993644  -0.000000
    663         10.003947  -0.000000
    664         10.024843  -0.000000
    665         10.032396  -0.000000
    666         10.046104  -0.000000
    667         10.059063  -0.000000
    668         10.065765  -0.000000
    669         10.067725  -0.000000
    670         10.073383  -0.000000
    671         10.074668  -0.000000
    672         10.083105  -0.000000
    673         10.089352  -0.000000
    674         10.097430  -0.000000
    675         10.102805  -0.000000
    676         10.112217  -0.000000
    677         10.115532  -0.000000
    678         10.120543  -0.000000
    679         10.127213  -0.000000
    680         10.131484  -0.000000
    681         10.138948  -0.000000
    682         10.152422  -0.000000
    683         10.158369  -0.000000
    684         10.163318  -0.000000
    685         10.170638  -0.000000
    686         10.172350  -0.000000
    687         10.180867  -0.000000
    688         10.186720  -0.000000
    689         10.191928  -0.000000
    690         10.197983  -0.000000
    691         10.205672  -0.000000
 
  0.2500000E+00  0.5000000E+00  0.3333333E+00  0.4166667E-01
      1        -39.890293   1.000000
      2        -39.877870   1.000000
      3        -39.872136   1.000000
      4        -39.867461   1.000000
      5        -39.861503   1.000000
      6        -39.856034   1.000000
      7        -39.841446   1.000000
      8        -39.831785   1.000000
      9        -39.829858   1.000000
     10        -39.827863   1.000000
     11        -39.823876   1.000000
     12        -39.820391   1.000000
     13        -39.817198   1.000000
     14        -39.816185   1.000000
     15        -39.811334   1.000000
     16        -39.805907   1.000000
     17        -39.801411   1.000000
     18        -39.799739   1.000000
     19        -39.798697   1.000000
     20        -39.796855   1.000000
     21        -39.795070   1.000000
     22        -39.793386   1.000000
     23        -39.791168   1.000000
     24        -39.789732   1.000000
     25        -39.788299   1.000000
     26        -39.784690   1.000000
     27        -39.782977   1.000000
     28        -39.781431   1.000000
     29        -39.779481   1.000000
     30        -39.778179   1.000000
     31        -39.776826   1.000000
     32        -39.775309   1.000000
     33        -39.774002   1.000000
     34        -39.772274   1.000000
     35        -39.770419   1.000000
     36        -39.769659   1.000000
     37        -39.768316   1.000000
     38        -39.766671   1.000000
     39        -39.764414   1.000000
     40        -39.762354   1.000000
     41        -39.760954   1.000000
     42        -39.759731   1.000000
     43        -39.758385   1.000000
     44        -39.757782   1.000000
     45        -39.756478   1.000000
     46        -39.756124   1.000000
     47        -39.755079   1.000000
     48        -39.754350   1.000000
     49        -39.753812   1.000000
     50        -39.753260   1.000000
     51        -39.752517   1.000000
     52        -39.751534   1.000000
     53        -39.750927   1.000000
     54        -39.749210   1.000000
     55        -39.748152   1.000000
     56        -39.746283   1.000000
     57        -39.745278   1.000000
     58        -39.744468   1.000000
     59        -39.743841   1.000000
     60        -39.743453   1.000000
     61        -39.742586   1.000000
     62        -39.741856   1.000000
     63        -39.740958   1.000000
     64        -39.740340   1.000000
     65        -39.738668   1.000000
     66        -39.737769   1.000000
     67        -39.736973   1.000000
     68        -39.735887   1.000000
     69        -39.735373   1.000000
     70        -39.734267   1.000000
     71        -39.733919   1.000000
     72        -39.733111   1.000000
     73        -39.731565   1.000000
     74        -39.730853   1.000000
     75        -39.729843   1.000000
     76        -39.728999   1.000000
     77        -39.728089   1.000000
     78        -39.727470   1.000000
     79        -39.726554   1.000000
     80        -39.725595   1.000000
     81        -39.724935   1.000000
     82        -39.724159   1.000000
     83        -39.723823   1.000000
     84        -39.723118   1.000000
     85        -39.722804   1.000000
     86        -39.722654   1.000000
     87        -39.721995   1.000000
     88        -39.721084   1.000000
     89        -39.720110   1.000000
     90        -39.718803   1.000000
     91        -39.718528   1.000000
     92        -39.717532   1.000000
     93        -39.716910   1.000000
     94        -39.715841   1.000000
     95        -39.714827   1.000000
     96        -39.714164   1.000000
     97        -18.356002   1.000000
     98        -18.318201   1.000000
     99        -18.312899   1.000000
    100        -18.296821   1.000000
    101        -18.284843   1.000000
    102        -18.278647   1.000000
    103        -18.276457   1.000000
    104        -18.274322   1.000000
    105        -18.266745   1.000000
    106        -18.263598   1.000000
    107        -18.261616   1.000000
    108        -18.257010   1.000000
    109        -18.255793   1.000000
    110        -18.254403   1.000000
    111        -18.251145   1.000000
    112        -18.242956   1.000000
    113        -18.240930   1.000000
    114        -18.237632   1.000000
    115        -18.233389   1.000000
    116        -18.232623   1.000000
    117        -18.231854   1.000000
    118        -18.230227   1.000000
    119        -18.228440   1.000000
    120        -18.226992   1.000000
    121        -18.220891   1.000000
    122        -18.217419   1.000000
    123        -18.216655   1.000000
    124        -18.214892   1.000000
    125        -18.213888   1.000000
    126        -18.213662   1.000000
    127        -18.211368   1.000000
    128        -18.210417   1.000000
    129        -18.209711   1.000000
    130        -18.208275   1.000000
    131        -18.200547   1.000000
    132        -18.198425   1.000000
    133        -18.195705   1.000000
    134        -18.194359   1.000000
    135        -18.193191   1.000000
    136        -18.191112   1.000000
    137        -18.189756   1.000000
    138        -18.185013   1.000000
    139        -18.178595   1.000000
    140        -18.172980   1.000000
    141        -18.171569   1.000000
    142        -18.169672   1.000000
    143        -18.167463   1.000000
    144        -18.166738   1.000000
    145        -18.165066   1.000000
    146        -18.158951   1.000000
    147        -18.154107   1.000000
    148        -18.141206   1.000000
    149        -18.118915   1.000000
    150        -18.116913   1.000000
    151        -18.115017   1.000000
    152        -18.113612   1.000000
    153        -18.113095   1.000000
    154        -18.111082   1.000000
    155        -18.110660   1.000000
    156        -18.109556   1.000000
    157        -18.108896   1.000000
    158        -18.107001   1.000000
    159        -18.087815   1.000000
    160        -18.085870   1.000000
    161        -18.077420   1.000000
    162        -18.059691   1.000000
    163        -18.057489   1.000000
    164        -18.052417   1.000000
    165        -18.050503   1.000000
    166        -18.048637   1.000000
    167        -18.045958   1.000000
    168        -18.044895   1.000000
    169        -18.043947   1.000000
    170        -18.043104   1.000000
    171        -18.042229   1.000000
    172        -18.040042   1.000000
    173        -18.038064   1.000000
    174        -18.034595   1.000000
    175        -18.033535   1.000000
    176        -18.029768   1.000000
    177        -18.027574   1.000000
    178        -18.026155   1.000000
    179        -18.004125   1.000000
    180        -17.985384   1.000000
    181        -17.981695   1.000000
    182        -17.979255   1.000000
    183        -17.974812   1.000000
    184        -17.972106   1.000000
    185        -17.966262   1.000000
    186        -17.963146   1.000000
    187        -17.955912   1.000000
    188        -17.950991   1.000000
    189        -17.940600   1.000000
    190        -17.939108   1.000000
    191        -17.938347   1.000000
    192        -17.931747   1.000000
    193        -17.930526   1.000000
    194        -17.924642   1.000000
    195        -17.921323   1.000000
    196        -17.915294   1.000000
    197        -17.912047   1.000000
    198        -17.911181   1.000000
    199        -17.907938   1.000000
    200        -17.897233   1.000000
    201        -17.895626   1.000000
    202        -17.893157   1.000000
    203        -17.892276   1.000000
    204        -17.890523   1.000000
    205        -17.888970   1.000000
    206        -17.886708   1.000000
    207        -17.886258   1.000000
    208        -17.883990   1.000000
    209        -17.874957   1.000000
    210        -17.863509   1.000000
    211        -17.860899   1.000000
    212        -17.854909   1.000000
    213        -17.853203   1.000000
    214        -17.849536   1.000000
    215        -17.833558   1.000000
    216        -17.832173   1.000000
    217        -17.830290   1.000000
    218        -17.824832   1.000000
    219        -17.820472   1.000000
    220        -17.817309   1.000000
    221        -17.814550   1.000000
    222        -17.814295   1.000000
    223        -17.802256   1.000000
    224        -17.792774   1.000000
    225        -17.783352   1.000000
    226        -17.772650   1.000000
    227        -17.768851   1.000000
    228        -17.765809   1.000000
    229        -17.764539   1.000000
    230        -17.763252   1.000000
    231        -17.760457   1.000000
    232        -17.759280   1.000000
    233        -17.756462   1.000000
    234        -17.753559   1.000000
    235        -17.751072   1.000000
    236        -17.750467   1.000000
    237        -17.745209   1.000000
    238        -17.740951   1.000000
    239        -17.738805   1.000000
    240        -17.733670   1.000000
    241        -17.732135   1.000000
    242        -17.731070   1.000000
    243        -17.729733   1.000000
    244        -17.728550   1.000000
    245        -17.726521   1.000000
    246        -17.725568   1.000000
    247        -17.723992   1.000000
    248        -17.723094   1.000000
    249        -17.722346   1.000000
    250        -17.720675   1.000000
    251        -17.720207   1.000000
    252        -17.718877   1.000000
    253        -17.718163   1.000000
    254        -17.716484   1.000000
    255        -17.712776   1.000000
    256        -17.711746   1.000000
    257        -17.710205   1.000000
    258        -17.710046   1.000000
    259        -17.708947   1.000000
    260        -17.706474   1.000000
    261        -17.704948   1.000000
    262        -17.702591   1.000000
    263        -17.700193   1.000000
    264        -17.697172   1.000000
    265        -17.694511   1.000000
    266        -17.685734   1.000000
    267        -17.683523   1.000000
    268        -17.682106   1.000000
    269        -17.680437   1.000000
    270        -17.680111   1.000000
    271        -17.677178   1.000000
    272        -17.676075   1.000000
    273        -17.674726   1.000000
    274        -17.669330   1.000000
    275        -17.668208   1.000000
    276        -17.667663   1.000000
    277        -17.666499   1.000000
    278        -17.664927   1.000000
    279        -17.663939   1.000000
    280        -17.663437   1.000000
    281        -17.650349   1.000000
    282        -17.649604   1.000000
    283        -17.648134   1.000000
    284        -17.646544   1.000000
    285        -17.640068   1.000000
    286        -17.638467   1.000000
    287        -17.632979   1.000000
    288        -17.629372   1.000000
    289        -17.627751   1.000000
    290        -17.626367   1.000000
    291        -17.624939   1.000000
    292        -17.624082   1.000000
    293        -17.622890   1.000000
    294        -17.622472   1.000000
    295        -17.621574   1.000000
    296        -17.621150   1.000000
    297        -17.620331   1.000000
    298        -17.619084   1.000000
    299        -17.617570   1.000000
    300        -17.615347   1.000000
    301        -17.614182   1.000000
    302        -17.613114   1.000000
    303        -17.612128   1.000000
    304        -17.611564   1.000000
    305        -17.610237   1.000000
    306        -17.609849   1.000000
    307        -17.608223   1.000000
    308        -17.607345   1.000000
    309        -17.606578   1.000000
    310        -17.600858   1.000000
    311        -17.600074   1.000000
    312        -17.596596   1.000000
    313        -17.593853   1.000000
    314        -17.593388   1.000000
    315        -17.592357   1.000000
    316        -17.590670   1.000000
    317        -17.589830   1.000000
    318        -17.589699   1.000000
    319        -17.588453   1.000000
    320        -17.587949   1.000000
    321        -17.585946   1.000000
    322        -17.585497   1.000000
    323        -17.584964   1.000000
    324        -17.583542   1.000000
    325        -17.582969   1.000000
    326        -17.582298   1.000000
    327        -17.581879   1.000000
    328        -17.581388   1.000000
    329        -17.580555   1.000000
    330        -17.579894   1.000000
    331        -17.579195   1.000000
    332        -17.578718   1.000000
    333        -17.577560   1.000000
    334        -17.576775   1.000000
    335        -17.575999   1.000000
    336        -17.575049   1.000000
    337        -17.573070   1.000000
    338        -17.571554   1.000000
    339        -17.570257   1.000000
    340        -17.568047   1.000000
    341        -17.567329   1.000000
    342        -17.565853   1.000000
    343        -17.564228   1.000000
    344        -17.562614   1.000000
    345        -17.560813   1.000000
    346        -17.554501   1.000000
    347        -17.553342   1.000000
    348        -17.552346   1.000000
    349        -17.551458   1.000000
    350        -17.542950   1.000000
    351        -17.541956   1.000000
    352        -17.541044   1.000000
    353        -17.538812   1.000000
    354        -17.537749   1.000000
    355        -17.535524   1.000000
    356        -17.534860   1.000000
    357        -17.534486   1.000000
    358        -17.533373   1.000000
    359        -17.529251   1.000000
    360        -17.527670   1.000000
    361        -17.526110   1.000000
    362        -17.521326   1.000000
    363        -17.520364   1.000000
    364        -17.518619   1.000000
    365        -17.517655   1.000000
    366        -17.517202   1.000000
    367        -17.516180   1.000000
    368        -17.515404   1.000000
    369        -17.513604   1.000000
    370        -17.512209   1.000000
    371        -17.511061   1.000000
    372        -17.493045   1.000000
    373        -17.488566   1.000000
    374        -17.485973   1.000000
    375        -17.471715   1.000000
    376        -17.468631   1.000000
    377        -17.467435   1.000000
    378        -17.466855   1.000000
    379        -17.463562   1.000000
    380        -17.454071   1.000000
    381        -17.453311   1.000000
    382        -17.448509   1.000000
    383        -17.448123   1.000000
    384        -17.435252   1.000000
    385          2.497727   1.000000
    386          3.762315   1.000000
    387          4.028536   1.000000
    388          4.116982   1.000000
    389          4.204532   1.000000
    390          4.381297   1.000000
    391          4.493135   1.000000
    392          5.006731   1.000000
    393          5.150405   1.000000
    394          5.184648   1.000000
    395          5.314266   1.000000
    396          5.321476   1.000000
    397          5.332788   1.000000
    398          5.408656   1.000000
    399          5.557018   1.000000
    400          5.741991   1.000000
    401          5.790505   1.000000
    402          5.797710   1.000000
    403          5.818298   1.000000
    404          5.827956   1.000000
    405          5.858463   1.000000
    406          5.864296   1.000000
    407          5.902526   1.000000
    408          6.003625   1.000000
    409          6.005827   1.000000
    410          6.010139   1.000000
    411          6.040003   1.000000
    412          6.106595   1.000000
    413          6.112078   1.000000
    414          6.115274   1.000000
    415          6.120825   1.000000
    416          6.125013   1.000000
    417          6.143305   1.000000
    418          6.153590   1.000000
    419          6.163033   1.000000
    420          6.183548   1.000000
    421          6.207037   1.000000
    422          6.212452   1.000000
    423          6.227096   1.000000
    424          6.246689   1.000000
    425          6.285744   1.000000
    426          6.311473   1.000000
    427          6.315615   1.000000
    428          6.329239   1.000000
    429          6.335646   1.000000
    430          6.368736   1.000000
    431          6.396298   1.000000
    432          6.419741   1.000000
    433          6.441918   1.000000
    434          6.455479   1.000000
    435          6.477171   1.000000
    436          6.507732   1.000000
    437          6.517021   1.000000
    438          6.522809   1.000000
    439          6.529416   1.000000
    440          6.530836   1.000000
    441          6.540951   1.000000
    442          6.554196   1.000000
    443          6.561833   1.000000
    444          6.579902   1.000000
    445          6.593976   1.000000
    446          6.617425   1.000000
    447          6.650179   1.000000
    448          6.668140   1.000000
    449          6.679511   1.000000
    450          6.686254   1.000000
    451          6.697549   1.000000
    452          6.701502   1.000000
    453          6.747141   1.000000
    454          6.782756   1.000000
    455          6.812998   1.000000
    456          6.821692   1.000000
    457          6.869894   1.000000
    458          6.901878   1.000000
    459          6.909459   1.000000
    460          6.912834   1.000000
    461          6.919861   1.000000
    462          6.965464   1.000000
    463          7.000686   1.000000
    464          7.014257   1.000000
    465          7.016215   1.000000
    466          7.047252   1.000000
    467          7.098527   1.000000
    468          7.126819   1.000000
    469          7.147028   1.000000
    470          7.200024   1.000000
    471          7.203538   1.000000
    472          7.207058   1.000000
    473          7.214579   1.000000
    474          7.222618   1.000000
    475          7.232463   1.000000
    476          7.249470   1.000000
    477          7.256841   1.000000
    478          7.259950   1.000000
    479          7.271566   1.000000
    480          7.281412   1.000000
    481          7.294731   1.000000
    482          7.303285   1.000000
    483          7.308121   1.000000
    484          7.326696   1.000000
    485          7.342226   1.000000
    486          7.360526   1.000000
    487          7.383761   1.000000
    488          7.390661   1.000000
    489          7.406014   1.000000
    490          7.419963   1.000000
    491          7.429762   1.000000
    492          7.451390   1.000000
    493          7.474479   1.000000
    494          7.477681   1.000000
    495          7.490118   1.000000
    496          7.571584   1.000000
    497          7.586789   1.000000
    498          7.598400   1.000000
    499          7.624686   1.000000
    500          7.639901   1.000000
    501          7.674541   1.000000
    502          7.706195   1.000000
    503          7.723489   1.000000
    504          7.737811   1.000000
    505          7.781386   1.000000
    506          7.790252   1.000000
    507          7.794619   1.000000
    508          7.795954   1.000000
    509          7.818151   1.000000
    510          7.832400   1.000000
    511          7.847898   1.000000
    512          7.859937   1.000000
    513          7.864928   1.000000
    514          7.871298   1.000000
    515          7.914720   1.000000
    516          7.926070   1.000000
    517          7.932244   1.000000
    518          7.936025   1.000000
    519          7.945033   1.000000
    520          7.952699   1.000000
    521          7.977749   1.000000
    522          7.980239   1.000000
    523          8.026247   1.000000
    524          8.029131   1.000000
    525          8.050190   1.000000
    526          8.058674   1.000000
    527          8.075341   1.000000
    528          8.100462   1.000000
    529          8.117963   1.000000
    530          8.126481   1.000000
    531          8.130082   1.000000
    532          8.132557   1.000000
    533          8.142152   1.000000
    534          8.144539   1.000000
    535          8.176409   1.000000
    536          8.183367   1.000000
    537          8.207155   1.000001
    538          8.210866   1.000001
    539          8.224449   1.000001
    540          8.232801   1.000002
    541          8.235844   1.000002
    542          8.240889   1.000002
    543          8.251171   1.000003
    544          8.253740   1.000004
    545          8.259912   1.000005
    546          8.272765   1.000007
    547          8.291303   1.000013
    548          8.305217   1.000020
    549          8.308064   1.000021
    550          8.312481   1.000024
    551          8.319449   1.000030
    552          8.330174   1.000042
    553          8.342116   1.000059
    554          8.344663   1.000063
    555          8.346407   1.000067
    556          8.348495   1.000071
    557          8.352234   1.000079
    558          8.356226   1.000088
    559          8.365418   1.000114
    560          8.368422   1.000123
    561          8.393844   1.000243
    562          8.394528   1.000248
    563          8.584101   1.011847
    564          8.628124   1.020722
    565          8.634612   1.022204
    566          8.681032   1.032252
    567          8.712383   1.035454
    568          8.783534   1.006646
    569          8.795886   0.993130
    570          8.821975   0.953381
    571          8.849184   0.894217
    572          8.857911   0.871295
    573          8.863212   0.856449
    574          8.870565   0.834727
    575          8.873039   0.827128
    576          8.883687   0.792836
    577          8.932264   0.609336
    578          8.940875   0.573621
    579          9.012370   0.280395
    580          9.021518   0.246911
    581          9.026075   0.230826
    582          9.036125   0.196864
    583          9.052211   0.147216
    584          9.078825   0.078917
    585          9.098288   0.040231
    586          9.116068   0.012926
    587          9.160855  -0.026380
    588          9.165905  -0.028617
    589          9.186303  -0.034212
    590          9.204962  -0.035447
    591          9.214365  -0.035020
    592          9.226964  -0.033630
    593          9.239385  -0.031581
    594          9.252505  -0.028932
    595          9.264543  -0.026251
    596          9.284304  -0.021695
    597          9.289238  -0.020571
    598          9.295247  -0.019228
    599          9.296581  -0.018934
    600          9.299831  -0.018225
    601          9.310635  -0.015957
    602          9.312298  -0.015621
    603          9.316511  -0.014787
    604          9.319676  -0.014178
    605          9.323222  -0.013512
    606          9.328954  -0.012478
    607          9.337309  -0.011063
    608          9.341461  -0.010401
    609          9.346375  -0.009654
    610          9.350138  -0.009108
    611          9.370667  -0.006519
    612          9.414135  -0.002935
    613          9.420042  -0.002610
    614          9.466307  -0.000968
    615          9.484622  -0.000631
    616          9.489930  -0.000556
    617          9.500668  -0.000427
    618          9.505650  -0.000377
    619          9.510477  -0.000334
    620          9.519689  -0.000264
    621          9.523146  -0.000242
    622          9.537055  -0.000167
    623          9.550603  -0.000116
    624          9.556134  -0.000099
    625          9.571145  -0.000065
    626          9.574826  -0.000058
    627          9.587234  -0.000041
    628          9.591771  -0.000036
    629          9.605571  -0.000023
    630          9.607135  -0.000022
    631          9.616312  -0.000017
    632          9.622297  -0.000014
    633          9.627626  -0.000012
    634          9.634263  -0.000010
    635          9.666869  -0.000003
    636          9.693963  -0.000001
    637          9.703211  -0.000001
    638          9.707890  -0.000001
    639          9.732180  -0.000000
    640          9.737436  -0.000000
    641          9.751015  -0.000000
    642          9.756299  -0.000000
    643          9.763395  -0.000000
    644          9.782549  -0.000000
    645          9.791282  -0.000000
    646          9.805661  -0.000000
    647          9.813354  -0.000000
    648          9.835011  -0.000000
    649          9.838854  -0.000000
    650          9.852954  -0.000000
    651          9.875367  -0.000000
    652          9.877686  -0.000000
    653          9.886785  -0.000000
    654          9.892224  -0.000000
    655          9.904372  -0.000000
    656          9.909017  -0.000000
    657          9.917562  -0.000000
    658          9.928494  -0.000000
    659          9.947659  -0.000000
    660          9.952237  -0.000000
    661          9.962368  -0.000000
    662          9.997782  -0.000000
    663         10.003718  -0.000000
    664         10.021187  -0.000000
    665         10.032489  -0.000000
    666         10.047486  -0.000000
    667         10.055334  -0.000000
    668         10.067281  -0.000000
    669         10.069423  -0.000000
    670         10.074135  -0.000000
    671         10.076512  -0.000000
    672         10.082666  -0.000000
    673         10.090634  -0.000000
    674         10.097405  -0.000000
    675         10.102293  -0.000000
    676         10.112247  -0.000000
    677         10.116254  -0.000000
    678         10.121506  -0.000000
    679         10.127302  -0.000000
    680         10.131194  -0.000000
    681         10.139090  -0.000000
    682         10.152696  -0.000000
    683         10.159950  -0.000000
    684         10.163388  -0.000000
    685         10.170314  -0.000000
    686         10.174491  -0.000000
    687         10.180911  -0.000000
    688         10.186765  -0.000000
    689         10.189745  -0.000000
    690         10.198037  -0.000000
    691         10.204963  -0.000000
 
  0.5000000E+00 -0.2500000E+00  0.3333333E+00  0.4166667E-01
      1        -39.890479   1.000000
      2        -39.877703   1.000000
      3        -39.871271   1.000000
      4        -39.868130   1.000000
      5        -39.860800   1.000000
      6        -39.857301   1.000000
      7        -39.838985   1.000000
      8        -39.836904   1.000000
      9        -39.829319   1.000000
     10        -39.825031   1.000000
     11        -39.824329   1.000000
     12        -39.820351   1.000000
     13        -39.817632   1.000000
     14        -39.813703   1.000000
     15        -39.811284   1.000000
     16        -39.807037   1.000000
     17        -39.802865   1.000000
     18        -39.799775   1.000000
     19        -39.798815   1.000000
     20        -39.796164   1.000000
     21        -39.795694   1.000000
     22        -39.793155   1.000000
     23        -39.791553   1.000000
     24        -39.790151   1.000000
     25        -39.787689   1.000000
     26        -39.784304   1.000000
     27        -39.782107   1.000000
     28        -39.781603   1.000000
     29        -39.779669   1.000000
     30        -39.778144   1.000000
     31        -39.776719   1.000000
     32        -39.775775   1.000000
     33        -39.773810   1.000000
     34        -39.771638   1.000000
     35        -39.770755   1.000000
     36        -39.770297   1.000000
     37        -39.768169   1.000000
     38        -39.766148   1.000000
     39        -39.765182   1.000000
     40        -39.762312   1.000000
     41        -39.760703   1.000000
     42        -39.759783   1.000000
     43        -39.758217   1.000000
     44        -39.757853   1.000000
     45        -39.756933   1.000000
     46        -39.756167   1.000000
     47        -39.754826   1.000000
     48        -39.754374   1.000000
     49        -39.753597   1.000000
     50        -39.753059   1.000000
     51        -39.752402   1.000000
     52        -39.751242   1.000000
     53        -39.750977   1.000000
     54        -39.749661   1.000000
     55        -39.748565   1.000000
     56        -39.746488   1.000000
     57        -39.745161   1.000000
     58        -39.744278   1.000000
     59        -39.743734   1.000000
     60        -39.743362   1.000000
     61        -39.742655   1.000000
     62        -39.741654   1.000000
     63        -39.740876   1.000000
     64        -39.740196   1.000000
     65        -39.738892   1.000000
     66        -39.737871   1.000000
     67        -39.736802   1.000000
     68        -39.735974   1.000000
     69        -39.735568   1.000000
     70        -39.734190   1.000000
     71        -39.733795   1.000000
     72        -39.733286   1.000000
     73        -39.731533   1.000000
     74        -39.730416   1.000000
     75        -39.730050   1.000000
     76        -39.728983   1.000000
     77        -39.728091   1.000000
     78        -39.727281   1.000000
     79        -39.726800   1.000000
     80        -39.725571   1.000000
     81        -39.725106   1.000000
     82        -39.724369   1.000000
     83        -39.723898   1.000000
     84        -39.723316   1.000000
     85        -39.722888   1.000000
     86        -39.722589   1.000000
     87        -39.721838   1.000000
     88        -39.721317   1.000000
     89        -39.719622   1.000000
     90        -39.719076   1.000000
     91        -39.717806   1.000000
     92        -39.717582   1.000000
     93        -39.716925   1.000000
     94        -39.715852   1.000000
     95        -39.715043   1.000000
     96        -39.714234   1.000000
     97        -18.355990   1.000000
     98        -18.318118   1.000000
     99        -18.312960   1.000000
    100        -18.296760   1.000000
    101        -18.285066   1.000000
    102        -18.278865   1.000000
    103        -18.276514   1.000000
    104        -18.274300   1.000000
    105        -18.266725   1.000000
    106        -18.262949   1.000000
    107        -18.261967   1.000000
    108        -18.257022   1.000000
    109        -18.255586   1.000000
    110        -18.254514   1.000000
    111        -18.251309   1.000000
    112        -18.243323   1.000000
    113        -18.241236   1.000000
    114        -18.237649   1.000000
    115        -18.233200   1.000000
    116        -18.232508   1.000000
    117        -18.231486   1.000000
    118        -18.230106   1.000000
    119        -18.228362   1.000000
    120        -18.226677   1.000000
    121        -18.221127   1.000000
    122        -18.217490   1.000000
    123        -18.216758   1.000000
    124        -18.214719   1.000000
    125        -18.214208   1.000000
    126        -18.213539   1.000000
    127        -18.211212   1.000000
    128        -18.210969   1.000000
    129        -18.209234   1.000000
    130        -18.208223   1.000000
    131        -18.200217   1.000000
    132        -18.198436   1.000000
    133        -18.195132   1.000000
    134        -18.194695   1.000000
    135        -18.193528   1.000000
    136        -18.191068   1.000000
    137        -18.189634   1.000000
    138        -18.185263   1.000000
    139        -18.178464   1.000000
    140        -18.173086   1.000000
    141        -18.171533   1.000000
    142        -18.169649   1.000000
    143        -18.167449   1.000000
    144        -18.166838   1.000000
    145        -18.165265   1.000000
    146        -18.158977   1.000000
    147        -18.154342   1.000000
    148        -18.141010   1.000000
    149        -18.119082   1.000000
    150        -18.116830   1.000000
    151        -18.115024   1.000000
    152        -18.113976   1.000000
    153        -18.113147   1.000000
    154        -18.110895   1.000000
    155        -18.110692   1.000000
    156        -18.109750   1.000000
    157        -18.108819   1.000000
    158        -18.106777   1.000000
    159        -18.087528   1.000000
    160        -18.085998   1.000000
    161        -18.077324   1.000000
    162        -18.059891   1.000000
    163        -18.057555   1.000000
    164        -18.052021   1.000000
    165        -18.050800   1.000000
    166        -18.048408   1.000000
    167        -18.046277   1.000000
    168        -18.044411   1.000000
    169        -18.043974   1.000000
    170        -18.043500   1.000000
    171        -18.042147   1.000000
    172        -18.040302   1.000000
    173        -18.038094   1.000000
    174        -18.034276   1.000000
    175        -18.033402   1.000000
    176        -18.029663   1.000000
    177        -18.027484   1.000000
    178        -18.026150   1.000000
    179        -18.004279   1.000000
    180        -17.985577   1.000000
    181        -17.981217   1.000000
    182        -17.979644   1.000000
    183        -17.974942   1.000000
    184        -17.971902   1.000000
    185        -17.966171   1.000000
    186        -17.963171   1.000000
    187        -17.955611   1.000000
    188        -17.951055   1.000000
    189        -17.940634   1.000000
    190        -17.939220   1.000000
    191        -17.938532   1.000000
    192        -17.931675   1.000000
    193        -17.930299   1.000000
    194        -17.924625   1.000000
    195        -17.921429   1.000000
    196        -17.914994   1.000000
    197        -17.912060   1.000000
    198        -17.910991   1.000000
    199        -17.908144   1.000000
    200        -17.897051   1.000000
    201        -17.895435   1.000000
    202        -17.892944   1.000000
    203        -17.892155   1.000000
    204        -17.891073   1.000000
    205        -17.889192   1.000000
    206        -17.886690   1.000000
    207        -17.886496   1.000000
    208        -17.883958   1.000000
    209        -17.875005   1.000000
    210        -17.863296   1.000000
    211        -17.860956   1.000000
    212        -17.854999   1.000000
    213        -17.853309   1.000000
    214        -17.849559   1.000000
    215        -17.833206   1.000000
    216        -17.832616   1.000000
    217        -17.830109   1.000000
    218        -17.824680   1.000000
    219        -17.820471   1.000000
    220        -17.817329   1.000000
    221        -17.814681   1.000000
    222        -17.814250   1.000000
    223        -17.802570   1.000000
    224        -17.793033   1.000000
    225        -17.783190   1.000000
    226        -17.770960   1.000000
    227        -17.769582   1.000000
    228        -17.766104   1.000000
    229        -17.764550   1.000000
    230        -17.763303   1.000000
    231        -17.761039   1.000000
    232        -17.759530   1.000000
    233        -17.756741   1.000000
    234        -17.753058   1.000000
    235        -17.751561   1.000000
    236        -17.750174   1.000000
    237        -17.744933   1.000000
    238        -17.740777   1.000000
    239        -17.738989   1.000000
    240        -17.734104   1.000000
    241        -17.732437   1.000000
    242        -17.731428   1.000000
    243        -17.729516   1.000000
    244        -17.728289   1.000000
    245        -17.726342   1.000000
    246        -17.724659   1.000000
    247        -17.723745   1.000000
    248        -17.723055   1.000000
    249        -17.722369   1.000000
    250        -17.721016   1.000000
    251        -17.720318   1.000000
    252        -17.718603   1.000000
    253        -17.718231   1.000000
    254        -17.716885   1.000000
    255        -17.712675   1.000000
    256        -17.712036   1.000000
    257        -17.710362   1.000000
    258        -17.709780   1.000000
    259        -17.709200   1.000000
    260        -17.706067   1.000000
    261        -17.704772   1.000000
    262        -17.702756   1.000000
    263        -17.700066   1.000000
    264        -17.697260   1.000000
    265        -17.694997   1.000000
    266        -17.684959   1.000000
    267        -17.683392   1.000000
    268        -17.682048   1.000000
    269        -17.680641   1.000000
    270        -17.679843   1.000000
    271        -17.677222   1.000000
    272        -17.676194   1.000000
    273        -17.674840   1.000000
    274        -17.668775   1.000000
    275        -17.668049   1.000000
    276        -17.667647   1.000000
    277        -17.666952   1.000000
    278        -17.664835   1.000000
    279        -17.664291   1.000000
    280        -17.663342   1.000000
    281        -17.650915   1.000000
    282        -17.649657   1.000000
    283        -17.647346   1.000000
    284        -17.646757   1.000000
    285        -17.639899   1.000000
    286        -17.638378   1.000000
    287        -17.632855   1.000000
    288        -17.629628   1.000000
    289        -17.627991   1.000000
    290        -17.626557   1.000000
    291        -17.625451   1.000000
    292        -17.624320   1.000000
    293        -17.622978   1.000000
    294        -17.622485   1.000000
    295        -17.621719   1.000000
    296        -17.620880   1.000000
    297        -17.620246   1.000000
    298        -17.619137   1.000000
    299        -17.616894   1.000000
    300        -17.615429   1.000000
    301        -17.614116   1.000000
    302        -17.613057   1.000000
    303        -17.612313   1.000000
    304        -17.611488   1.000000
    305        -17.610366   1.000000
    306        -17.609707   1.000000
    307        -17.608142   1.000000
    308        -17.607531   1.000000
    309        -17.606536   1.000000
    310        -17.600860   1.000000
    311        -17.600326   1.000000
    312        -17.596380   1.000000
    313        -17.593907   1.000000
    314        -17.593543   1.000000
    315        -17.592483   1.000000
    316        -17.591194   1.000000
    317        -17.589808   1.000000
    318        -17.589132   1.000000
    319        -17.588420   1.000000
    320        -17.587748   1.000000
    321        -17.585915   1.000000
    322        -17.585807   1.000000
    323        -17.584783   1.000000
    324        -17.583389   1.000000
    325        -17.582996   1.000000
    326        -17.582449   1.000000
    327        -17.582128   1.000000
    328        -17.581667   1.000000
    329        -17.580527   1.000000
    330        -17.579918   1.000000
    331        -17.579018   1.000000
    332        -17.578647   1.000000
    333        -17.577508   1.000000
    334        -17.577048   1.000000
    335        -17.576052   1.000000
    336        -17.575169   1.000000
    337        -17.573089   1.000000
    338        -17.571594   1.000000
    339        -17.570173   1.000000
    340        -17.568128   1.000000
    341        -17.566937   1.000000
    342        -17.565840   1.000000
    343        -17.563392   1.000000
    344        -17.562669   1.000000
    345        -17.560795   1.000000
    346        -17.554659   1.000000
    347        -17.553563   1.000000
    348        -17.552553   1.000000
    349        -17.551754   1.000000
    350        -17.542744   1.000000
    351        -17.542397   1.000000
    352        -17.541014   1.000000
    353        -17.538663   1.000000
    354        -17.537629   1.000000
    355        -17.535870   1.000000
    356        -17.534640   1.000000
    357        -17.534326   1.000000
    358        -17.533403   1.000000
    359        -17.529223   1.000000
    360        -17.527632   1.000000
    361        -17.526051   1.000000
    362        -17.521322   1.000000
    363        -17.520619   1.000000
    364        -17.518553   1.000000
    365        -17.517587   1.000000
    366        -17.517044   1.000000
    367        -17.516069   1.000000
    368        -17.515466   1.000000
    369        -17.513580   1.000000
    370        -17.512321   1.000000
    371        -17.510767   1.000000
    372        -17.493054   1.000000
    373        -17.488281   1.000000
    374        -17.485956   1.000000
    375        -17.471555   1.000000
    376        -17.468444   1.000000
    377        -17.467604   1.000000
    378        -17.467264   1.000000
    379        -17.463449   1.000000
    380        -17.453932   1.000000
    381        -17.453457   1.000000
    382        -17.448532   1.000000
    383        -17.448055   1.000000
    384        -17.435339   1.000000
    385          2.497493   1.000000
    386          3.762381   1.000000
    387          4.028573   1.000000
    388          4.117137   1.000000
    389          4.205216   1.000000
    390          4.381456   1.000000
    391          4.492986   1.000000
    392          5.006924   1.000000
    393          5.150711   1.000000
    394          5.183339   1.000000
    395          5.314351   1.000000
    396          5.321364   1.000000
    397          5.333057   1.000000
    398          5.406970   1.000000
    399          5.556592   1.000000
    400          5.741687   1.000000
    401          5.790713   1.000000
    402          5.797882   1.000000
    403          5.818333   1.000000
    404          5.828432   1.000000
    405          5.858373   1.000000
    406          5.864333   1.000000
    407          5.903968   1.000000
    408          6.003897   1.000000
    409          6.006186   1.000000
    410          6.010062   1.000000
    411          6.040041   1.000000
    412          6.105644   1.000000
    413          6.112173   1.000000
    414          6.115407   1.000000
    415          6.120538   1.000000
    416          6.125595   1.000000
    417          6.145934   1.000000
    418          6.153417   1.000000
    419          6.162757   1.000000
    420          6.185102   1.000000
    421          6.206426   1.000000
    422          6.211996   1.000000
    423          6.226412   1.000000
    424          6.246030   1.000000
    425          6.285500   1.000000
    426          6.312009   1.000000
    427          6.315869   1.000000
    428          6.328862   1.000000
    429          6.335498   1.000000
    430          6.367364   1.000000
    431          6.395827   1.000000
    432          6.420347   1.000000
    433          6.441623   1.000000
    434          6.455670   1.000000
    435          6.478262   1.000000
    436          6.507121   1.000000
    437          6.516963   1.000000
    438          6.523353   1.000000
    439          6.529443   1.000000
    440          6.530405   1.000000
    441          6.541724   1.000000
    442          6.554136   1.000000
    443          6.562010   1.000000
    444          6.580100   1.000000
    445          6.593370   1.000000
    446          6.617809   1.000000
    447          6.649134   1.000000
    448          6.668189   1.000000
    449          6.679022   1.000000
    450          6.686165   1.000000
    451          6.697627   1.000000
    452          6.701174   1.000000
    453          6.750113   1.000000
    454          6.782271   1.000000
    455          6.812073   1.000000
    456          6.823145   1.000000
    457          6.867459   1.000000
    458          6.902077   1.000000
    459          6.909432   1.000000
    460          6.912927   1.000000
    461          6.920458   1.000000
    462          6.969234   1.000000
    463          7.000811   1.000000
    464          7.014746   1.000000
    465          7.016129   1.000000
    466          7.046543   1.000000
    467          7.094860   1.000000
    468          7.126562   1.000000
    469          7.148075   1.000000
    470          7.200734   1.000000
    471          7.203934   1.000000
    472          7.206679   1.000000
    473          7.212753   1.000000
    474          7.222256   1.000000
    475          7.233010   1.000000
    476          7.248997   1.000000
    477          7.258234   1.000000
    478          7.259842   1.000000
    479          7.270835   1.000000
    480          7.281296   1.000000
    481          7.293691   1.000000
    482          7.304106   1.000000
    483          7.308260   1.000000
    484          7.327578   1.000000
    485          7.342804   1.000000
    486          7.361667   1.000000
    487          7.382639   1.000000
    488          7.391210   1.000000
    489          7.407676   1.000000
    490          7.419777   1.000000
    491          7.430265   1.000000
    492          7.450322   1.000000
    493          7.473159   1.000000
    494          7.477972   1.000000
    495          7.490800   1.000000
    496          7.570852   1.000000
    497          7.586853   1.000000
    498          7.597749   1.000000
    499          7.626062   1.000000
    500          7.640386   1.000000
    501          7.674895   1.000000
    502          7.704801   1.000000
    503          7.720223   1.000000
    504          7.736917   1.000000
    505          7.780870   1.000000
    506          7.789807   1.000000
    507          7.793770   1.000000
    508          7.795889   1.000000
    509          7.817121   1.000000
    510          7.831839   1.000000
    511          7.846373   1.000000
    512          7.861218   1.000000
    513          7.865413   1.000000
    514          7.871459   1.000000
    515          7.914345   1.000000
    516          7.924598   1.000000
    517          7.931864   1.000000
    518          7.935378   1.000000
    519          7.946372   1.000000
    520          7.952058   1.000000
    521          7.978870   1.000000
    522          7.979763   1.000000
    523          8.026016   1.000000
    524          8.030164   1.000000
    525          8.053371   1.000000
    526          8.056914   1.000000
    527          8.078420   1.000000
    528          8.099904   1.000000
    529          8.118741   1.000000
    530          8.126168   1.000000
    531          8.129609   1.000000
    532          8.132720   1.000000
    533          8.142260   1.000000
    534          8.144110   1.000000
    535          8.174433   1.000000
    536          8.180970   1.000000
    537          8.207844   1.000001
    538          8.210126   1.000001
    539          8.226023   1.000001
    540          8.234251   1.000002
    541          8.235698   1.000002
    542          8.239557   1.000002
    543          8.250480   1.000003
    544          8.253151   1.000004
    545          8.258403   1.000004
    546          8.272764   1.000007
    547          8.295905   1.000015
    548          8.304069   1.000019
    549          8.307447   1.000021
    550          8.312104   1.000024
    551          8.319164   1.000030
    552          8.329219   1.000040
    553          8.342128   1.000059
    554          8.345551   1.000065
    555          8.345931   1.000066
    556          8.348569   1.000071
    557          8.352757   1.000080
    558          8.356817   1.000089
    559          8.364937   1.000112
    560          8.367712   1.000121
    561          8.393979   1.000244
    562          8.395001   1.000251
    563          8.582819   1.011630
    564          8.627907   1.020673
    565          8.634030   1.022070
    566          8.684615   1.032854
    567          8.712018   1.035451
    568          8.786897   1.003279
    569          8.793622   0.995848
    570          8.825038   0.947647
    571          8.848683   0.895476
    572          8.856904   0.874036
    573          8.862668   0.858004
    574          8.870408   0.835204
    575          8.873969   0.824237
    576          8.883810   0.792422
    577          8.933836   0.602859
    578          8.940551   0.574973
    579          9.015628   0.268298
    580          9.022615   0.243002
    581          9.029658   0.218474
    582          9.033116   0.206806
    583          9.047573   0.160910
    584          9.085235   0.065130
    585          9.093050   0.049717
    586          9.117187   0.011452
    587          9.143246  -0.015413
    588          9.168086  -0.029470
    589          9.183906  -0.033811
    590          9.202864  -0.035457
    591          9.222608  -0.034202
    592          9.228095  -0.033468
    593          9.240662  -0.031341
    594          9.252904  -0.028847
    595          9.264285  -0.026310
    596          9.283381  -0.021906
    597          9.288980  -0.020630
    598          9.295749  -0.019117
    599          9.299151  -0.018373
    600          9.301019  -0.017969
    601          9.310768  -0.015930
    602          9.312103  -0.015660
    603          9.317196  -0.014654
    604          9.320185  -0.014081
    605          9.323229  -0.013511
    606          9.330377  -0.012229
    607          9.337436  -0.011042
    608          9.343699  -0.010056
    609          9.347414  -0.009501
    610          9.349541  -0.009193
    611          9.371300  -0.006449
    612          9.414219  -0.002930
    613          9.418640  -0.002684
    614          9.468212  -0.000926
    615          9.483565  -0.000647
    616          9.489625  -0.000560
    617          9.500746  -0.000427
    618          9.506698  -0.000368
    619          9.509397  -0.000344
    620          9.519521  -0.000265
    621          9.524571  -0.000233
    622          9.535592  -0.000174
    623          9.548670  -0.000122
    624          9.556335  -0.000099
    625          9.571057  -0.000065
    626          9.574733  -0.000059
    627          9.588048  -0.000040
    628          9.591780  -0.000036
    629          9.601866  -0.000026
    630          9.608458  -0.000021
    631          9.615523  -0.000017
    632          9.622416  -0.000014
    633          9.627831  -0.000012
    634          9.633322  -0.000010
    635          9.666341  -0.000003
    636          9.690418  -0.000001
    637          9.703026  -0.000001
    638          9.708050  -0.000001
    639          9.731256  -0.000000
    640          9.738194  -0.000000
    641          9.751752  -0.000000
    642          9.756802  -0.000000
    643          9.768399  -0.000000
    644          9.784646  -0.000000
    645          9.792963  -0.000000
    646          9.806920  -0.000000
    647          9.813056  -0.000000
    648          9.834575  -0.000000
    649          9.840248  -0.000000
    650          9.852874  -0.000000
    651          9.875838  -0.000000
    652          9.881321  -0.000000
    653          9.886045  -0.000000
    654          9.892909  -0.000000
    655          9.905846  -0.000000
    656          9.908420  -0.000000
    657          9.915917  -0.000000
    658          9.926536  -0.000000
    659          9.946509  -0.000000
    660          9.950632  -0.000000
    661          9.961775  -0.000000
    662          9.993825  -0.000000
    663         10.004712  -0.000000
    664         10.025285  -0.000000
    665         10.032545  -0.000000
    666         10.051649  -0.000000
    667         10.057192  -0.000000
    668         10.066097  -0.000000
    669         10.068528  -0.000000
    670         10.073522  -0.000000
    671         10.075568  -0.000000
    672         10.080924  -0.000000
    673         10.090391  -0.000000
    674         10.095406  -0.000000
    675         10.102541  -0.000000
    676         10.112219  -0.000000
    677         10.116759  -0.000000
    678         10.120016  -0.000000
    679         10.125810  -0.000000
    680         10.130674  -0.000000
    681         10.139158  -0.000000
    682         10.153099  -0.000000
    683         10.158023  -0.000000
    684         10.163688  -0.000000
    685         10.169999  -0.000000
    686         10.173445  -0.000000
    687         10.180709  -0.000000
    688         10.187033  -0.000000
    689         10.189479  -0.000000
    690         10.197716  -0.000000
    691         10.206692  -0.000000
