TO image 04
1.0
      6.46831269532822    -11.20344622755126      0.00000000000000
      6.46831269532822     11.20344622755126      0.00000000000000
      0.00000000000000      0.00000000000000     15.49806442517753
  Zr  H
  96  1
Direct
      0.08319369355162      0.16641610141855      0.08302346907390
      0.16644169725935      0.08323677887802      0.24988906044773
      0.08340688610196      0.16710246199299      0.41614555176105
      0.16698781030228      0.08345190164564      0.58383929624311
      0.08300181280382      0.16618500388614      0.75027148955494
      0.16650498869987      0.08320048259545      0.91698103604493
      0.08319369956757      0.41677759310273      0.08302346389115
      0.16632290895579      0.33316146090452      0.24938638122192
      0.08340688302560      0.41630442855324      0.41614554660166
      0.16500984839469      0.33250492569298      0.58417843110494
      0.08300181019312      0.41681681199851      0.75027149928376
      0.16682969504047      0.33341485097378      0.91662628069872
      0.08342542409574      0.66686386099723      0.08345732458287
      0.16644170359237      0.58320492274138      0.24988906261151
      0.08315407069025      0.66627602562069      0.41683893546284
      0.16698780438378      0.58353590683411      0.58383929752983
      0.08352977837386      0.66702851922119      0.75027110390994
      0.16650499443424      0.58330450156634      0.91698103391107
      0.08342541953474      0.91656156534091      0.08345732159362
      0.16665956574935      0.83332977954899      0.25042312601527
      0.08315408063039      0.91687804911897      0.41683893972443
      0.16667096284771      0.83333548207523      0.58333151645782
      0.08352977826669      0.91650125094601      0.75027110417712
      0.16665867971544      0.83332933963921      0.91680368920838
      0.33339760668783      0.16680989107802      0.08341969484468
      0.41678872308030      0.08307802681115      0.24976335229457
      0.33307074474681      0.16579170055596      0.41622135067070
      0.41649516103752      0.08334667847917      0.58373200229697
      0.33327253884126      0.16647199769837      0.75050842062219
      0.41674956815975      0.08318833903886      0.91695743303303
      0.33360510768341      0.41680255203262      0.08328206815161
      0.41686710975118      0.33336418254578      0.25007888086800
      0.33092369926977      0.41546185194715      0.41580798689398
      0.41580397439060      0.33054122880763      0.58362577331559
      0.33354456934973      0.41677228362984      0.75024681958582
      0.41682188636476      0.33358704794164      0.91673580770330
      0.33339760489557      0.66658771807070      0.08341969400661
      0.41686710658124      0.58350292923538      0.25007888636966
      0.33307074411669      0.66727903364331      0.41622134956486
      0.41580396728018      0.58526274550666      0.58362576794632
      0.33327253223782      0.66680053518265      0.75050842293793
      0.41682188653981      0.58323483643503      0.91673580987291
      0.33307767097141      0.91653883672011      0.08334090090391
      0.41678872730550      0.83371069682856      0.24976335303047
      0.33374352326861      0.91687176449827      0.41673171561158
      0.41649516137431      0.83314848211064      0.58373199689221
      0.33301083269826      0.91650541686842      0.75025842947809
      0.41674956424587      0.83356122366559      0.91695743378212
      0.58328927477239      0.16650504648852      0.08303444791959
      0.66704661570539      0.08352330822012      0.24973381472831
      0.58357574636701      0.16695874858584      0.41617839289236
      0.66629896467942      0.08314948497891      0.58317544238989
      0.58322030531896      0.16639136156423      0.75006097127252
      0.66685321585947      0.08342660265140      0.91653636122707
      0.58324937141758      0.41684779775919      0.08332297521501
      0.66673942655167      0.33330323640214      0.24951509133335
      0.58450531674890      0.41525038005876      0.41673941124574
      0.66726827570883      0.33286814444173      0.58367066247172
      0.58338625075669      0.41678125001669      0.74983526870338
      0.66659046839548      0.33341140876504      0.91657564691406
      0.58324936721276      0.66640157658068      0.08332296762986
      0.66631860954255      0.58315929916034      0.25030430319166
      0.58450531716024      0.66925493679900      0.41673941635055
      0.66915611180508      0.58457805606392      0.58322648034473
      0.58338625075429      0.66660499840076      0.74983526884468
      0.66639523472281      0.58319761171134      0.91666544846135
      0.58328926921129      0.91678422377740      0.08303444652779
      0.66673942012162      0.83343619032171      0.24951509266368
      0.58357574596913      0.91661699516738      0.41617838373498
      0.66726827231164      0.83440012356665      0.58367065983620
      0.58322030568969      0.91682894889147      0.75006098039873
      0.66659046139100      0.83317906452767      0.91657564399618
      0.83333633376570      0.16666817055739      0.08319847897553
      0.91644746336378      0.08344853410700      0.24969514057663
      0.83326204865489      0.16663102683068      0.41662945198895
      0.91668448270573      0.08298977898792      0.58316063754494
      0.83336058376830      0.16668029115948      0.74951829031212
      0.91652291813844      0.08340614122349      0.91661738785550
      0.83351662811147      0.41675906890880      0.08298762703122
      0.91644745636260      0.33299892141994      0.24969513866001
      0.83294281525626      0.41643276269193      0.41615435995975
      0.91668447996114      0.33369470703383      0.58316064192506
      0.83361853533636      0.41675051807700      0.75019539583951
      0.91652292591530      0.33311677832045      0.91661738767551
      0.83313853622973      0.66656926649349      0.08345836854700
      0.91684956125042      0.58321945516751      0.24983149741416
      0.83422094101730      0.66711046926041      0.41628884998028
      0.91648802556761      0.58353212606719      0.58375829547178
      0.83338956779607      0.66669478522274      0.75045103703888
      0.91678501227872      0.58329103149527      0.91694329177703
      0.83351663508167      0.91675756456699      0.08298762254854
      0.91684956616103      0.83363011194744      0.24983149890542
      0.83294280449680      0.91651004655134      0.41615435592593
      0.91648801769770      0.83295589154600      0.58375829235217
      0.83361852910442      0.91686801220316      0.75019540040371
      0.91678502225219      0.83349398696771      0.91694328906298
      0.46664617113030      0.48332308700096      0.50865670547767
