 HIP runtime initialized ...    1 DCUs will be used
 Created    4 streams on each DCU
 vasp.6.3.2 27Jun22 (build Mar 15 2023 15:45:48) complex                        
  
 POSCAR found type information on POSCAR ZrH 
 04/POSCAR found :  2 types and      97 ions
 Reading from existing POTCAR
 scaLAPACK will be used selectively (only on CPU)
 Reading from existing POTCAR
 LDA part: xc-table for Pade appr. of Perdew
 POSCAR found type information on POSCAR ZrH 
 00/POSCAR found :  2 types and      97 ions
 POSCAR found type information on POSCAR ZrH 
 05/POSCAR found :  2 types and      97 ions
 Jacobian:    28.0723425804953     
 POSCAR found type information on POSCAR ZrH 
 00/POSCAR found :  2 types and      97 ions
 POSCAR found type information on POSCAR ZrH 
 05/POSCAR found :  2 types and      97 ions
 POSCAR, INCAR and KPOINTS ok, starting setup
 FFT: planning ... GRIDC
 FFT: planning ... GRID_SOFT
 FFT: planning ... GRID
 WAVECAR not read
 entering main loop
       N       E                     dE             d eps       ncg     rms          rms(c)
DAV:   1     0.127799885791E+05    0.12780E+05   -0.55792E+05 35948   0.151E+03
DAV:   2     0.513771064868E+03   -0.12266E+05   -0.11961E+05 37692   0.500E+02
DAV:   3    -0.665505598850E+03   -0.11793E+04   -0.11242E+04 56648   0.111E+02
DAV:   4    -0.839880286860E+03   -0.17437E+03   -0.17153E+03 55136   0.349E+01
DAV:   5    -0.856114072110E+03   -0.16234E+02   -0.16138E+02 50208   0.881E+00    0.988E+01
DAV:   6    -0.826848582829E+03    0.29265E+02   -0.51862E+01 41712   0.103E+01    0.382E+01
DAV:   7    -0.821277576775E+03    0.55710E+01   -0.29577E+01 45136   0.679E+00    0.774E+00
DAV:   8    -0.823026054558E+03   -0.17485E+01   -0.48826E+00 54840   0.438E+00    0.713E+00
DAV:   9    -0.821806011996E+03    0.12200E+01   -0.35093E+00 52488   0.357E+00    0.262E+00
DAV:  10    -0.821762481202E+03    0.43531E-01   -0.13683E+00 52616   0.210E+00    0.132E+00
DAV:  11    -0.821706471536E+03    0.56010E-01   -0.33669E-01 46328   0.109E+00    0.724E-01
DAV:  12    -0.821708172663E+03   -0.17011E-02   -0.84735E-02 48848   0.485E-01    0.548E-01
DAV:  13    -0.821705720063E+03    0.24526E-02   -0.36643E-02 48184   0.398E-01    0.386E-01
DAV:  14    -0.821702965760E+03    0.27543E-02   -0.13097E-02 46976   0.236E-01    0.165E-01
DAV:  15    -0.821702604697E+03    0.36106E-03   -0.44528E-03 49144   0.119E-01    0.121E-01
DAV:  16    -0.821702586308E+03    0.18389E-04   -0.10684E-03 48104   0.478E-02    0.727E-02
DAV:  17    -0.821702575038E+03    0.11271E-04   -0.32669E-04 48632   0.276E-02    0.373E-02
DAV:  18    -0.821702572293E+03    0.27443E-05   -0.10355E-04 48024   0.157E-02    0.154E-02
DAV:  19    -0.821702570427E+03    0.18661E-05   -0.22460E-05 40016   0.828E-03    0.809E-03
DAV:  20    -0.821702569339E+03    0.10879E-05   -0.62521E-06 35792   0.497E-03    0.532E-03
DAV:  21    -0.821702569324E+03    0.15178E-07   -0.14206E-06 25488   0.260E-03
   1 F= -.82170257E+03 E0= -.82175977E+03  d E =-.821703E+03
damped:  g(F)=  0.198E-01 g(S)=  0.000E+00 dE (1.order)=-0.198E-01
 bond charge predicted
       N       E                     dE             d eps       ncg     rms          rms(c)
DAV:   1    -0.821703659032E+03   -0.10897E-02   -0.63996E-02 37512   0.400E-01    0.320E-02
DAV:   2    -0.821703789826E+03   -0.13079E-03   -0.14160E-03 41680   0.618E-02    0.202E-02
DAV:   3    -0.821703798917E+03   -0.90913E-05   -0.11961E-04 55744   0.177E-02    0.182E-02
DAV:   4    -0.821703794124E+03    0.47936E-05   -0.22891E-05 38720   0.111E-02    0.131E-02
DAV:   5    -0.821703793014E+03    0.11094E-05   -0.97156E-06 35848   0.694E-03    0.797E-03
DAV:   6    -0.821703792591E+03    0.42281E-06   -0.44786E-06 32840   0.480E-03
   2 F= -.82170379E+03 E0= -.82176098E+03  d E =-.122327E-02
damped:  g(F)=  0.161E-01 g(S)=  0.000E+00 dE (1.order)=-0.161E-01
 bond charge predicted
       N       E                     dE             d eps       ncg     rms          rms(c)
DAV:   1    -0.821704740043E+03   -0.94703E-03   -0.55549E-02 37232   0.373E-01    0.297E-02
DAV:   2    -0.821704854455E+03   -0.11441E-03   -0.12329E-03 41776   0.576E-02    0.193E-02
DAV:   3    -0.821704863940E+03   -0.94853E-05   -0.10785E-04 55680   0.174E-02    0.183E-02
DAV:   4    -0.821704857521E+03    0.64184E-05   -0.23275E-05 38616   0.113E-02    0.125E-02
DAV:   5    -0.821704856762E+03    0.75912E-06   -0.84999E-06 35408   0.626E-03
   3 F= -.82170486E+03 E0= -.82176203E+03  d E =-.106417E-02
damped:  g(F)=  0.131E-01 g(S)=  0.000E+00 dE (1.order)=-0.131E-01
 bond charge predicted
       N       E                     dE             d eps       ncg     rms          rms(c)
DAV:   1    -0.821705673911E+03   -0.81639E-03   -0.47893E-02 37056   0.346E-01    0.271E-02
DAV:   2    -0.821705772927E+03   -0.99016E-04   -0.10563E-03 41800   0.527E-02    0.175E-02
DAV:   3    -0.821705780542E+03   -0.76155E-05   -0.88342E-05 55720   0.148E-02    0.162E-02
DAV:   4    -0.821705776629E+03    0.39134E-05   -0.17022E-05 37592   0.961E-03    0.116E-02
DAV:   5    -0.821705775945E+03    0.68361E-06   -0.71551E-06 34888   0.603E-03
   4 F= -.82170578E+03 E0= -.82176293E+03  d E =-.919183E-03
damped:  g(F)=  0.109E-01 g(S)=  0.000E+00 dE (1.order)=-0.109E-01
 bond charge predicted
       N       E                     dE             d eps       ncg     rms          rms(c)
DAV:   1    -0.821706496073E+03   -0.71944E-03   -0.42055E-02 36880   0.324E-01    0.251E-02
DAV:   2    -0.821706583229E+03   -0.87157E-04   -0.92943E-04 41752   0.494E-02    0.163E-02
DAV:   3    -0.821706590858E+03   -0.76283E-05   -0.77746E-05 55688   0.142E-02    0.155E-02
DAV:   4    -0.821706586405E+03    0.44527E-05   -0.15514E-05 37392   0.929E-03    0.107E-02
DAV:   5    -0.821706586040E+03    0.36447E-06   -0.62942E-06 34544   0.541E-03
   5 F= -.82170659E+03 E0= -.82176373E+03  d E =-.810095E-03
damped:  g(F)=  0.918E-02 g(S)=  0.000E+00 dE (1.order)=-0.918E-02
 bond charge predicted
       N       E                     dE             d eps       ncg     rms          rms(c)
DAV:   1    -0.821707225266E+03   -0.63886E-03   -0.37652E-02 36832   0.307E-01    0.237E-02
DAV:   2    -0.821707303326E+03   -0.78060E-04   -0.83333E-04 41656   0.467E-02    0.153E-02
DAV:   3    -0.821707309723E+03   -0.63975E-05   -0.69230E-05 55784   0.132E-02    0.144E-02
DAV:   4    -0.821707306321E+03    0.34023E-05   -0.13177E-05 36544   0.850E-03    0.102E-02
DAV:   5    -0.821707305904E+03    0.41668E-06   -0.54886E-06 34304   0.516E-03
   6 F= -.82170731E+03 E0= -.82176444E+03  d E =-.719864E-03
damped:  g(F)=  0.781E-02 g(S)=  0.000E+00 dE (1.order)=-0.781E-02
 bond charge predicted
       N       E                     dE             d eps       ncg     rms          rms(c)
DAV:   1    -0.821707860618E+03   -0.55430E-03   -0.32552E-02 36816   0.286E-01    0.219E-02
DAV:   2    -0.821707928353E+03   -0.67735E-04   -0.72234E-04 41688   0.434E-02    0.142E-02
DAV:   3    -0.821707933975E+03   -0.56216E-05   -0.59807E-05 55768   0.122E-02    0.134E-02
DAV:   4    -0.821707930973E+03    0.30021E-05   -0.11230E-05 35840   0.785E-03    0.944E-03
DAV:   5    -0.821707930641E+03    0.33200E-06   -0.45963E-06 33464   0.472E-03
   7 F= -.82170793E+03 E0= -.82176506E+03  d E =-.624737E-03
damped:  g(F)=  0.663E-02 g(S)=  0.000E+00 dE (1.order)=-0.663E-02
 bond charge predicted
       N       E                     dE             d eps       ncg     rms          rms(c)
DAV:   1    -0.821708420382E+03   -0.48941E-03   -0.28904E-02 36784   0.269E-01    0.205E-02
DAV:   2    -0.821708480611E+03   -0.60229E-04   -0.64213E-04 41600   0.409E-02    0.133E-02
DAV:   3    -0.821708485672E+03   -0.50605E-05   -0.53245E-05 55760   0.115E-02    0.126E-02
DAV:   4    -0.821708482949E+03    0.27232E-05   -0.99164E-06 35464   0.737E-03    0.888E-03
DAV:   5    -0.821708482664E+03    0.28482E-06   -0.39762E-06 32936   0.438E-03
   8 F= -.82170848E+03 E0= -.82176560E+03  d E =-.552023E-03
damped:  g(F)=  0.562E-02 g(S)=  0.000E+00 dE (1.order)=-0.562E-02
 bond charge predicted
       N       E                     dE             d eps       ncg     rms          rms(c)
DAV:   1    -0.821708910238E+03   -0.42729E-03   -0.25335E-02 36664   0.252E-01    0.190E-02
DAV:   2    -0.821708963165E+03   -0.52927E-04   -0.56409E-04 41528   0.383E-02    0.125E-02
DAV:   3    -0.821708967657E+03   -0.44916E-05   -0.46615E-05 55728   0.107E-02    0.118E-02
DAV:   4    -0.821708965228E+03    0.24282E-05   -0.86218E-06 35144   0.688E-03    0.831E-03
DAV:   5    -0.821708964992E+03    0.23613E-06   -0.33967E-06 32208   0.405E-03
   9 F= -.82170896E+03 E0= -.82176607E+03  d E =-.482328E-03
damped:  g(F)=  0.492E-02 g(S)=  0.000E+00 dE (1.order)=-0.492E-02
 bond charge predicted
       N       E                     dE             d eps       ncg     rms          rms(c)
DAV:   1    -0.821709346358E+03   -0.38113E-03   -0.22575E-02 36568   0.238E-01    0.179E-02
DAV:   2    -0.821709393636E+03   -0.47278E-04   -0.50363E-04 41544   0.361E-02    0.117E-02
DAV:   3    -0.821709397655E+03   -0.40186E-05   -0.41613E-05 55696   0.101E-02    0.112E-02
DAV:   4    -0.821709395467E+03    0.21879E-05   -0.75980E-06 34776   0.645E-03    0.785E-03
DAV:   5    -0.821709395254E+03    0.21246E-06   -0.29217E-06 31536   0.378E-03
  10 F= -.82170940E+03 E0= -.82176649E+03  d E =-.430262E-03
damped:  g(F)=  0.430E-02 g(S)=  0.000E+00 dE (1.order)=-0.430E-02
 bond charge predicted
       N       E                     dE             d eps       ncg     rms          rms(c)
DAV:   1    -0.821709732724E+03   -0.33726E-03   -0.20002E-02 36544   0.225E-01    0.167E-02
DAV:   2    -0.821709774737E+03   -0.42014E-04   -0.44727E-04 41480   0.340E-02    0.110E-02
DAV:   3    -0.821709778371E+03   -0.36336E-05   -0.37010E-05 55704   0.956E-03    0.106E-02
DAV:   4    -0.821709776362E+03    0.20089E-05   -0.67471E-06 34392   0.609E-03    0.740E-03
DAV:   5    -0.821709776179E+03    0.18311E-06   -0.25064E-06 30560   0.352E-03
  11 F= -.82170978E+03 E0= -.82176687E+03  d E =-.380925E-03
damped:  g(F)=  0.379E-02 g(S)=  0.000E+00 dE (1.order)=-0.379E-02
 bond charge predicted
       N       E                     dE             d eps       ncg     rms          rms(c)
DAV:   1    -0.821710073120E+03   -0.29676E-03   -0.17589E-02 36568   0.211E-01    0.156E-02
DAV:   2    -0.821710110181E+03   -0.37060E-04   -0.39416E-04 41472   0.319E-02    0.104E-02
DAV:   3    -0.821710113453E+03   -0.32722E-05   -0.32697E-05 55648   0.903E-03    0.100E-02
DAV:   4    -0.821710111589E+03    0.18644E-05   -0.59578E-06 33944   0.574E-03    0.696E-03
DAV:   5    -0.821710111437E+03    0.15125E-06   -0.21168E-06 29520   0.325E-03
  12 F= -.82171011E+03 E0= -.82176719E+03  d E =-.335258E-03
damped:  g(F)=  0.330E-02 g(S)=  0.000E+00 dE (1.order)=-0.330E-02
 bond charge predicted
       N       E                     dE             d eps       ncg     rms          rms(c)
DAV:   1    -0.821710387055E+03   -0.27547E-03   -0.16492E-02 36568   0.204E-01    0.150E-02
DAV:   2    -0.821710421883E+03   -0.34828E-04   -0.37049E-04 41464   0.309E-02    0.999E-03
DAV:   3    -0.821710424990E+03   -0.31070E-05   -0.30763E-05 55608   0.872E-03    0.972E-03
DAV:   4    -0.821710423231E+03    0.17590E-05   -0.55194E-06 33600   0.552E-03    0.672E-03
DAV:   5    -0.821710423095E+03    0.13619E-06   -0.19289E-06 29080   0.310E-03
  13 F= -.82171042E+03 E0= -.82176750E+03  d E =-.311658E-03
damped:  g(F)=  0.293E-02 g(S)=  0.000E+00 dE (1.order)=-0.293E-02
 bond charge predicted
       N       E                     dE             d eps       ncg     rms          rms(c)
DAV:   1    -0.821710672414E+03   -0.24918E-03   -0.14570E-02 36568   0.192E-01    0.139E-02
DAV:   2    -0.821710703259E+03   -0.30846E-04   -0.32812E-04 41448   0.290E-02    0.935E-03
DAV:   3    -0.821710706026E+03   -0.27667E-05   -0.27078E-05 55264   0.813E-03    0.912E-03
DAV:   4    -0.821710704474E+03    0.15520E-05   -0.47752E-06 33032   0.514E-03    0.631E-03
DAV:   5    -0.821710704364E+03    0.10966E-06   -0.16433E-06 28400   0.289E-03
  14 F= -.82171070E+03 E0= -.82176777E+03  d E =-.281269E-03
damped:  g(F)=  0.261E-02 g(S)=  0.000E+00 dE (1.order)=-0.261E-02
 bond charge predicted
       N       E                     dE             d eps       ncg     rms          rms(c)
DAV:   1    -0.821710923435E+03   -0.21896E-03   -0.13322E-02 36552   0.184E-01    0.132E-02
DAV:   2    -0.821710951708E+03   -0.28273E-04   -0.30065E-04 41432   0.277E-02    0.891E-03
DAV:   3    -0.821710954258E+03   -0.25502E-05   -0.24813E-05 54912   0.776E-03    0.873E-03
DAV:   4    -0.821710952826E+03    0.14321E-05   -0.43080E-06 32560   0.489E-03    0.602E-03
DAV:   5    -0.821710952727E+03    0.99739E-07   -0.14330E-06 27776   0.273E-03
  15 F= -.82171095E+03 E0= -.82176802E+03  d E =-.248362E-03
damped:  g(F)=  0.235E-02 g(S)=  0.000E+00 dE (1.order)=-0.235E-02
 bond charge predicted
       N       E                     dE             d eps       ncg     rms          rms(c)
DAV:   1    -0.821711158099E+03   -0.20527E-03   -0.12233E-02 36528   0.176E-01    0.126E-02
DAV:   2    -0.821711184149E+03   -0.26050E-04   -0.27697E-04 41384   0.266E-02    0.851E-03
DAV:   3    -0.821711186514E+03   -0.23649E-05   -0.22731E-05 54488   0.741E-03    0.836E-03
DAV:   4    -0.821711185185E+03    0.13286E-05   -0.39129E-06 32184   0.466E-03    0.577E-03
DAV:   5    -0.821711185101E+03    0.84430E-07   -0.12585E-06 27096   0.259E-03
  16 F= -.82171119E+03 E0= -.82176824E+03  d E =-.232374E-03
damped:  g(F)=  0.213E-02 g(S)=  0.000E+00 dE (1.order)=-0.213E-02
 bond charge predicted
       N       E                     dE             d eps       ncg     rms          rms(c)
DAV:   1    -0.821711375027E+03   -0.18984E-03   -0.11288E-02 36576   0.169E-01    0.121E-02
DAV:   2    -0.821711399038E+03   -0.24011E-04   -0.25574E-04 41344   0.255E-02    0.816E-03
DAV:   3    -0.821711401166E+03   -0.21276E-05   -0.20833E-05 53632   0.699E-03    0.792E-03
DAV:   4    -0.821711400032E+03    0.11331E-05   -0.34978E-06 31912   0.439E-03    0.554E-03
DAV:   5    -0.821711399949E+03    0.83732E-07   -0.11187E-06 26520   0.250E-03
  17 F= -.82171140E+03 E0= -.82176845E+03  d E =-.214848E-03
damped:  g(F)=  0.194E-02 g(S)=  0.000E+00 dE (1.order)=-0.194E-02
 bond charge predicted
       N       E                     dE             d eps       ncg     rms          rms(c)
DAV:   1    -0.821711564587E+03   -0.16455E-03   -0.10346E-02 36648   0.162E-01    0.114E-02
DAV:   2    -0.821711586636E+03   -0.22050E-04   -0.23499E-04 41304   0.243E-02    0.774E-03
DAV:   3    -0.821711588567E+03   -0.19312E-05   -0.18920E-05 52488   0.654E-03    0.746E-03
DAV:   4    -0.821711587589E+03    0.97814E-06   -0.30604E-06 31320   0.411E-03
  18 F= -.82171159E+03 E0= -.82176864E+03  d E =-.187641E-03
damped:  g(F)=  0.178E-02 g(S)=  0.000E+00 dE (1.order)=-0.178E-02
 bond charge predicted
       N       E                     dE             d eps       ncg     rms          rms(c)
DAV:   1    -0.821711743086E+03   -0.15452E-03   -0.96869E-03 36768   0.157E-01    0.124E-02
DAV:   2    -0.821711764036E+03   -0.20949E-04   -0.22105E-04 41584   0.236E-02    0.959E-03
DAV:   3    -0.821711765787E+03   -0.17513E-05   -0.18981E-05 51288   0.767E-03    0.927E-03
DAV:   4    -0.821711764245E+03    0.15423E-05   -0.39792E-06 31952   0.474E-03    0.584E-03
DAV:   5    -0.821711764289E+03   -0.44092E-07   -0.17785E-06 28000   0.277E-03
  19 F= -.82171176E+03 E0= -.82176881E+03  d E =-.176700E-03
damped:  g(F)=  0.161E-02 g(S)=  0.000E+00 dE (1.order)=-0.161E-02
 bond charge predicted
       N       E                     dE             d eps       ncg     rms          rms(c)
DAV:   1    -0.821711909512E+03   -0.14527E-03   -0.87756E-03 36592   0.150E-01    0.104E-02
DAV:   2    -0.821711928741E+03   -0.19229E-04   -0.20204E-04 41224   0.227E-02    0.745E-03
DAV:   3    -0.821711930387E+03   -0.16463E-05   -0.17500E-05 51536   0.714E-03    0.742E-03
DAV:   4    -0.821711929185E+03    0.12022E-05   -0.32900E-06 31344   0.428E-03    0.492E-03
DAV:   5    -0.821711929104E+03    0.81171E-07   -0.77182E-07 24432   0.207E-03
  20 F= -.82171193E+03 E0= -.82176897E+03  d E =-.164815E-03
damped:  g(F)=  0.150E-02 g(S)=  0.000E+00 dE (1.order)=-0.150E-02
 bond charge predicted
       N       E                     dE             d eps       ncg     rms          rms(c)
DAV:   1    -0.821712064191E+03   -0.13501E-03   -0.86088E-03 36688   0.148E-01    0.102E-02
DAV:   2    -0.821712082657E+03   -0.18467E-04   -0.19644E-04 41304   0.222E-02    0.702E-03
DAV:   3    -0.821712084297E+03   -0.16398E-05   -0.15844E-05 49536   0.595E-03    0.683E-03
DAV:   4    -0.821712083444E+03    0.85337E-06   -0.25713E-06 30000   0.378E-03
  21 F= -.82171208E+03 E0= -.82176913E+03  d E =-.154340E-03
damped:  g(F)=  0.140E-02 g(S)=  0.000E+00 dE (1.order)=-0.140E-02
 bond charge predicted
       N       E                     dE             d eps       ncg     rms          rms(c)
DAV:   1    -0.821712210615E+03   -0.12632E-03   -0.82922E-03 36784   0.146E-01    0.112E-02
DAV:   2    -0.821712228599E+03   -0.17984E-04   -0.19034E-04 41552   0.218E-02    0.876E-03
DAV:   3    -0.821712230114E+03   -0.15148E-05   -0.15934E-05 48168   0.690E-03    0.845E-03
DAV:   4    -0.821712228860E+03    0.12536E-05   -0.34048E-06 31224   0.436E-03    0.541E-03
DAV:   5    -0.821712228879E+03   -0.19223E-07   -0.13926E-06 26552   0.258E-03
  22 F= -.82171223E+03 E0= -.82176927E+03  d E =-.145435E-03
damped:  g(F)=  0.130E-02 g(S)=  0.000E+00 dE (1.order)=-0.130E-02
 bond charge predicted
       N       E                     dE             d eps       ncg     rms          rms(c)
DAV:   1    -0.821712354431E+03   -0.12557E-03   -0.76033E-03 36632   0.140E-01    0.952E-03
DAV:   2    -0.821712371045E+03   -0.16614E-04   -0.17589E-04 41088   0.211E-02    0.675E-03
DAV:   3    -0.821712372522E+03   -0.14774E-05   -0.14758E-05 48192   0.625E-03    0.669E-03
DAV:   4    -0.821712371594E+03    0.92796E-06   -0.26251E-06 29952   0.386E-03
  23 F= -.82171237E+03 E0= -.82176941E+03  d E =-.142715E-03
damped:  g(F)=  0.124E-02 g(S)=  0.000E+00 dE (1.order)=-0.124E-02
 bond charge predicted
       N       E                     dE             d eps       ncg     rms          rms(c)
DAV:   1    -0.821712492866E+03   -0.12034E-03   -0.73559E-03 36872   0.138E-01    0.105E-02
DAV:   2    -0.821712508715E+03   -0.15849E-04   -0.16985E-04 41448   0.205E-02    0.814E-03
DAV:   3    -0.821712510216E+03   -0.15013E-05   -0.13525E-05 44712   0.610E-03    0.779E-03
DAV:   4    -0.821712509153E+03    0.10627E-05   -0.30116E-06 30304   0.420E-03    0.513E-03
DAV:   5    -0.821712509167E+03   -0.13577E-07   -0.12661E-06 25920   0.247E-03
  24 F= -.82171251E+03 E0= -.82176954E+03  d E =-.137572E-03
damped:  g(F)=  0.116E-02 g(S)=  0.000E+00 dE (1.order)=-0.116E-02
 bond charge predicted
       N       E                     dE             d eps       ncg     rms          rms(c)
DAV:   1    -0.821712624272E+03   -0.11512E-03   -0.69952E-03 36632   0.134E-01    0.905E-03
DAV:   2    -0.821712639699E+03   -0.15428E-04   -0.16302E-04 41024   0.203E-02    0.653E-03
DAV:   3    -0.821712641031E+03   -0.13315E-05   -0.13518E-05 46096   0.606E-03    0.642E-03
DAV:   4    -0.821712640166E+03    0.86516E-06   -0.24708E-06 29208   0.377E-03
  25 F= -.82171264E+03 E0= -.82176967E+03  d E =-.130999E-03
damped:  g(F)=  0.109E-02 g(S)=  0.000E+00 dE (1.order)=-0.109E-02
 bond charge predicted
       N       E                     dE             d eps       ncg     rms          rms(c)
DAV:   1    -0.821712754796E+03   -0.11376E-03   -0.69513E-03 36848   0.134E-01    0.101E-02
DAV:   2    -0.821712769730E+03   -0.14935E-04   -0.16112E-04 41440   0.199E-02    0.776E-03
DAV:   3    -0.821712771170E+03   -0.14395E-05   -0.12471E-05 43656   0.548E-03    0.726E-03
DAV:   4    -0.821712770290E+03    0.88029E-06   -0.26039E-06 29368   0.396E-03
  26 F= -.82171277E+03 E0= -.82176980E+03  d E =-.130124E-03
damped:  g(F)=  0.102E-02 g(S)=  0.000E+00 dE (1.order)=-0.102E-02
 bond charge predicted
       N       E                     dE             d eps       ncg     rms          rms(c)
DAV:   1    -0.821712873199E+03   -0.10203E-03   -0.64835E-03 36864   0.129E-01    0.857E-03
DAV:   2    -0.821712887414E+03   -0.14214E-04   -0.15026E-04 41392   0.191E-02    0.663E-03
DAV:   3    -0.821712888660E+03   -0.12468E-05   -0.11966E-05 43760   0.532E-03    0.647E-03
DAV:   4    -0.821712887916E+03    0.74443E-06   -0.20252E-06 27992   0.339E-03
  27 F= -.82171289E+03 E0= -.82176991E+03  d E =-.117626E-03
damped:  g(F)=  0.973E-03 g(S)=  0.000E+00 dE (1.order)=-0.973E-03
 bond charge predicted
       N       E                     dE             d eps       ncg     rms          rms(c)
DAV:   1    -0.821712990887E+03   -0.10223E-03   -0.63324E-03 36800   0.128E-01    0.886E-03
DAV:   2    -0.821713004565E+03   -0.13679E-04   -0.14783E-04 41472   0.192E-02    0.667E-03
DAV:   3    -0.821713005482E+03   -0.91651E-06   -0.11402E-05 43208   0.497E-03    0.586E-03
DAV:   4    -0.821713005123E+03    0.35873E-06   -0.18303E-06 27544   0.321E-03
  28 F= -.82171301E+03 E0= -.82177003E+03  d E =-.117207E-03
damped:  g(F)=  0.926E-03 g(S)=  0.000E+00 dE (1.order)=-0.926E-03
 bond charge predicted
       N       E                     dE             d eps       ncg     rms          rms(c)
DAV:   1    -0.821713104200E+03   -0.98719E-04   -0.60094E-03 36816   0.125E-01    0.926E-03
DAV:   2    -0.821713117536E+03   -0.13336E-04   -0.14076E-04 41224   0.188E-02    0.754E-03
DAV:   3    -0.821713118408E+03   -0.87128E-06   -0.11271E-05 39976   0.586E-03    0.708E-03
DAV:   4    -0.821713117646E+03    0.76178E-06   -0.25626E-06 28680   0.387E-03
  29 F= -.82171312E+03 E0= -.82177014E+03  d E =-.112523E-03
damped:  g(F)=  0.876E-03 g(S)=  0.000E+00 dE (1.order)=-0.876E-03
 bond charge predicted
       N       E                     dE             d eps       ncg     rms          rms(c)
DAV:   1    -0.821713217123E+03   -0.98716E-04   -0.58569E-03 36808   0.123E-01    0.880E-03
DAV:   2    -0.821713230071E+03   -0.12948E-04   -0.13903E-04 41688   0.184E-02    0.710E-03
DAV:   3    -0.821713231024E+03   -0.95209E-06   -0.10982E-05 42184   0.528E-03    0.655E-03
DAV:   4    -0.821713230433E+03    0.59047E-06   -0.20989E-06 28008   0.349E-03
  30 F= -.82171323E+03 E0= -.82177025E+03  d E =-.112787E-03
damped:  g(F)=  0.845E-03 g(S)=  0.000E+00 dE (1.order)=-0.845E-03
 bond charge predicted
       N       E                     dE             d eps       ncg     rms          rms(c)
DAV:   1    -0.821713322592E+03   -0.91568E-04   -0.54570E-03 36720   0.119E-01    0.892E-03
DAV:   2    -0.821713334676E+03   -0.12084E-04   -0.12812E-04 41232   0.181E-02    0.729E-03
DAV:   3    -0.821713335369E+03   -0.69344E-06   -0.10505E-05 38912   0.579E-03    0.675E-03
DAV:   4    -0.821713334710E+03    0.65943E-06   -0.25322E-06 28560   0.386E-03
  31 F= -.82171333E+03 E0= -.82177035E+03  d E =-.104277E-03
damped:  g(F)=  0.808E-03 g(S)=  0.000E+00 dE (1.order)=-0.808E-03
 bond charge predicted
       N       E                     dE             d eps       ncg     rms          rms(c)
DAV:   1    -0.821713423509E+03   -0.88139E-04   -0.53166E-03 36808   0.118E-01    0.875E-03
DAV:   2    -0.821713435389E+03   -0.11880E-04   -0.12661E-04 41632   0.176E-02    0.723E-03
DAV:   3    -0.821713436189E+03   -0.80043E-06   -0.99855E-06 39472   0.542E-03
  32 F= -.82171344E+03 E0= -.82177045E+03  d E =-.101479E-03
damped:  g(F)=  0.769E-03 g(S)=  0.000E+00 dE (1.order)=-0.769E-03
 bond charge predicted
       N       E                     dE             d eps       ncg     rms          rms(c)
DAV:   1    -0.821713521650E+03   -0.86262E-04   -0.50741E-03 36632   0.115E-01    0.100E-02
DAV:   2    -0.821713532620E+03   -0.10969E-04   -0.12214E-04 41936   0.172E-02    0.788E-03
DAV:   3    -0.821713533420E+03   -0.80047E-06   -0.89159E-06 39192   0.446E-03
  33 F= -.82171353E+03 E0= -.82177055E+03  d E =-.972309E-04
damped:  g(F)=  0.746E-03 g(S)=  0.000E+00 dE (1.order)=-0.746E-03
 bond charge predicted
       N       E                     dE             d eps       ncg     rms          rms(c)
DAV:   1    -0.821713616131E+03   -0.83511E-04   -0.50623E-03 36560   0.115E-01    0.101E-02
DAV:   2    -0.821713628536E+03   -0.12405E-04   -0.12402E-04 41936   0.181E-02    0.964E-03
DAV:   3    -0.821713627785E+03    0.75117E-06   -0.11994E-05 38688   0.700E-03    0.766E-03
DAV:   4    -0.821713627255E+03    0.53000E-06   -0.27554E-06 28824   0.385E-03
  34 F= -.82171363E+03 E0= -.82177064E+03  d E =-.938346E-04
damped:  g(F)=  0.721E-03 g(S)=  0.000E+00 dE (1.order)=-0.721E-03
 bond charge predicted
       N       E                     dE             d eps       ncg     rms          rms(c)
DAV:   1    -0.821713707723E+03   -0.79938E-04   -0.47400E-03 36920   0.111E-01    0.761E-03
DAV:   2    -0.821713718154E+03   -0.10431E-04   -0.11292E-04 41616   0.164E-02    0.624E-03
DAV:   3    -0.821713718978E+03   -0.82407E-06   -0.83215E-06 37984   0.419E-03
  35 F= -.82171372E+03 E0= -.82177073E+03  d E =-.917236E-04
damped:  g(F)=  0.688E-03 g(S)=  0.000E+00 dE (1.order)=-0.688E-03
 bond charge predicted
       N       E                     dE             d eps       ncg     rms          rms(c)
DAV:   1    -0.821713789251E+03   -0.71097E-04   -0.45327E-03 36592   0.109E-01    0.920E-03
DAV:   2    -0.821713799048E+03   -0.97968E-05   -0.10916E-04 41520   0.162E-02    0.730E-03
DAV:   3    -0.821713799723E+03   -0.67551E-06   -0.75630E-06 37040   0.356E-03
  36 F= -.82171380E+03 E0= -.82177081E+03  d E =-.807450E-04
damped:  g(F)=  0.666E-03 g(S)=  0.000E+00 dE (1.order)=-0.666E-03
 bond charge predicted
       N       E                     dE             d eps       ncg     rms          rms(c)
DAV:   1    -0.821713874121E+03   -0.75073E-04   -0.44139E-03 36528   0.107E-01    0.951E-03
DAV:   2    -0.821713887341E+03   -0.13220E-04   -0.10859E-04 41912   0.179E-02    0.108E-02
DAV:   3    -0.821713883905E+03    0.34364E-05   -0.13735E-05 38592   0.861E-03    0.703E-03
DAV:   4    -0.821713883673E+03    0.23180E-06   -0.27209E-06 29112   0.329E-03
  37 F= -.82171388E+03 E0= -.82177090E+03  d E =-.839495E-04
damped:  g(F)=  0.640E-03 g(S)=  0.000E+00 dE (1.order)=-0.640E-03
 reached required accuracy - stopping structural energy minimisation
 PROFILE, used timers:     234
