TT_c endpoint 05
1.0
      6.46831269532822    -11.20344622755126      0.00000000000000
      6.46831269532822     11.20344622755126      0.00000000000000
      0.00000000000000      0.00000000000000     15.49806442517753
  Zr  H
  96  1
Direct
      0.08320970910213      0.16623496063884      0.08349847237088
      0.16667943427290      0.08324361146491      0.24980738582303
      0.08260439474942      0.16575727745757      0.41609985085480
      0.16641491222698      0.08304302636585      0.58294493129215
      0.08281863721447      0.16698866657116      0.75046908430490
      0.16704086734331      0.08377946660252      0.91643067344628
      0.08320971149113      0.41697475027380      0.08349847086290
      0.16648143766205      0.33324071899357      0.24967932207979
      0.08260439162147      0.41684711521210      0.41609984489748
      0.16291830358098      0.33145915042752      0.58096453971930
      0.08281863243524      0.41582997309828      0.75046908550244
      0.16527989171968      0.33263994284503      0.91760449247066
      0.08331029497741      0.66668570611809      0.08312234022151
      0.16667943677584      0.58343582937772      0.24980738621629
      0.08342272326946      0.66669030844376      0.41641934837777
      0.16641491338315      0.58337188857610      0.58294493230222
      0.08339008062952      0.66661958192120      0.74990451981402
      0.16704086633607      0.58326140324129      0.91643066757685
      0.08331029423041      0.91662458744796      0.08312233866222
      0.16662674960501      0.83331337366606      0.24991602711537
      0.08342271875933      0.91673241252526      0.41641934938116
      0.16668813042149      0.83334406579549      0.58331294841638
      0.08339008675819      0.91677050305834      0.74990452341518
      0.16663116520906      0.83331557941003      0.91666394401823
      0.33315465691075      0.16638268984984      0.08341888428288
      0.41683451729100      0.08318287339314      0.24992538889083
      0.33319510879944      0.16602483199567      0.41625494250376
      0.41678349048714      0.08251697064517      0.58348142422379
      0.33428822613324      0.16682755511713      0.75037582862685
      0.41670683079452      0.08298571585040      0.91705921578223
      0.33324458063999      0.41662228568520      0.08373580877268
      0.41671886449487      0.33315409761579      0.24950342759718
      0.33339462403235      0.41669731113273      0.41410594903777
      0.41842654044701      0.33151946203012      0.58101037613640
      0.33343096552886      0.41671548496673      0.75515892622946
      0.41717169328211      0.33249320661814      0.91759890309012
      0.33315465582529      0.66677197508344      0.08341888203839
      0.41671887263172      0.58356476852934      0.24950342526715
      0.33319510504636      0.66717027822517      0.41625493990741
      0.41842652739788      0.58690707058575      0.58101037492269
      0.33428822736225      0.66746067472776      0.75037583006609
      0.41717169508310      0.58467848478686      0.91759890729747
      0.33302194719192      0.91651097143943      0.08370445513826
      0.41683452337079      0.83365164714032      0.24992539028450
      0.33350646459031      0.91675322879768      0.41648269923306
      0.41678348010136      0.83426651372069      0.58348142262710
      0.33347819906724      0.91673909898046      0.75044065260507
      0.41670683845375      0.83372112522644      0.91705921748393
      0.58335957742155      0.16667967703102      0.08344355066316
      0.66663260979730      0.08331629669036      0.25023724373048
      0.58333849100641      0.16678910255005      0.41715245695797
      0.66673439842995      0.08336719600427      0.58336160764954
      0.58357088946329      0.16627012370493      0.75030486855231
      0.66678129937280      0.08339064539497      0.91688932497042
      0.58363733423636      0.41684850272391      0.08353126709780
      0.66678585822642      0.33322350403628      0.24993248489360
      0.58409537610983      0.41674214289054      0.41616371203000
      0.66740684392016      0.33327527362370      0.58350337653674
      0.58312037080012      0.41565814951341      0.75050178895756
      0.66686445930037      0.33334885205569      0.91696096306511
      0.58363733837788      0.66678884171696      0.08353126799059
      0.66675732320528      0.58337866240310      0.24985524077841
      0.58409537598141      0.66735323261438      0.41616371528627
      0.66696723214914      0.58348361891281      0.58300684259900
      0.58312036759267      0.66746221662398      0.75050178961954
      0.66592075062582      0.58296037536745      0.91647178785845
      0.58335958515160      0.91667989701741      0.08344355498950
      0.66678586597521      0.83356236379307      0.24993248964241
      0.58333849379631      0.91654938604001      0.41715245483444
      0.66740684296022      0.83413157333209      0.58350337258191
      0.58357089455060      0.91730076708997      0.75030486893512
      0.66686446143634      0.83351560565481      0.91696096375153
      0.83334831604657      0.16667415542445      0.08340035854209
      0.91643134027681      0.08321395295533      0.24983212332669
      0.83346957029086      0.16673477427898      0.41696201471843
      0.91580260899288      0.08256865388282      0.58343563480784
      0.83297690176141      0.16648844873674      0.75022023609527
      0.91646316233449      0.08301677210929      0.91708268431808
      0.83342870867844      0.41688213802904      0.08367766249430
      0.91643134902448      0.33321738867885      0.24983212535170
      0.83326036998522      0.41651565683962      0.41648033358634
      0.91580260996869      0.33323396001221      0.58343563704412
      0.83323768099093      0.41647166332462      0.75042504781498
      0.91646316162632      0.33344638679494      0.91708268273681
      0.83335943763079      0.66667972128283      0.08322551978812
      0.91668390668365      0.58336846921616      0.24999611029041
      0.83328299926181      0.66664150244257      0.41654185641377
      0.91665657120709      0.58335299684886      0.58334994225054
      0.83323565206275      0.66661782804569      0.75003832178170
      0.91665223007874      0.58333407531131      0.91671849664980
      0.83342869989067      0.91654656414996      0.08367766523760
      0.91668390515367      0.83331543546731      0.24999610691221
      0.83326036069106      0.91674471315436      0.41648033622191
      0.91665657214926      0.83330357757898      0.58334994256122
      0.83323767331001      0.91676601942781      0.75042504949413
      0.91665222804487      0.83331815147447      0.91671849927010
      0.33323085856690      0.41661543273845      0.62338486713309
