TO image 02                             
   1.00000000000000     
     6.4683126953282200  -11.2034462275512592    0.0000000000000000
     6.4683126953282200   11.2034462275512592    0.0000000000000000
     0.0000000000000000    0.0000000000000000   15.4980644251775299
   Zr   H 
    96     1
Direct
  0.0830744623508125  0.1661605778217144  0.0830323199760695
  0.1668386519671786  0.0836637418100176  0.2502152017173597
  0.0832452621068605  0.1674994454133091  0.4160468740725428
  0.1671449488478166  0.0836061904239896  0.5840115199767493
  0.0826624928166047  0.1658567799060758  0.7505491103304611
  0.1665144108662315  0.0831742432380299  0.9170038366727853
  0.0830744642828030  0.4169138868328188  0.0830323199100279
  0.1648887890795665  0.3324443937229592  0.2482077069992884
  0.0832452572349516  0.4157458128666278  0.4160468744578092
  0.1649143045875606  0.3324571550471901  0.5858783634164417
  0.0826624930185211  0.4168057140251443  0.7505491101077506
  0.1666430794820618  0.3333215399433901  0.9168921247569111
  0.0833575886439825  0.6667398873170034  0.0835070921694436
  0.1668386525460457  0.5831749112690831  0.2502152018309848
  0.0833150963135092  0.6663020732355210  0.4167230722459622
  0.1671449452502033  0.5835387602687313  0.5840115188443720
  0.0833526038183407  0.6668335750957638  0.7502924202494637
  0.1665144125242900  0.5833401675244327  0.9170038352077345
  0.0833575880167021  0.9166177023152701  0.0835070926499717
  0.1665772368601522  0.8332886180726626  0.2502571733433425
  0.0833150978673871  0.9170130256205690  0.4167230730223002
  0.1667971224624981  0.8333985608773383  0.5832988255464452
  0.0833526017776261  0.9165190255851097  0.7502924202190775
  0.1666517296975049  0.8333258650717796  0.9167370490243756
  0.3333214112387871  0.1667012710514296  0.0833851445691605
  0.4167531540693405  0.0831080430120019  0.2496768778028204
  0.3335607790775758  0.1664742253553516  0.4163980721483539
  0.4164918547537277  0.0821556247256008  0.5834774007067877
  0.3328050420042278  0.1654781757404618  0.7509968927981578
  0.4168340858378119  0.0831744313601662  0.9169707437629915
  0.3335651135996953  0.4167825574408435  0.0829457688448773
  0.4171910104876761  0.3328217629967453  0.2495271327189375
  0.3288546033180648  0.4144273017385714  0.4110887099895325
  0.4180206336194724  0.3300782762891319  0.5863916921838161
  0.3329689076095147  0.4164844547383842  0.7507408177674542
  0.4168268597366377  0.3334355582428638  0.9169186414336633
  0.3333214105090123  0.6666201406744645  0.0833851454189210
  0.4171910085472589  0.5843692468592127  0.2495271316888732
  0.3335607780631303  0.6670865541171673  0.4163980726127284
  0.4180206309383681  0.5879423604342076  0.5863916914325646
  0.3328050420638918  0.6673268636653007  0.7509968915041371
  0.4168268609265146  0.5833913035764515  0.9169186408568388
  0.3329918307586600  0.9164959153509563  0.0831683941746370
  0.4167531533684944  0.8336451098244372  0.2496768782044681
  0.3337202181222503  0.9168601090091871  0.4163714141626699
  0.4164918547268562  0.8343362309997607  0.5834774005578368
  0.3331857520478529  0.9165928754504936  0.7503589161139769
  0.4168340841097181  0.8336596535707285  0.9169707434557393
  0.5833299852702755  0.1666345305903985  0.0831351067295219
  0.6667806410260749  0.0833903201673924  0.2497641457852747
  0.5837891290621294  0.1668773980821131  0.4162441667281902
  0.6668623819734532  0.0834311915425659  0.5832188832285196
  0.5830279698403605  0.1666078309898239  0.7496820878713161
  0.6666842522602068  0.0833421244460602  0.9164444932238693
  0.5833963180803164  0.4168779640813603  0.0831932058816153
  0.6671206526534232  0.3334146672750606  0.2495946504550144
  0.5849892245019820  0.4154410548594535  0.4155662939564463
  0.6674056316872584  0.3329333995470157  0.5833263110790776
  0.5836425150228193  0.4166572892921043  0.7502339078492134
  0.6666490890683986  0.3333516409247945  0.9165843698289921
  0.5833963184135715  0.6665183552687032  0.0831932050073240
  0.6662279314238024  0.5831139664116407  0.2501378815523859
  0.5849892206642775  0.6695481676102312  0.4155662911821598
  0.6707851112099723  0.5853925556574320  0.5838023467304077
  0.5836425082408557  0.6669852141521663  0.7502339029041336
  0.6666976403982415  0.5833488202940068  0.9167182214784160
  0.5833299861040724  0.9166954541359119  0.0831351065844110
  0.6671206525608483  0.8337059828323444  0.2495946499353686
  0.5837891298934071  0.9169117314314765  0.4162441655979508
  0.6674056278051967  0.8344722304189074  0.5833263109241376
  0.5830279655451199  0.9164201330493706  0.7496820870906509
  0.6666490865881413  0.8332974437223737  0.9165843665197916
  0.8333330800624372  0.1666665400239159  0.0833098007045816
  0.9164888939721291  0.0831556292617652  0.2496025955724827
  0.8330618623624562  0.1665309304436115  0.4164511322061892
  0.9168652447704025  0.0832912504669879  0.5831480982841899
  0.8331257537291523  0.1665628766268563  0.7496653525214756
  0.9163297201366234  0.0833385450123129  0.9167292096010559
  0.8334260602084231  0.4167755525520396  0.0829522770937185
  0.9164888948287809  0.3333332641710644  0.2496025957646683
  0.8333357458710859  0.4163933978037095  0.4162974955382004
  0.9168652430894660  0.3335739965872274  0.5831480999686720
  0.8331783485215026  0.4164616737194007  0.7501191229772227
  0.9163297203949043  0.3329911737152960  0.9167292096237895
  0.8333034677955798  0.6666517346730199  0.0834415159586895
  0.9166638856804193  0.5832800061647968  0.2498599129428727
  0.8338157116374378  0.6669078553985378  0.4164744014527763
  0.9169040385303467  0.5835809785820092  0.5834603574540151
  0.8334676538770737  0.6667338269765147  0.7503280406060319
  0.9168265996767110  0.5833172628260446  0.9167743428120678
  0.8334260584278315  0.9166505087945168  0.0829522771813392
  0.9166638883263901  0.8333838826318283  0.2498599141736680
  0.8333357414740865  0.9169423462836059  0.4162974950202741
  0.9169040368587520  0.8333230597368148  0.5834603583600332
  0.8331783469840475  0.9167166723888728  0.7501191230459885
  0.9168265996218402  0.8335093364889656  0.9167743445739084
  0.3994916121562653  0.4497458074801361  0.5248547792197175
 
  0.00000000E+00  0.00000000E+00  0.00000000E+00
  0.00000000E+00  0.00000000E+00  0.00000000E+00
  0.00000000E+00  0.00000000E+00  0.00000000E+00
  0.00000000E+00  0.00000000E+00  0.00000000E+00
  0.00000000E+00  0.00000000E+00  0.00000000E+00
  0.00000000E+00  0.00000000E+00  0.00000000E+00
  0.00000000E+00  0.00000000E+00  0.00000000E+00
  0.00000000E+00  0.00000000E+00  0.00000000E+00
  0.00000000E+00  0.00000000E+00  0.00000000E+00
  0.00000000E+00  0.00000000E+00  0.00000000E+00
  0.00000000E+00  0.00000000E+00  0.00000000E+00
  0.00000000E+00  0.00000000E+00  0.00000000E+00
  0.00000000E+00  0.00000000E+00  0.00000000E+00
  0.00000000E+00  0.00000000E+00  0.00000000E+00
  0.00000000E+00  0.00000000E+00  0.00000000E+00
  0.00000000E+00  0.00000000E+00  0.00000000E+00
  0.00000000E+00  0.00000000E+00  0.00000000E+00
  0.00000000E+00  0.00000000E+00  0.00000000E+00
  0.00000000E+00  0.00000000E+00  0.00000000E+00
  0.00000000E+00  0.00000000E+00  0.00000000E+00
  0.00000000E+00  0.00000000E+00  0.00000000E+00
  0.00000000E+00  0.00000000E+00  0.00000000E+00
  0.00000000E+00  0.00000000E+00  0.00000000E+00
  0.00000000E+00  0.00000000E+00  0.00000000E+00
  0.00000000E+00  0.00000000E+00  0.00000000E+00
  0.00000000E+00  0.00000000E+00  0.00000000E+00
  0.00000000E+00  0.00000000E+00  0.00000000E+00
  0.00000000E+00  0.00000000E+00  0.00000000E+00
  0.00000000E+00  0.00000000E+00  0.00000000E+00
  0.00000000E+00  0.00000000E+00  0.00000000E+00
  0.00000000E+00  0.00000000E+00  0.00000000E+00
  0.00000000E+00  0.00000000E+00  0.00000000E+00
  0.00000000E+00  0.00000000E+00  0.00000000E+00
  0.00000000E+00  0.00000000E+00  0.00000000E+00
  0.00000000E+00  0.00000000E+00  0.00000000E+00
  0.00000000E+00  0.00000000E+00  0.00000000E+00
  0.00000000E+00  0.00000000E+00  0.00000000E+00
  0.00000000E+00  0.00000000E+00  0.00000000E+00
  0.00000000E+00  0.00000000E+00  0.00000000E+00
  0.00000000E+00  0.00000000E+00  0.00000000E+00
  0.00000000E+00  0.00000000E+00  0.00000000E+00
  0.00000000E+00  0.00000000E+00  0.00000000E+00
  0.00000000E+00  0.00000000E+00  0.00000000E+00
  0.00000000E+00  0.00000000E+00  0.00000000E+00
  0.00000000E+00  0.00000000E+00  0.00000000E+00
  0.00000000E+00  0.00000000E+00  0.00000000E+00
  0.00000000E+00  0.00000000E+00  0.00000000E+00
  0.00000000E+00  0.00000000E+00  0.00000000E+00
  0.00000000E+00  0.00000000E+00  0.00000000E+00
  0.00000000E+00  0.00000000E+00  0.00000000E+00
  0.00000000E+00  0.00000000E+00  0.00000000E+00
  0.00000000E+00  0.00000000E+00  0.00000000E+00
  0.00000000E+00  0.00000000E+00  0.00000000E+00
  0.00000000E+00  0.00000000E+00  0.00000000E+00
  0.00000000E+00  0.00000000E+00  0.00000000E+00
  0.00000000E+00  0.00000000E+00  0.00000000E+00
  0.00000000E+00  0.00000000E+00  0.00000000E+00
  0.00000000E+00  0.00000000E+00  0.00000000E+00
  0.00000000E+00  0.00000000E+00  0.00000000E+00
  0.00000000E+00  0.00000000E+00  0.00000000E+00
  0.00000000E+00  0.00000000E+00  0.00000000E+00
  0.00000000E+00  0.00000000E+00  0.00000000E+00
  0.00000000E+00  0.00000000E+00  0.00000000E+00
  0.00000000E+00  0.00000000E+00  0.00000000E+00
  0.00000000E+00  0.00000000E+00  0.00000000E+00
  0.00000000E+00  0.00000000E+00  0.00000000E+00
  0.00000000E+00  0.00000000E+00  0.00000000E+00
  0.00000000E+00  0.00000000E+00  0.00000000E+00
  0.00000000E+00  0.00000000E+00  0.00000000E+00
  0.00000000E+00  0.00000000E+00  0.00000000E+00
  0.00000000E+00  0.00000000E+00  0.00000000E+00
  0.00000000E+00  0.00000000E+00  0.00000000E+00
  0.00000000E+00  0.00000000E+00  0.00000000E+00
  0.00000000E+00  0.00000000E+00  0.00000000E+00
  0.00000000E+00  0.00000000E+00  0.00000000E+00
  0.00000000E+00  0.00000000E+00  0.00000000E+00
  0.00000000E+00  0.00000000E+00  0.00000000E+00
  0.00000000E+00  0.00000000E+00  0.00000000E+00
  0.00000000E+00  0.00000000E+00  0.00000000E+00
  0.00000000E+00  0.00000000E+00  0.00000000E+00
  0.00000000E+00  0.00000000E+00  0.00000000E+00
  0.00000000E+00  0.00000000E+00  0.00000000E+00
  0.00000000E+00  0.00000000E+00  0.00000000E+00
  0.00000000E+00  0.00000000E+00  0.00000000E+00
  0.00000000E+00  0.00000000E+00  0.00000000E+00
  0.00000000E+00  0.00000000E+00  0.00000000E+00
  0.00000000E+00  0.00000000E+00  0.00000000E+00
  0.00000000E+00  0.00000000E+00  0.00000000E+00
  0.00000000E+00  0.00000000E+00  0.00000000E+00
  0.00000000E+00  0.00000000E+00  0.00000000E+00
  0.00000000E+00  0.00000000E+00  0.00000000E+00
  0.00000000E+00  0.00000000E+00  0.00000000E+00
  0.00000000E+00  0.00000000E+00  0.00000000E+00
  0.00000000E+00  0.00000000E+00  0.00000000E+00
  0.00000000E+00  0.00000000E+00  0.00000000E+00
  0.00000000E+00  0.00000000E+00  0.00000000E+00
  0.00000000E+00  0.00000000E+00  0.00000000E+00
