TO endpoint 00 from converged source
1.0
      6.46831269532822    -11.20344622755126      0.00000000000000
      6.46831269532822     11.20344622755126      0.00000000000000
      0.00000000000000      0.00000000000000     15.49806442517753
  Zr  H
  96  1
Direct
      0.08320970910213      0.16623496063884      0.08316819429579
      0.16704086734331      0.08377946660252      0.25023599322039
      0.08281863721447      0.16698866657116      0.41619758236176
      0.16641491222698      0.08304302636585      0.58372173537452
      0.08260439474942      0.16575727745757      0.75056681581187
      0.16667943427290      0.08324361146491      0.91685928084364
      0.08320971149113      0.41697475027380      0.08316819580377
      0.16527989171968      0.33263994284503      0.24906217419601
      0.08281863243524      0.41582997309828      0.41619758116423
      0.16291830358098      0.33145915042752      0.58570212694737
      0.08260439162147      0.41684711521210      0.75056682176918
      0.16648143766205      0.33324071899357      0.91698734458687
      0.08331029497741      0.66668570611809      0.08354432644516
      0.16704086633607      0.58326140324129      0.25023599908981
      0.08339008062952      0.66661958192120      0.41676214685265
      0.16641491338315      0.58337188857610      0.58372173436445
      0.08342272326946      0.66669030844376      0.75024731828890
      0.16667943677584      0.58343582937772      0.91685928045038
      0.08331029423041      0.91662458744796      0.08354432800445
      0.16663116520906      0.83331557941003      0.25000272264843
      0.08339008675819      0.91677050305834      0.41676214325148
      0.16668813042149      0.83334406579549      0.58335371825029
      0.08342271875933      0.91673241252526      0.75024731728550
      0.16662674960501      0.83331337366606      0.91675063955129
      0.33315465691075      0.16638268984984      0.08324778238378
      0.41670683079452      0.08298571585040      0.24960745088444
      0.33428822613324      0.16682755511713      0.41629083803981
      0.41678349048714      0.08251697064517      0.58318524244288
      0.33319510879944      0.16602483199567      0.75041172416290
      0.41683451729100      0.08318287339314      0.91674127777583
      0.33324458063999      0.41662228568520      0.08293085789399
      0.41717169328211      0.33249320661814      0.24906776357654
      0.33343096552886      0.41671548496673      0.41150774043721
      0.41842654044701      0.33151946203012      0.58565629053027
      0.33339462403235      0.41669731113273      0.75256071762889
      0.41671886449487      0.33315409761579      0.91716323906949
      0.33315465582529      0.66677197508344      0.08324778462827
      0.41717169508310      0.58467848478686      0.24906775936920
      0.33428822736225      0.66746067472776      0.41629083660058
      0.41842652739788      0.58690707058575      0.58565629174397
      0.33319510504636      0.66717027822517      0.75041172675926
      0.41671887263172      0.58356476852934      0.91716324139952
      0.33302194719192      0.91651097143943      0.08296221152841
      0.41670683845375      0.83372112522644      0.24960744918274
      0.33347819906724      0.91673909898046      0.41622601406160
      0.41678348010136      0.83426651372069      0.58318524403957
      0.33350646459031      0.91675322879768      0.75018396743361
      0.41683452337079      0.83365164714032      0.91674127638217
      0.58335957742155      0.16667967703102      0.08322311600351
      0.66678129937280      0.08339064539497      0.24977734169624
      0.58357088946329      0.16627012370493      0.41636179811436
      0.66673439842995      0.08336719600427      0.58330505901712
      0.58333849100641      0.16678910255005      0.74951420970870
      0.66663260979730      0.08331629669036      0.91642942293619
      0.58363733423636      0.41684850272391      0.08313539956887
      0.66686445930037      0.33334885205569      0.24970570360155
      0.58312037080012      0.41565814951341      0.41616487770910
      0.66740684392016      0.33327527362370      0.58316329012993
      0.58409537610983      0.41674214289054      0.75050295463667
      0.66678585822642      0.33322350403628      0.91673418177306
      0.58363733837788      0.66678884171696      0.08313539867607
      0.66592075062582      0.58296037536745      0.25019487880822
      0.58312036759267      0.66746221662398      0.41616487704713
      0.66696723214914      0.58348361891281      0.58365982406767
      0.58409537598141      0.66735323261438      0.75050295138040
      0.66675732320528      0.58337866240310      0.91681142588826
      0.58335958515160      0.91667989701741      0.08322311167716
      0.66686446143634      0.83351560565481      0.24970570291514
      0.58357089455060      0.91730076708997      0.41636179773155
      0.66740684296022      0.83413157333209      0.58316329408476
      0.58333849379631      0.91654938604001      0.74951421183222
      0.66678586597521      0.83356236379307      0.91673417702425
      0.83334831604657      0.16667415542445      0.08326630812458
      0.91646316233449      0.08301677210929      0.24958398234859
      0.83297690176141      0.16648844873674      0.41644643057139
      0.91580260899288      0.08256865388282      0.58323103185882
      0.83346957029086      0.16673477427898      0.74970465194823
      0.91643134027681      0.08321395295533      0.91683454333998
      0.83342870867844      0.41688213802904      0.08298900417237
      0.91646316162632      0.33344638679494      0.24958398392986
      0.83323768099093      0.41647166332462      0.41624161885168
      0.91580260996869      0.33323396001221      0.58323102962255
      0.83326036998522      0.41651565683962      0.75018633308033
      0.91643134902448      0.33321738867885      0.91683454131497
      0.83335943763079      0.66667972128283      0.08344114687855
      0.91665223007874      0.58333407531131      0.24994817001686
      0.83323565206275      0.66661782804569      0.41662834488496
      0.91665657120709      0.58335299684886      0.58331672441612
      0.83328299926181      0.66664150244257      0.75012481025289
      0.91668390668365      0.58336846921616      0.91667055637626
      0.83342869989067      0.91654656414996      0.08298900142907
      0.91665222804487      0.83331815147447      0.24994816739657
      0.83323767331001      0.91676601942781      0.41624161717254
      0.91665657214926      0.83330357757898      0.58331672410545
      0.83326036069106      0.91674471315436      0.75018633044476
      0.91668390515367      0.83331543546731      0.91667055975445
      0.33323085856690      0.41661543273845      0.54328179953358
