  96  96   0   0
  0.2339801E+02  0.1293663E-08  0.1293663E-08  0.1549806E-08  0.5000000E-15
  1.000000000000000E-004
  CAR 
 Zr96 4x4x3 DCU static reference         
     12.95377842    -42.42878865  301      8.95000178      1.00000000
    -42.429  0.0000E+00  0.0000E+00
    -42.244  0.0000E+00  0.0000E+00
    -42.060  0.0000E+00  0.0000E+00
    -41.875  0.0000E+00  0.0000E+00
    -41.690 -0.1587E-33 -0.2930E-34
    -41.506 -0.4356E-26 -0.8041E-27
    -41.321 -0.4950E-20 -0.9137E-21
    -41.137 -0.1039E-14 -0.1919E-15
    -40.952 -0.3924E-10 -0.7244E-11
    -40.767 -0.2849E-06 -0.5260E-07
    -40.583 -0.3943E-03 -0.7284E-04
    -40.398 -0.1053E+00 -0.1952E-01
    -40.213 -0.5159E+01 -0.9719E+00
    -40.029 -0.2393E+02 -0.5390E+01
    -39.844  0.2755E+03  0.4546E+02
    -39.660  0.6787E+03  0.1708E+03
    -39.475  0.1435E+03  0.1972E+03
    -39.290 -0.2627E+02  0.1924E+03
    -39.106 -0.2138E+01  0.1920E+03
    -38.921 -0.2024E-01  0.1920E+03
    -38.737 -0.3118E-04  0.1920E+03
    -38.552 -0.8341E-08  0.1920E+03
    -38.367 -0.4017E-12  0.1920E+03
    -38.183  0.0000E+00  0.1920E+03
    -37.998  0.0000E+00  0.1920E+03
    -37.814  0.0000E+00  0.1920E+03
    -37.629  0.0000E+00  0.1920E+03
    -37.444  0.0000E+00  0.1920E+03
    -37.260  0.0000E+00  0.1920E+03
    -37.075  0.0000E+00  0.1920E+03
    -36.891  0.0000E+00  0.1920E+03
    -36.706  0.0000E+00  0.1920E+03
    -36.521  0.0000E+00  0.1920E+03
    -36.337  0.0000E+00  0.1920E+03
    -36.152  0.0000E+00  0.1920E+03
    -35.967  0.0000E+00  0.1920E+03
    -35.783  0.0000E+00  0.1920E+03
    -35.598  0.0000E+00  0.1920E+03
    -35.414  0.0000E+00  0.1920E+03
    -35.229  0.0000E+00  0.1920E+03
    -35.044  0.0000E+00  0.1920E+03
    -34.860  0.0000E+00  0.1920E+03
    -34.675  0.0000E+00  0.1920E+03
    -34.491  0.0000E+00  0.1920E+03
    -34.306  0.0000E+00  0.1920E+03
    -34.121  0.0000E+00  0.1920E+03
    -33.937  0.0000E+00  0.1920E+03
    -33.752  0.0000E+00  0.1920E+03
    -33.568  0.0000E+00  0.1920E+03
    -33.383  0.0000E+00  0.1920E+03
    -33.198  0.0000E+00  0.1920E+03
    -33.014  0.0000E+00  0.1920E+03
    -32.829  0.0000E+00  0.1920E+03
    -32.645  0.0000E+00  0.1920E+03
    -32.460  0.0000E+00  0.1920E+03
    -32.275  0.0000E+00  0.1920E+03
    -32.091  0.0000E+00  0.1920E+03
    -31.906  0.0000E+00  0.1920E+03
    -31.721  0.0000E+00  0.1920E+03
    -31.537  0.0000E+00  0.1920E+03
    -31.352  0.0000E+00  0.1920E+03
    -31.168  0.0000E+00  0.1920E+03
    -30.983  0.0000E+00  0.1920E+03
    -30.798  0.0000E+00  0.1920E+03
    -30.614  0.0000E+00  0.1920E+03
    -30.429  0.0000E+00  0.1920E+03
    -30.245  0.0000E+00  0.1920E+03
    -30.060  0.0000E+00  0.1920E+03
    -29.875  0.0000E+00  0.1920E+03
    -29.691  0.0000E+00  0.1920E+03
    -29.506  0.0000E+00  0.1920E+03
    -29.322  0.0000E+00  0.1920E+03
    -29.137  0.0000E+00  0.1920E+03
    -28.952  0.0000E+00  0.1920E+03
    -28.768  0.0000E+00  0.1920E+03
    -28.583  0.0000E+00  0.1920E+03
    -28.399  0.0000E+00  0.1920E+03
    -28.214  0.0000E+00  0.1920E+03
    -28.029  0.0000E+00  0.1920E+03
    -27.845  0.0000E+00  0.1920E+03
    -27.660  0.0000E+00  0.1920E+03
    -27.475  0.0000E+00  0.1920E+03
    -27.291  0.0000E+00  0.1920E+03
    -27.106  0.0000E+00  0.1920E+03
    -26.922  0.0000E+00  0.1920E+03
    -26.737  0.0000E+00  0.1920E+03
    -26.552  0.0000E+00  0.1920E+03
    -26.368  0.0000E+00  0.1920E+03
    -26.183  0.0000E+00  0.1920E+03
    -25.999  0.0000E+00  0.1920E+03
    -25.814  0.0000E+00  0.1920E+03
    -25.629  0.0000E+00  0.1920E+03
    -25.445  0.0000E+00  0.1920E+03
    -25.260  0.0000E+00  0.1920E+03
    -25.076  0.0000E+00  0.1920E+03
    -24.891  0.0000E+00  0.1920E+03
    -24.706  0.0000E+00  0.1920E+03
    -24.522  0.0000E+00  0.1920E+03
    -24.337  0.0000E+00  0.1920E+03
    -24.153  0.0000E+00  0.1920E+03
    -23.968  0.0000E+00  0.1920E+03
    -23.783  0.0000E+00  0.1920E+03
    -23.599  0.0000E+00  0.1920E+03
    -23.414  0.0000E+00  0.1920E+03
    -23.229  0.0000E+00  0.1920E+03
    -23.045  0.0000E+00  0.1920E+03
    -22.860  0.0000E+00  0.1920E+03
    -22.676  0.0000E+00  0.1920E+03
    -22.491  0.0000E+00  0.1920E+03
    -22.306  0.0000E+00  0.1920E+03
    -22.122  0.0000E+00  0.1920E+03
    -21.937  0.0000E+00  0.1920E+03
    -21.753  0.0000E+00  0.1920E+03
    -21.568  0.0000E+00  0.1920E+03
    -21.383  0.0000E+00  0.1920E+03
    -21.199  0.0000E+00  0.1920E+03
    -21.014  0.0000E+00  0.1920E+03
    -20.830  0.0000E+00  0.1920E+03
    -20.645  0.0000E+00  0.1920E+03
    -20.460  0.0000E+00  0.1920E+03
    -20.276  0.0000E+00  0.1920E+03
    -20.091 -0.1535E-29  0.1920E+03
    -19.907 -0.3363E-23  0.1920E+03
    -19.722 -0.1365E-17  0.1920E+03
    -19.537 -0.1009E-12  0.1920E+03
    -19.353 -0.1447E-08  0.1920E+03
    -19.168 -0.4068E-05  0.1920E+03
    -18.984 -0.2334E-02  0.1920E+03
    -18.799 -0.2816E+00  0.1919E+03
    -18.614 -0.6515E+01  0.1907E+03
    -18.430 -0.1457E+01  0.1905E+03
    -18.245  0.2520E+03  0.2370E+03
    -18.060  0.5035E+03  0.3300E+03
    -17.876  0.4450E+03  0.4121E+03
    -17.691  0.7368E+03  0.5481E+03
    -17.507  0.9273E+03  0.7193E+03
    -17.322  0.2942E+03  0.7736E+03
    -17.137 -0.2362E+02  0.7693E+03
    -16.953 -0.6653E+01  0.7680E+03
    -16.768 -0.1698E+00  0.7680E+03
    -16.584 -0.7688E-03  0.7680E+03
    -16.399 -0.6493E-06  0.7680E+03
    -16.214 -0.1022E-09  0.7680E+03
    -16.030 -0.6014E-15  0.7680E+03
    -15.845  0.0000E+00  0.7680E+03
    -15.661  0.0000E+00  0.7680E+03
    -15.476  0.0000E+00  0.7680E+03
    -15.291  0.0000E+00  0.7680E+03
    -15.107  0.0000E+00  0.7680E+03
    -14.922  0.0000E+00  0.7680E+03
    -14.738  0.0000E+00  0.7680E+03
    -14.553  0.0000E+00  0.7680E+03
    -14.368  0.0000E+00  0.7680E+03
    -14.184  0.0000E+00  0.7680E+03
    -13.999  0.0000E+00  0.7680E+03
    -13.814  0.0000E+00  0.7680E+03
    -13.630  0.0000E+00  0.7680E+03
    -13.445  0.0000E+00  0.7680E+03
    -13.261  0.0000E+00  0.7680E+03
    -13.076  0.0000E+00  0.7680E+03
    -12.891  0.0000E+00  0.7680E+03
    -12.707  0.0000E+00  0.7680E+03
    -12.522  0.0000E+00  0.7680E+03
    -12.338  0.0000E+00  0.7680E+03
    -12.153  0.0000E+00  0.7680E+03
    -11.968  0.0000E+00  0.7680E+03
    -11.784  0.0000E+00  0.7680E+03
    -11.599  0.0000E+00  0.7680E+03
    -11.415  0.0000E+00  0.7680E+03
    -11.230  0.0000E+00  0.7680E+03
    -11.045  0.0000E+00  0.7680E+03
    -10.861  0.0000E+00  0.7680E+03
    -10.676  0.0000E+00  0.7680E+03
    -10.492  0.0000E+00  0.7680E+03
    -10.307  0.0000E+00  0.7680E+03
    -10.122  0.0000E+00  0.7680E+03
     -9.938  0.0000E+00  0.7680E+03
     -9.753  0.0000E+00  0.7680E+03
     -9.568  0.0000E+00  0.7680E+03
     -9.384  0.0000E+00  0.7680E+03
     -9.199  0.0000E+00  0.7680E+03
     -9.015  0.0000E+00  0.7680E+03
     -8.830  0.0000E+00  0.7680E+03
     -8.645  0.0000E+00  0.7680E+03
     -8.461  0.0000E+00  0.7680E+03
     -8.276  0.0000E+00  0.7680E+03
     -8.092  0.0000E+00  0.7680E+03
     -7.907  0.0000E+00  0.7680E+03
     -7.722  0.0000E+00  0.7680E+03
     -7.538  0.0000E+00  0.7680E+03
     -7.353  0.0000E+00  0.7680E+03
     -7.169  0.0000E+00  0.7680E+03
     -6.984  0.0000E+00  0.7680E+03
     -6.799  0.0000E+00  0.7680E+03
     -6.615  0.0000E+00  0.7680E+03
     -6.430  0.0000E+00  0.7680E+03
     -6.246  0.0000E+00  0.7680E+03
     -6.061  0.0000E+00  0.7680E+03
     -5.876  0.0000E+00  0.7680E+03
     -5.692  0.0000E+00  0.7680E+03
     -5.507  0.0000E+00  0.7680E+03
     -5.322  0.0000E+00  0.7680E+03
     -5.138  0.0000E+00  0.7680E+03
     -4.953  0.0000E+00  0.7680E+03
     -4.769  0.0000E+00  0.7680E+03
     -4.584  0.0000E+00  0.7680E+03
     -4.399  0.0000E+00  0.7680E+03
     -4.215  0.0000E+00  0.7680E+03
     -4.030  0.0000E+00  0.7680E+03
     -3.846  0.0000E+00  0.7680E+03
     -3.661  0.0000E+00  0.7680E+03
     -3.476  0.0000E+00  0.7680E+03
     -3.292  0.0000E+00  0.7680E+03
     -3.107  0.0000E+00  0.7680E+03
     -2.923  0.0000E+00  0.7680E+03
     -2.738  0.0000E+00  0.7680E+03
     -2.553  0.0000E+00  0.7680E+03
     -2.369  0.0000E+00  0.7680E+03
     -2.184  0.0000E+00  0.7680E+03
     -2.000  0.0000E+00  0.7680E+03
     -1.815  0.0000E+00  0.7680E+03
     -1.630  0.0000E+00  0.7680E+03
     -1.446  0.0000E+00  0.7680E+03
     -1.261  0.0000E+00  0.7680E+03
     -1.076  0.0000E+00  0.7680E+03
     -0.892  0.0000E+00  0.7680E+03
     -0.707  0.0000E+00  0.7680E+03
     -0.523  0.0000E+00  0.7680E+03
     -0.338  0.0000E+00  0.7680E+03
     -0.153  0.0000E+00  0.7680E+03
      0.031  0.0000E+00  0.7680E+03
      0.216  0.0000E+00  0.7680E+03
      0.400  0.0000E+00  0.7680E+03
      0.585  0.0000E+00  0.7680E+03
      0.770  0.0000E+00  0.7680E+03
      0.954  0.0000E+00  0.7680E+03
      1.139  0.0000E+00  0.7680E+03
      1.323  0.0000E+00  0.7680E+03
      1.508 -0.2048E-34  0.7680E+03
      1.693 -0.1082E-27  0.7680E+03
      1.877 -0.1027E-21  0.7680E+03
      2.062 -0.1749E-16  0.7680E+03
      2.246 -0.5157E-12  0.7680E+03
      2.431 -0.2803E-08  0.7680E+03
      2.616 -0.2787E-05  0.7680E+03
      2.800 -0.5290E-03  0.7680E+03
      2.985 -0.1962E-01  0.7680E+03
      3.170 -0.8650E-01  0.7680E+03
      3.354  0.8093E+00  0.7681E+03
      3.539  0.3133E+01  0.7687E+03
      3.723  0.5538E+01  0.7697E+03
      3.908  0.6585E+01  0.7709E+03
      4.093  0.8420E+01  0.7725E+03
      4.277  0.1010E+02  0.7744E+03
      4.462  0.1057E+02  0.7763E+03
      4.646  0.1334E+02  0.7788E+03
      4.831  0.1529E+02  0.7816E+03
      5.016  0.1535E+02  0.7844E+03
      5.200  0.1899E+02  0.7879E+03
      5.385  0.2562E+02  0.7927E+03
      5.569  0.2033E+02  0.7964E+03
      5.754  0.3448E+02  0.8028E+03
      5.939  0.6071E+02  0.8140E+03
      6.123  0.8405E+02  0.8295E+03
      6.308  0.9938E+02  0.8479E+03
      6.492  0.1030E+03  0.8669E+03
      6.677  0.1116E+03  0.8875E+03
      6.862  0.1299E+03  0.9115E+03
      7.046  0.1350E+03  0.9364E+03
      7.231  0.1097E+03  0.9566E+03
      7.416  0.9580E+02  0.9743E+03
      7.600  0.9799E+02  0.9924E+03
      7.785  0.1247E+03  0.1015E+04
      7.969  0.1326E+03  0.1040E+04
      8.154  0.1496E+03  0.1068E+04
      8.339  0.1704E+03  0.1099E+04
      8.523  0.1372E+03  0.1124E+04
      8.708  0.5926E+02  0.1135E+04
      8.892  0.6382E+02  0.1147E+04
      9.077  0.1110E+03  0.1168E+04
      9.262  0.1814E+03  0.1201E+04
      9.446  0.1660E+03  0.1232E+04
      9.631  0.1594E+03  0.1261E+04
      9.815  0.1664E+03  0.1292E+04
     10.000  0.1826E+03  0.1325E+04
     10.185  0.1821E+03  0.1359E+04
     10.369  0.1172E+03  0.1381E+04
     10.554  0.2134E+02  0.1385E+04
     10.738 -0.3177E+01  0.1384E+04
     10.923 -0.5442E+00  0.1384E+04
     11.108 -0.1245E-01  0.1384E+04
     11.292 -0.5387E-04  0.1384E+04
     11.477 -0.4480E-07  0.1384E+04
     11.662 -0.7048E-11  0.1384E+04
     11.846  0.0000E+00  0.1384E+04
     12.031  0.0000E+00  0.1384E+04
     12.215  0.0000E+00  0.1384E+04
     12.400  0.0000E+00  0.1384E+04
     12.585  0.0000E+00  0.1384E+04
     12.769  0.0000E+00  0.1384E+04
     12.954  0.0000E+00  0.1384E+04
