       N       E                     dE             d eps       ncg     rms          rms(c)
DAV:   1     0.127738898768E+05    0.12774E+05   -0.55766E+05 11072   0.151E+03
DAV:   2     0.515273338550E+03   -0.12259E+05   -0.11951E+05 11608   0.499E+02
DAV:   3    -0.660420647546E+03   -0.11757E+04   -0.11205E+04 17464   0.111E+02
DAV:   4    -0.835847935960E+03   -0.17543E+03   -0.17266E+03 16976   0.348E+01
DAV:   5    -0.852027272155E+03   -0.16179E+02   -0.16089E+02 15520   0.887E+00    0.984E+01
DAV:   6    -0.823180082726E+03    0.28847E+02   -0.51385E+01 12912   0.103E+01    0.381E+01
DAV:   7    -0.817620537027E+03    0.55595E+01   -0.29163E+01 14248   0.665E+00    0.788E+00
DAV:   8    -0.818046491978E+03   -0.42595E+00   -0.34200E+00 14976   0.215E+00    0.155E+00
DAV:   9    -0.818057985149E+03   -0.11493E-01   -0.92335E-02 15488   0.411E-01    0.372E-01
DAV:  10    -0.818055749688E+03    0.22355E-02   -0.67133E-03 17864   0.691E-02    0.188E-01
DAV:  11    -0.818055805754E+03   -0.56066E-04   -0.71144E-04 13800   0.511E-02    0.448E-02
DAV:  12    -0.818055792977E+03    0.12777E-04   -0.56383E-05 15672   0.892E-03    0.228E-02
DAV:  13    -0.818055777375E+03    0.15602E-04   -0.51429E-06 10952   0.309E-03    0.101E-02
DAV:  14    -0.818055769838E+03    0.75370E-05   -0.64605E-07  8264   0.182E-03    0.169E-03
DAV:  15    -0.818055769635E+03    0.20336E-06   -0.91638E-08  7864   0.543E-04
   1 F= -.81805577E+03 E0= -.81811976E+03  d E =0.191982E+00
