TT_c image 01                           
   1.00000000000000     
     6.4683126953282200  -11.2034462275512592    0.0000000000000000
     6.4683126953282200   11.2034462275512592    0.0000000000000000
     0.0000000000000000    0.0000000000000000   15.4980644251775299
   Zr   H 
    96     1
Direct
  0.0832409924220812  0.1662854755556520  0.0832902709120825
  0.1669391580185453  0.0836032890779290  0.2500979069323680
  0.0827736138049077  0.1667270301817149  0.4162841964524184
  0.1666438137022171  0.0834092002441231  0.5835097162919968
  0.0826417356692217  0.1659766605764320  0.7505317406427395
  0.1667310532776959  0.0833375338954591  0.9168000579921308
  0.0832409949883070  0.4169555185288379  0.0832902716991860
  0.1664893504771992  0.3332446762642514  0.2497835966841125
  0.0827736137988003  0.4160465846531670  0.4162841960692756
  0.1593095691285242  0.3296547864911332  0.5850809618002856
  0.0826417375688396  0.4166650779802901  0.7505317409618402
  0.1665752130580381  0.3332876083400401  0.9170251679103342
  0.0833163912736762  0.6666730432500273  0.0834536428196739
  0.1669391608375981  0.5833358701044503  0.2500979086039581
  0.0833756031264046  0.6666185451087762  0.4167567943975163
  0.1666438137381158  0.5832346139818021  0.5835097165328951
  0.0833826142923427  0.6666577153935433  0.7501185082228360
  0.1667310558771707  0.5833935195019736  0.9168000580910263
  0.0833163903506236  0.9166433470361177  0.0834536427582295
  0.1666376596485595  0.8333188277107691  0.2500128771259461
  0.0833756016810858  0.9167570560029313  0.4167567932906841
  0.1666766942013389  0.8333383453356363  0.5833477540491352
  0.0833826135556966  0.9167248967122205  0.7501185083973412
  0.1666516008317809  0.8333257986515226  0.9167106293507006
  0.3331567660629602  0.1664144824472006  0.0832964760411765
  0.4167965589652329  0.0831271139227237  0.2496960281588227
  0.3340405734546958  0.1666459843925749  0.4163492815644601
  0.4166550462286818  0.0818852302506845  0.5832851916935394
  0.3333936495196588  0.1661711774430655  0.7503937877414337
  0.4168262584246251  0.0831794596723244  0.9167838031779151
  0.3332833823627258  0.4166416920620395  0.0832090366250010
  0.4166641670491841  0.3331070162384421  0.2497088537132912
  0.3333944603430226  0.4166972335822156  0.4146843783340295
  0.4202355897896125  0.3296816950019993  0.5850021768530937
  0.3333958312752883  0.4166979165044612  0.7534983339580433
  0.4166539823127823  0.3332096909830702  0.9171587987378632
  0.3331567686331702  0.6667422874157630  0.0832964763508595
  0.4166641679634979  0.5835571533925276  0.2497088516807179
  0.3340405722895152  0.6673945877386537  0.4163492814016380
  0.4202355913563402  0.5905539001100106  0.5850021764892915
  0.3333936495884067  0.6672224732935647  0.7503937899490815
  0.4166539820377462  0.5834442920743870  0.9171587988775628
  0.3330309513592420  0.9165154746595003  0.0831759089905983
  0.4167965623145564  0.8336694438194653  0.2496960286121834
  0.3334548069037993  0.9167274020212638  0.4162127548022921
  0.4166550477697292  0.8347698146890412  0.5832851917526098
  0.3334404705966511  0.9167202338397291  0.7503679536139443
  0.4168262615957100  0.8336467974244696  0.9167838037549850
  0.5833248754083238  0.1666808778038242  0.0832252650162912
  0.6667508491218325  0.0833754210927168  0.2498850469212519
  0.5835136335656235  0.1663817985847261  0.4166430102662115
  0.6667475789544631  0.0833737870649566  0.5832673692504641
  0.5833630293987210  0.1667018202794627  0.7495397238405805
  0.6666972471620790  0.0833486208651628  0.9164218121772294
  0.5836154049696355  0.4168662687228497  0.0832679920333145
  0.6667733493989622  0.3332670387338258  0.2497812434518454
  0.5833523499541288  0.4159027688464850  0.4162585339827161
  0.6680251556873212  0.3334178890875608  0.5832879585332327
  0.5839227607577667  0.4165262238964055  0.7505005549469485
  0.6667502835590253  0.3332409508600949  0.9167700208163754
  0.5836154060981020  0.6667491419587114  0.0832679915560798
  0.6661983290904173  0.5830991663484736  0.2500532898686676
  0.5833523494344833  0.6674495830459080  0.4162585334105772
  0.6665407932743546  0.5832703992388840  0.5834818311928799
  0.5839227611594352  0.6673965401560447  0.7505005543863935
  0.6665889268479920  0.5832944653432284  0.9167650803514681
  0.5833248778158843  0.9166439939440262  0.0832252649445929
  0.6667733481041075  0.8335063090920920  0.2497812449649469
  0.5835136329432905  0.9171318293748002  0.4166430098029008
  0.6680251492202866  0.8346072647962935  0.5832879574889138
  0.5833630279831865  0.9166612045186230  0.7495397239953813
  0.6667502821739452  0.8335093303267426  0.9167700203464395
  0.8333895611513783  0.1666947792308932  0.0832983935221643
  0.9165020894581577  0.0831700403715441  0.2497048532611814
  0.8330876644152039  0.1665438303736285  0.4166469665432810
  0.9153182127192747  0.0819146011997419  0.5833177966221087
  0.8333981171098103  0.1666990565831303  0.7497037015811903
  0.9164647067094228  0.0832230883588770  0.9168714762960491
  0.8333668335275567  0.4168014805146889  0.0831774513904674
  0.9165020910435003  0.3333320479716373  0.2497048520631423
  0.8332610116964342  0.4165288613110804  0.4162292143912688
  0.9153182130109284  0.3334036128126220  0.5833177977637727
  0.8332805320763671  0.4165749191713582  0.7503641709365674
  0.9164647099369913  0.3332416171507839  0.9168714756599635
  0.8333135047112702  0.6666567541734654  0.0833765757553979
  0.9166508892107649  0.5833347773531704  0.2499714327960937
  0.8332382791434917  0.6666191418417277  0.4166662735528331
  0.9166499238946471  0.5833505950837653  0.5833242321746812
  0.8332735693764124  0.6666367860541226  0.7500544455869271
  0.9166647285534966  0.5833404158708065  0.9167078829579062
  0.8333668320663161  0.9165653514610492  0.0831774519011331
  0.9166508860965762  0.8333161112467288  0.2499714325306150
  0.8332610076873542  0.9167321487292241  0.4162292148975477
  0.9166499206676852  0.8332993299505234  0.5833242320073982
  0.8332805298219145  0.9167056133295178  0.7503641700017134
  0.9166647277831456  0.8333243147425894  0.9167078826866233
  0.3332342458562675  0.4166171242401265  0.5588661396320553
 
  0.00000000E+00  0.00000000E+00  0.00000000E+00
  0.00000000E+00  0.00000000E+00  0.00000000E+00
  0.00000000E+00  0.00000000E+00  0.00000000E+00
  0.00000000E+00  0.00000000E+00  0.00000000E+00
  0.00000000E+00  0.00000000E+00  0.00000000E+00
  0.00000000E+00  0.00000000E+00  0.00000000E+00
  0.00000000E+00  0.00000000E+00  0.00000000E+00
  0.00000000E+00  0.00000000E+00  0.00000000E+00
  0.00000000E+00  0.00000000E+00  0.00000000E+00
  0.00000000E+00  0.00000000E+00  0.00000000E+00
  0.00000000E+00  0.00000000E+00  0.00000000E+00
  0.00000000E+00  0.00000000E+00  0.00000000E+00
  0.00000000E+00  0.00000000E+00  0.00000000E+00
  0.00000000E+00  0.00000000E+00  0.00000000E+00
  0.00000000E+00  0.00000000E+00  0.00000000E+00
  0.00000000E+00  0.00000000E+00  0.00000000E+00
  0.00000000E+00  0.00000000E+00  0.00000000E+00
  0.00000000E+00  0.00000000E+00  0.00000000E+00
  0.00000000E+00  0.00000000E+00  0.00000000E+00
  0.00000000E+00  0.00000000E+00  0.00000000E+00
  0.00000000E+00  0.00000000E+00  0.00000000E+00
  0.00000000E+00  0.00000000E+00  0.00000000E+00
  0.00000000E+00  0.00000000E+00  0.00000000E+00
  0.00000000E+00  0.00000000E+00  0.00000000E+00
  0.00000000E+00  0.00000000E+00  0.00000000E+00
  0.00000000E+00  0.00000000E+00  0.00000000E+00
  0.00000000E+00  0.00000000E+00  0.00000000E+00
  0.00000000E+00  0.00000000E+00  0.00000000E+00
  0.00000000E+00  0.00000000E+00  0.00000000E+00
  0.00000000E+00  0.00000000E+00  0.00000000E+00
  0.00000000E+00  0.00000000E+00  0.00000000E+00
  0.00000000E+00  0.00000000E+00  0.00000000E+00
  0.00000000E+00  0.00000000E+00  0.00000000E+00
  0.00000000E+00  0.00000000E+00  0.00000000E+00
  0.00000000E+00  0.00000000E+00  0.00000000E+00
  0.00000000E+00  0.00000000E+00  0.00000000E+00
  0.00000000E+00  0.00000000E+00  0.00000000E+00
  0.00000000E+00  0.00000000E+00  0.00000000E+00
  0.00000000E+00  0.00000000E+00  0.00000000E+00
  0.00000000E+00  0.00000000E+00  0.00000000E+00
  0.00000000E+00  0.00000000E+00  0.00000000E+00
  0.00000000E+00  0.00000000E+00  0.00000000E+00
  0.00000000E+00  0.00000000E+00  0.00000000E+00
  0.00000000E+00  0.00000000E+00  0.00000000E+00
  0.00000000E+00  0.00000000E+00  0.00000000E+00
  0.00000000E+00  0.00000000E+00  0.00000000E+00
  0.00000000E+00  0.00000000E+00  0.00000000E+00
  0.00000000E+00  0.00000000E+00  0.00000000E+00
  0.00000000E+00  0.00000000E+00  0.00000000E+00
  0.00000000E+00  0.00000000E+00  0.00000000E+00
  0.00000000E+00  0.00000000E+00  0.00000000E+00
  0.00000000E+00  0.00000000E+00  0.00000000E+00
  0.00000000E+00  0.00000000E+00  0.00000000E+00
  0.00000000E+00  0.00000000E+00  0.00000000E+00
  0.00000000E+00  0.00000000E+00  0.00000000E+00
  0.00000000E+00  0.00000000E+00  0.00000000E+00
  0.00000000E+00  0.00000000E+00  0.00000000E+00
  0.00000000E+00  0.00000000E+00  0.00000000E+00
  0.00000000E+00  0.00000000E+00  0.00000000E+00
  0.00000000E+00  0.00000000E+00  0.00000000E+00
  0.00000000E+00  0.00000000E+00  0.00000000E+00
  0.00000000E+00  0.00000000E+00  0.00000000E+00
  0.00000000E+00  0.00000000E+00  0.00000000E+00
  0.00000000E+00  0.00000000E+00  0.00000000E+00
  0.00000000E+00  0.00000000E+00  0.00000000E+00
  0.00000000E+00  0.00000000E+00  0.00000000E+00
  0.00000000E+00  0.00000000E+00  0.00000000E+00
  0.00000000E+00  0.00000000E+00  0.00000000E+00
  0.00000000E+00  0.00000000E+00  0.00000000E+00
  0.00000000E+00  0.00000000E+00  0.00000000E+00
  0.00000000E+00  0.00000000E+00  0.00000000E+00
  0.00000000E+00  0.00000000E+00  0.00000000E+00
  0.00000000E+00  0.00000000E+00  0.00000000E+00
  0.00000000E+00  0.00000000E+00  0.00000000E+00
  0.00000000E+00  0.00000000E+00  0.00000000E+00
  0.00000000E+00  0.00000000E+00  0.00000000E+00
  0.00000000E+00  0.00000000E+00  0.00000000E+00
  0.00000000E+00  0.00000000E+00  0.00000000E+00
  0.00000000E+00  0.00000000E+00  0.00000000E+00
  0.00000000E+00  0.00000000E+00  0.00000000E+00
  0.00000000E+00  0.00000000E+00  0.00000000E+00
  0.00000000E+00  0.00000000E+00  0.00000000E+00
  0.00000000E+00  0.00000000E+00  0.00000000E+00
  0.00000000E+00  0.00000000E+00  0.00000000E+00
  0.00000000E+00  0.00000000E+00  0.00000000E+00
  0.00000000E+00  0.00000000E+00  0.00000000E+00
  0.00000000E+00  0.00000000E+00  0.00000000E+00
  0.00000000E+00  0.00000000E+00  0.00000000E+00
  0.00000000E+00  0.00000000E+00  0.00000000E+00
  0.00000000E+00  0.00000000E+00  0.00000000E+00
  0.00000000E+00  0.00000000E+00  0.00000000E+00
  0.00000000E+00  0.00000000E+00  0.00000000E+00
  0.00000000E+00  0.00000000E+00  0.00000000E+00
  0.00000000E+00  0.00000000E+00  0.00000000E+00
  0.00000000E+00  0.00000000E+00  0.00000000E+00
  0.00000000E+00  0.00000000E+00  0.00000000E+00
  0.00000000E+00  0.00000000E+00  0.00000000E+00
