  97  97   0   0
  0.2315679E+02  0.1293663E-08  0.1293663E-08  0.1549806E-08  0.1000000E-15
  1.000000000000000E-004
  CAR 
 Zr96H TT_c pre-NEB, four intermediate im
     12.88819493    -42.42839302  301      8.95744154      1.00000000
    -42.428  0.0000E+00  0.0000E+00
    -42.244  0.0000E+00  0.0000E+00
    -42.060  0.0000E+00  0.0000E+00
    -41.875  0.0000E+00  0.0000E+00
    -41.691 -0.3072E-35 -0.5664E-36
    -41.506 -0.2154E-28 -0.3971E-29
    -41.322 -0.2221E-22 -0.4096E-23
    -41.138 -0.4256E-17 -0.7848E-18
    -40.953 -0.1475E-12 -0.2720E-13
    -40.769 -0.9915E-09 -0.1828E-09
    -40.585 -0.1281E-05 -0.2363E-06
    -40.400 -0.3234E-03 -0.5987E-04
    -40.216 -0.1540E-01 -0.2899E-02
    -40.031 -0.7685E-01 -0.1707E-01
    -39.847  0.8130E+00  0.1328E+00
    -39.663  0.2258E+01  0.5492E+00
    -39.478  0.5919E+00  0.6584E+00
    -39.294 -0.9016E-01  0.6417E+00
    -39.109 -0.9319E-02  0.6400E+00
    -38.925 -0.1056E-03  0.6400E+00
    -38.741 -0.1951E-06  0.6400E+00
    -38.556 -0.6325E-10  0.6400E+00
    -38.372 -0.3714E-14  0.6400E+00
    -38.187  0.0000E+00  0.6400E+00
    -38.003  0.0000E+00  0.6400E+00
    -37.819  0.0000E+00  0.6400E+00
    -37.634  0.0000E+00  0.6400E+00
    -37.450  0.0000E+00  0.6400E+00
    -37.266  0.0000E+00  0.6400E+00
    -37.081  0.0000E+00  0.6400E+00
    -36.897  0.0000E+00  0.6400E+00
    -36.712  0.0000E+00  0.6400E+00
    -36.528  0.0000E+00  0.6400E+00
    -36.344  0.0000E+00  0.6400E+00
    -36.159  0.0000E+00  0.6400E+00
    -35.975  0.0000E+00  0.6400E+00
    -35.790  0.0000E+00  0.6400E+00
    -35.606  0.0000E+00  0.6400E+00
    -35.422  0.0000E+00  0.6400E+00
    -35.237  0.0000E+00  0.6400E+00
    -35.053  0.0000E+00  0.6400E+00
    -34.868  0.0000E+00  0.6400E+00
    -34.684  0.0000E+00  0.6400E+00
    -34.500  0.0000E+00  0.6400E+00
    -34.315  0.0000E+00  0.6400E+00
    -34.131  0.0000E+00  0.6400E+00
    -33.947  0.0000E+00  0.6400E+00
    -33.762  0.0000E+00  0.6400E+00
    -33.578  0.0000E+00  0.6400E+00
    -33.393  0.0000E+00  0.6400E+00
    -33.209  0.0000E+00  0.6400E+00
    -33.025  0.0000E+00  0.6400E+00
    -32.840  0.0000E+00  0.6400E+00
    -32.656  0.0000E+00  0.6400E+00
    -32.471  0.0000E+00  0.6400E+00
    -32.287  0.0000E+00  0.6400E+00
    -32.103  0.0000E+00  0.6400E+00
    -31.918  0.0000E+00  0.6400E+00
    -31.734  0.0000E+00  0.6400E+00
    -31.549  0.0000E+00  0.6400E+00
    -31.365  0.0000E+00  0.6400E+00
    -31.181  0.0000E+00  0.6400E+00
    -30.996  0.0000E+00  0.6400E+00
    -30.812  0.0000E+00  0.6400E+00
    -30.628  0.0000E+00  0.6400E+00
    -30.443  0.0000E+00  0.6400E+00
    -30.259  0.0000E+00  0.6400E+00
    -30.074  0.0000E+00  0.6400E+00
    -29.890  0.0000E+00  0.6400E+00
    -29.706  0.0000E+00  0.6400E+00
    -29.521  0.0000E+00  0.6400E+00
    -29.337  0.0000E+00  0.6400E+00
    -29.152  0.0000E+00  0.6400E+00
    -28.968  0.0000E+00  0.6400E+00
    -28.784  0.0000E+00  0.6400E+00
    -28.599  0.0000E+00  0.6400E+00
    -28.415  0.0000E+00  0.6400E+00
    -28.230  0.0000E+00  0.6400E+00
    -28.046  0.0000E+00  0.6400E+00
    -27.862  0.0000E+00  0.6400E+00
    -27.677  0.0000E+00  0.6400E+00
    -27.493  0.0000E+00  0.6400E+00
    -27.309  0.0000E+00  0.6400E+00
    -27.124  0.0000E+00  0.6400E+00
    -26.940  0.0000E+00  0.6400E+00
    -26.755  0.0000E+00  0.6400E+00
    -26.571  0.0000E+00  0.6400E+00
    -26.387  0.0000E+00  0.6400E+00
    -26.202  0.0000E+00  0.6400E+00
    -26.018  0.0000E+00  0.6400E+00
    -25.833  0.0000E+00  0.6400E+00
    -25.649  0.0000E+00  0.6400E+00
    -25.465  0.0000E+00  0.6400E+00
    -25.280  0.0000E+00  0.6400E+00
    -25.096  0.0000E+00  0.6400E+00
    -24.911  0.0000E+00  0.6400E+00
    -24.727  0.0000E+00  0.6400E+00
    -24.543  0.0000E+00  0.6400E+00
    -24.358  0.0000E+00  0.6400E+00
    -24.174  0.0000E+00  0.6400E+00
    -23.990  0.0000E+00  0.6400E+00
    -23.805  0.0000E+00  0.6400E+00
    -23.621  0.0000E+00  0.6400E+00
    -23.436  0.0000E+00  0.6400E+00
    -23.252  0.0000E+00  0.6400E+00
    -23.068  0.0000E+00  0.6400E+00
    -22.883  0.0000E+00  0.6400E+00
    -22.699  0.0000E+00  0.6400E+00
    -22.514  0.0000E+00  0.6400E+00
    -22.330  0.0000E+00  0.6400E+00
    -22.146  0.0000E+00  0.6400E+00
    -21.961  0.0000E+00  0.6400E+00
    -21.777  0.0000E+00  0.6400E+00
    -21.592  0.0000E+00  0.6400E+00
    -21.408  0.0000E+00  0.6400E+00
    -21.224  0.0000E+00  0.6400E+00
    -21.039  0.0000E+00  0.6400E+00
    -20.855  0.0000E+00  0.6400E+00
    -20.671  0.0000E+00  0.6400E+00
    -20.486  0.0000E+00  0.6400E+00
    -20.302  0.0000E+00  0.6400E+00
    -20.117 -0.3572E-33  0.6400E+00
    -19.933 -0.1041E-26  0.6400E+00
    -19.749 -0.5620E-21  0.6400E+00
    -19.564 -0.5608E-16  0.6400E+00
    -19.380 -0.1067E-11  0.6400E+00
    -19.195 -0.3999E-08  0.6400E+00
    -19.011 -0.3014E-05  0.6400E+00
    -18.827 -0.4697E-03  0.6399E+00
    -18.642 -0.1438E-01  0.6373E+00
    -18.458 -0.3405E-01  0.6310E+00
    -18.273  0.6059E+00  0.7427E+00
    -18.089  0.1642E+01  0.1045E+01
    -17.905  0.1483E+01  0.1319E+01
    -17.720  0.2152E+01  0.1716E+01
    -17.536  0.3175E+01  0.2301E+01
    -17.352  0.1465E+01  0.2571E+01
    -17.167 -0.2199E-01  0.2567E+01
    -16.983 -0.3771E-01  0.2560E+01
    -16.798 -0.1455E-02  0.2560E+01
    -16.614 -0.9614E-05  0.2560E+01
    -16.430 -0.1185E-07  0.2560E+01
    -16.245 -0.2731E-11  0.2560E+01
    -16.061 -0.1065E-15  0.2560E+01
    -15.876  0.0000E+00  0.2560E+01
    -15.692  0.0000E+00  0.2560E+01
    -15.508  0.0000E+00  0.2560E+01
    -15.323  0.0000E+00  0.2560E+01
    -15.139  0.0000E+00  0.2560E+01
    -14.954  0.0000E+00  0.2560E+01
    -14.770  0.0000E+00  0.2560E+01
    -14.586  0.0000E+00  0.2560E+01
    -14.401  0.0000E+00  0.2560E+01
    -14.217  0.0000E+00  0.2560E+01
    -14.033  0.0000E+00  0.2560E+01
    -13.848  0.0000E+00  0.2560E+01
    -13.664  0.0000E+00  0.2560E+01
    -13.479  0.0000E+00  0.2560E+01
    -13.295  0.0000E+00  0.2560E+01
    -13.111  0.0000E+00  0.2560E+01
    -12.926  0.0000E+00  0.2560E+01
    -12.742  0.0000E+00  0.2560E+01
    -12.557  0.0000E+00  0.2560E+01
    -12.373  0.0000E+00  0.2560E+01
    -12.189  0.0000E+00  0.2560E+01
    -12.004  0.0000E+00  0.2560E+01
    -11.820  0.0000E+00  0.2560E+01
    -11.635  0.0000E+00  0.2560E+01
    -11.451  0.0000E+00  0.2560E+01
    -11.267  0.0000E+00  0.2560E+01
    -11.082  0.0000E+00  0.2560E+01
    -10.898  0.0000E+00  0.2560E+01
    -10.714  0.0000E+00  0.2560E+01
    -10.529  0.0000E+00  0.2560E+01
    -10.345  0.0000E+00  0.2560E+01
    -10.160  0.0000E+00  0.2560E+01
     -9.976  0.0000E+00  0.2560E+01
     -9.792  0.0000E+00  0.2560E+01
     -9.607  0.0000E+00  0.2560E+01
     -9.423  0.0000E+00  0.2560E+01
     -9.238  0.0000E+00  0.2560E+01
     -9.054  0.0000E+00  0.2560E+01
     -8.870  0.0000E+00  0.2560E+01
     -8.685  0.0000E+00  0.2560E+01
     -8.501  0.0000E+00  0.2560E+01
     -8.316  0.0000E+00  0.2560E+01
     -8.132  0.0000E+00  0.2560E+01
     -7.948  0.0000E+00  0.2560E+01
     -7.763  0.0000E+00  0.2560E+01
     -7.579  0.0000E+00  0.2560E+01
     -7.395  0.0000E+00  0.2560E+01
     -7.210  0.0000E+00  0.2560E+01
     -7.026  0.0000E+00  0.2560E+01
     -6.841  0.0000E+00  0.2560E+01
     -6.657  0.0000E+00  0.2560E+01
     -6.473  0.0000E+00  0.2560E+01
     -6.288  0.0000E+00  0.2560E+01
     -6.104  0.0000E+00  0.2560E+01
     -5.919  0.0000E+00  0.2560E+01
     -5.735  0.0000E+00  0.2560E+01
     -5.551  0.0000E+00  0.2560E+01
     -5.366  0.0000E+00  0.2560E+01
     -5.182  0.0000E+00  0.2560E+01
     -4.998  0.0000E+00  0.2560E+01
     -4.813  0.0000E+00  0.2560E+01
     -4.629  0.0000E+00  0.2560E+01
     -4.444  0.0000E+00  0.2560E+01
     -4.260  0.0000E+00  0.2560E+01
     -4.076  0.0000E+00  0.2560E+01
     -3.891  0.0000E+00  0.2560E+01
     -3.707  0.0000E+00  0.2560E+01
     -3.522  0.0000E+00  0.2560E+01
     -3.338  0.0000E+00  0.2560E+01
     -3.154  0.0000E+00  0.2560E+01
     -2.969  0.0000E+00  0.2560E+01
     -2.785  0.0000E+00  0.2560E+01
     -2.600  0.0000E+00  0.2560E+01
     -2.416  0.0000E+00  0.2560E+01
     -2.232  0.0000E+00  0.2560E+01
     -2.047  0.0000E+00  0.2560E+01
     -1.863  0.0000E+00  0.2560E+01
     -1.679  0.0000E+00  0.2560E+01
     -1.494  0.0000E+00  0.2560E+01
     -1.310  0.0000E+00  0.2560E+01
     -1.125  0.0000E+00  0.2560E+01
     -0.941  0.0000E+00  0.2560E+01
     -0.757  0.0000E+00  0.2560E+01
     -0.572  0.0000E+00  0.2560E+01
     -0.388  0.0000E+00  0.2560E+01
     -0.203  0.0000E+00  0.2560E+01
     -0.019  0.0000E+00  0.2560E+01
      0.165  0.0000E+00  0.2560E+01
      0.350  0.0000E+00  0.2560E+01
      0.534  0.0000E+00  0.2560E+01
      0.719 -0.3432E-33  0.2560E+01
      0.903 -0.1072E-26  0.2560E+01
      1.087 -0.6047E-21  0.2560E+01
      1.272 -0.5922E-16  0.2560E+01
      1.456 -0.1068E-11  0.2560E+01
      1.640 -0.3351E-08  0.2560E+01
      1.825 -0.1785E-05  0.2560E+01
      2.009 -0.1473E-03  0.2560E+01
      2.194 -0.1119E-02  0.2560E+01
      2.378  0.9406E-02  0.2562E+01
      2.562  0.2469E-01  0.2566E+01
      2.747  0.4332E-02  0.2567E+01
      2.931 -0.9495E-03  0.2567E+01
      3.116 -0.1960E-03  0.2567E+01
      3.300 -0.2010E-03  0.2567E+01
      3.484  0.5091E-02  0.2568E+01
      3.669  0.1411E-01  0.2570E+01
      3.853  0.2191E-01  0.2574E+01
      4.038  0.2405E-01  0.2579E+01
      4.222  0.3235E-01  0.2585E+01
      4.406  0.3326E-01  0.2591E+01
      4.591  0.4200E-01  0.2598E+01
      4.775  0.4799E-01  0.2607E+01
      4.959  0.5318E-01  0.2617E+01
      5.144  0.5441E-01  0.2627E+01
      5.328  0.8128E-01  0.2642E+01
      5.513  0.7448E-01  0.2656E+01
      5.697  0.8909E-01  0.2672E+01
      5.881  0.1692E+00  0.2703E+01
      6.066  0.2577E+00  0.2751E+01
      6.250  0.3140E+00  0.2809E+01
      6.435  0.3384E+00  0.2871E+01
      6.619  0.3652E+00  0.2939E+01
      6.803  0.3995E+00  0.3012E+01
      6.988  0.4697E+00  0.3099E+01
      7.172  0.3823E+00  0.3169E+01
      7.357  0.3418E+00  0.3232E+01
      7.541  0.3078E+00  0.3289E+01
      7.725  0.3886E+00  0.3361E+01
      7.910  0.4344E+00  0.3441E+01
      8.094  0.4733E+00  0.3528E+01
      8.278  0.5449E+00  0.3629E+01
      8.463  0.5290E+00  0.3726E+01
      8.647  0.2613E+00  0.3774E+01
      8.832  0.1900E+00  0.3809E+01
      9.016  0.2991E+00  0.3865E+01
      9.200  0.5426E+00  0.3965E+01
      9.385  0.5910E+00  0.4074E+01
      9.569  0.5194E+00  0.4169E+01
      9.754  0.5492E+00  0.4271E+01
      9.938  0.5840E+00  0.4378E+01
     10.122  0.6378E+00  0.4496E+01
     10.307  0.4949E+00  0.4587E+01
     10.491  0.1222E+00  0.4610E+01
     10.676 -0.1352E-01  0.4607E+01
     10.860 -0.2911E-02  0.4607E+01
     11.044 -0.6731E-04  0.4607E+01
     11.229 -0.2805E-06  0.4607E+01
     11.413 -0.2224E-09  0.4607E+01
     11.597 -0.3366E-13  0.4607E+01
     11.782  0.0000E+00  0.4607E+01
     11.966  0.0000E+00  0.4607E+01
     12.151  0.0000E+00  0.4607E+01
     12.335  0.0000E+00  0.4607E+01
     12.519  0.0000E+00  0.4607E+01
     12.704  0.0000E+00  0.4607E+01
     12.888  0.0000E+00  0.4607E+01
