   97   97  300    1
  0.2315679E+02  0.1293663E-08  0.1293663E-08  0.1549806E-08  0.1000000E-15
  1.000000000000000E-004
  CAR 
 Zr96H TT_c pre-NEB, four intermediate im
   1153     26    691
 
  0.0000000E+00  0.0000000E+00  0.0000000E+00  0.2083333E-01
      1        -39.914003   1.000000
      2        -39.886789   1.000000
      3        -39.874352   1.000000
      4        -39.860465   1.000000
      5        -39.855284   1.000000
      6        -39.855099   1.000000
      7        -39.845948   1.000000
      8        -39.840360   1.000000
      9        -39.840325   1.000000
     10        -39.840165   1.000000
     11        -39.828207   1.000000
     12        -39.827888   1.000000
     13        -39.827460   1.000000
     14        -39.815558   1.000000
     15        -39.815351   1.000000
     16        -39.815207   1.000000
     17        -39.814667   1.000000
     18        -39.813233   1.000000
     19        -39.813218   1.000000
     20        -39.812858   1.000000
     21        -39.812765   1.000000
     22        -39.810306   1.000000
     23        -39.792750   1.000000
     24        -39.792546   1.000000
     25        -39.791991   1.000000
     26        -39.785988   1.000000
     27        -39.780861   1.000000
     28        -39.777938   1.000000
     29        -39.770847   1.000000
     30        -39.770719   1.000000
     31        -39.767811   1.000000
     32        -39.767771   1.000000
     33        -39.767519   1.000000
     34        -39.765438   1.000000
     35        -39.765214   1.000000
     36        -39.765148   1.000000
     37        -39.763376   1.000000
     38        -39.763001   1.000000
     39        -39.761463   1.000000
     40        -39.759523   1.000000
     41        -39.759186   1.000000
     42        -39.759108   1.000000
     43        -39.758493   1.000000
     44        -39.758228   1.000000
     45        -39.757794   1.000000
     46        -39.757775   1.000000
     47        -39.757663   1.000000
     48        -39.756404   1.000000
     49        -39.755972   1.000000
     50        -39.755907   1.000000
     51        -39.755161   1.000000
     52        -39.755100   1.000000
     53        -39.754986   1.000000
     54        -39.754278   1.000000
     55        -39.753883   1.000000
     56        -39.753814   1.000000
     57        -39.751650   1.000000
     58        -39.750244   1.000000
     59        -39.749707   1.000000
     60        -39.749609   1.000000
     61        -39.749304   1.000000
     62        -39.749110   1.000000
     63        -39.746715   1.000000
     64        -39.743318   1.000000
     65        -39.738918   1.000000
     66        -39.738868   1.000000
     67        -39.738559   1.000000
     68        -39.734401   1.000000
     69        -39.734246   1.000000
     70        -39.732523   1.000000
     71        -39.732308   1.000000
     72        -39.731480   1.000000
     73        -39.731252   1.000000
     74        -39.731212   1.000000
     75        -39.730416   1.000000
     76        -39.730147   1.000000
     77        -39.730006   1.000000
     78        -39.729276   1.000000
     79        -39.729109   1.000000
     80        -39.728755   1.000000
     81        -39.725468   1.000000
     82        -39.724268   1.000000
     83        -39.724218   1.000000
     84        -39.724128   1.000000
     85        -39.722917   1.000000
     86        -39.721928   1.000000
     87        -39.720916   1.000000
     88        -39.720880   1.000000
     89        -39.718190   1.000000
     90        -39.718189   1.000000
     91        -39.714824   1.000000
     92        -39.714623   1.000000
     93        -39.708674   1.000000
     94        -39.708646   1.000000
     95        -39.705891   1.000000
     96        -39.704109   1.000000
     97        -18.417931   1.000000
     98        -18.357030   1.000000
     99        -18.333902   1.000000
    100        -18.333878   1.000000
    101        -18.333006   1.000000
    102        -18.332698   1.000000
    103        -18.332675   1.000000
    104        -18.274252   1.000000
    105        -18.253550   1.000000
    106        -18.248721   1.000000
    107        -18.248678   1.000000
    108        -18.246380   1.000000
    109        -18.246354   1.000000
    110        -18.243901   1.000000
    111        -18.242844   1.000000
    112        -18.242782   1.000000
    113        -18.241563   1.000000
    114        -18.239173   1.000000
    115        -18.239054   1.000000
    116        -18.237398   1.000000
    117        -18.236140   1.000000
    118        -18.236093   1.000000
    119        -18.215290   1.000000
    120        -18.210971   1.000000
    121        -18.208321   1.000000
    122        -18.208181   1.000000
    123        -18.205351   1.000000
    124        -18.205344   1.000000
    125        -18.202155   1.000000
    126        -18.202144   1.000000
    127        -18.201770   1.000000
    128        -18.200232   1.000000
    129        -18.200131   1.000000
    130        -18.199680   1.000000
    131        -18.188251   1.000000
    132        -18.182590   1.000000
    133        -18.173461   1.000000
    134        -18.172120   1.000000
    135        -18.172090   1.000000
    136        -18.167841   1.000000
    137        -18.167775   1.000000
    138        -18.165539   1.000000
    139        -18.164856   1.000000
    140        -18.164687   1.000000
    141        -18.164108   1.000000
    142        -18.163003   1.000000
    143        -18.162487   1.000000
    144        -18.162452   1.000000
    145        -18.161791   1.000000
    146        -18.161448   1.000000
    147        -18.161267   1.000000
    148        -18.161199   1.000000
    149        -18.159536   1.000000
    150        -18.159511   1.000000
    151        -18.158625   1.000000
    152        -18.158494   1.000000
    153        -18.158298   1.000000
    154        -18.158153   1.000000
    155        -18.156966   1.000000
    156        -18.156867   1.000000
    157        -18.106085   1.000000
    158        -18.105922   1.000000
    159        -18.105410   1.000000
    160        -18.100615   1.000000
    161        -18.100476   1.000000
    162        -18.099279   1.000000
    163        -18.081478   1.000000
    164        -18.078486   1.000000
    165        -18.078431   1.000000
    166        -18.031480   1.000000
    167        -18.029521   1.000000
    168        -18.029355   1.000000
    169        -18.029240   1.000000
    170        -18.024159   1.000000
    171        -18.024083   1.000000
    172        -18.013949   1.000000
    173        -18.002680   1.000000
    174        -18.002291   1.000000
    175        -17.992977   1.000000
    176        -17.992806   1.000000
    177        -17.990536   1.000000
    178        -17.988378   1.000000
    179        -17.988342   1.000000
    180        -17.988131   1.000000
    181        -17.957222   1.000000
    182        -17.957172   1.000000
    183        -17.945497   1.000000
    184        -17.943271   1.000000
    185        -17.941698   1.000000
    186        -17.941568   1.000000
    187        -17.936856   1.000000
    188        -17.936748   1.000000
    189        -17.935903   1.000000
    190        -17.935747   1.000000
    191        -17.933901   1.000000
    192        -17.933742   1.000000
    193        -17.917129   1.000000
    194        -17.917076   1.000000
    195        -17.906623   1.000000
    196        -17.903519   1.000000
    197        -17.903327   1.000000
    198        -17.898174   1.000000
    199        -17.890100   1.000000
    200        -17.889975   1.000000
    201        -17.888133   1.000000
    202        -17.888022   1.000000
    203        -17.886506   1.000000
    204        -17.881554   1.000000
    205        -17.880108   1.000000
    206        -17.879480   1.000000
    207        -17.879470   1.000000
    208        -17.879042   1.000000
    209        -17.875136   1.000000
    210        -17.875083   1.000000
    211        -17.835853   1.000000
    212        -17.830491   1.000000
    213        -17.830259   1.000000
    214        -17.830084   1.000000
    215        -17.829268   1.000000
    216        -17.828966   1.000000
    217        -17.813504   1.000000
    218        -17.812337   1.000000
    219        -17.812149   1.000000
    220        -17.805227   1.000000
    221        -17.805213   1.000000
    222        -17.798525   1.000000
    223        -17.798512   1.000000
    224        -17.797857   1.000000
    225        -17.795080   1.000000
    226        -17.794539   1.000000
    227        -17.793011   1.000000
    228        -17.792765   1.000000
    229        -17.784838   1.000000
    230        -17.778419   1.000000
    231        -17.778242   1.000000
    232        -17.775501   1.000000
    233        -17.775391   1.000000
    234        -17.774901   1.000000
    235        -17.773050   1.000000
    236        -17.772823   1.000000
    237        -17.767926   1.000000
    238        -17.767890   1.000000
    239        -17.763517   1.000000
    240        -17.763245   1.000000
    241        -17.763170   1.000000
    242        -17.762219   1.000000
    243        -17.762145   1.000000
    244        -17.761907   1.000000
    245        -17.760380   1.000000
    246        -17.760214   1.000000
    247        -17.759373   1.000000
    248        -17.759286   1.000000
    249        -17.757396   1.000000
    250        -17.757287   1.000000
    251        -17.757185   1.000000
    252        -17.756537   1.000000
    253        -17.756319   1.000000
    254        -17.755957   1.000000
    255        -17.752297   1.000000
    256        -17.712802   1.000000
    257        -17.709101   1.000000
    258        -17.709026   1.000000
    259        -17.707946   1.000000
    260        -17.707862   1.000000
    261        -17.705396   1.000000
    262        -17.703236   1.000000
    263        -17.690629   1.000000
    264        -17.690439   1.000000
    265        -17.689576   1.000000
    266        -17.685585   1.000000
    267        -17.682917   1.000000
    268        -17.680975   1.000000
    269        -17.680961   1.000000
    270        -17.679345   1.000000
    271        -17.676598   1.000000
    272        -17.676094   1.000000
    273        -17.675990   1.000000
    274        -17.672134   1.000000
    275        -17.670243   1.000000
    276        -17.669950   1.000000
    277        -17.668449   1.000000
    278        -17.668257   1.000000
    279        -17.668044   1.000000
    280        -17.667987   1.000000
    281        -17.667359   1.000000
    282        -17.667208   1.000000
    283        -17.667028   1.000000
    284        -17.666953   1.000000
    285        -17.666572   1.000000
    286        -17.666101   1.000000
    287        -17.666036   1.000000
    288        -17.665855   1.000000
    289        -17.665819   1.000000
    290        -17.661588   1.000000
    291        -17.661503   1.000000
    292        -17.661242   1.000000
    293        -17.659759   1.000000
    294        -17.659666   1.000000
    295        -17.659183   1.000000
    296        -17.657311   1.000000
    297        -17.633080   1.000000
    298        -17.629865   1.000000
    299        -17.628606   1.000000
    300        -17.628598   1.000000
    301        -17.627315   1.000000
    302        -17.627291   1.000000
    303        -17.621616   1.000000
    304        -17.621164   1.000000
    305        -17.621044   1.000000
    306        -17.618579   1.000000
    307        -17.618499   1.000000
    308        -17.618498   1.000000
    309        -17.615436   1.000000
    310        -17.615382   1.000000
    311        -17.613397   1.000000
    312        -17.613280   1.000000
    313        -17.613100   1.000000
    314        -17.604423   1.000000
    315        -17.590783   1.000000
    316        -17.590663   1.000000
    317        -17.586847   1.000000
    318        -17.586811   1.000000
    319        -17.586622   1.000000
    320        -17.584529   1.000000
    321        -17.583483   1.000000
    322        -17.578289   1.000000
    323        -17.577559   1.000000
    324        -17.577450   1.000000
    325        -17.574656   1.000000
    326        -17.574545   1.000000
    327        -17.573212   1.000000
    328        -17.573067   1.000000
    329        -17.573022   1.000000
    330        -17.571628   1.000000
    331        -17.571396   1.000000
    332        -17.568571   1.000000
    333        -17.567037   1.000000
    334        -17.566744   1.000000
    335        -17.566715   1.000000
    336        -17.564882   1.000000
    337        -17.564480   1.000000
    338        -17.564261   1.000000
    339        -17.561526   1.000000
    340        -17.560623   1.000000
    341        -17.560462   1.000000
    342        -17.559138   1.000000
    343        -17.559045   1.000000
    344        -17.558922   1.000000
    345        -17.555791   1.000000
    346        -17.555766   1.000000
    347        -17.530096   1.000000
    348        -17.530088   1.000000
    349        -17.526986   1.000000
    350        -17.526122   1.000000
    351        -17.526120   1.000000
    352        -17.525840   1.000000
    353        -17.525807   1.000000
    354        -17.521070   1.000000
    355        -17.520223   1.000000
    356        -17.519089   1.000000
    357        -17.518911   1.000000
    358        -17.518756   1.000000
    359        -17.518745   1.000000
    360        -17.518696   1.000000
    361        -17.516949   1.000000
    362        -17.516881   1.000000
    363        -17.515967   1.000000
    364        -17.512159   1.000000
    365        -17.512119   1.000000
    366        -17.511451   1.000000
    367        -17.511290   1.000000
    368        -17.507719   1.000000
    369        -17.506611   1.000000
    370        -17.504417   1.000000
    371        -17.504401   1.000000
    372        -17.473166   1.000000
    373        -17.473062   1.000000
    374        -17.472232   1.000000
    375        -17.468749   1.000000
    376        -17.468577   1.000000
    377        -17.461333   1.000000
    378        -17.454231   1.000000
    379        -17.454210   1.000000
    380        -17.449584   1.000000
    381        -17.449579   1.000000
    382        -17.428984   1.000000
    383        -17.418058   1.000000
    384        -17.418051   1.000000
    385          2.433364   1.000000
    386          3.386934   1.000000
    387          4.152817   1.000000
    388          4.233026   1.000000
    389          4.811815   1.000000
    390          4.811959   1.000000
    391          4.816094   1.000000
    392          4.816095   1.000000
    393          4.819003   1.000000
    394          4.949032   1.000000
    395          5.386019   1.000000
    396          5.386244   1.000000
    397          5.386880   1.000000
    398          5.393406   1.000000
    399          5.393450   1.000000
    400          5.394361   1.000000
    401          5.394427   1.000000
    402          5.395371   1.000000
    403          5.395469   1.000000
    404          5.397001   1.000000
    405          5.398679   1.000000
    406          5.558963   1.000000
    407          5.659875   1.000000
    408          5.742960   1.000000
    409          5.898789   1.000000
    410          5.906346   1.000000
    411          5.906413   1.000000
    412          5.911326   1.000000
    413          5.911415   1.000000
    414          5.917775   1.000000
    415          6.013925   1.000000
    416          6.395502   1.000000
    417          6.395507   1.000000
    418          6.403442   1.000000
    419          6.419586   1.000000
    420          6.421643   1.000000
    421          6.421713   1.000000
    422          6.425555   1.000000
    423          6.425674   1.000000
    424          6.430087   1.000000
    425          6.443561   1.000000
    426          6.443744   1.000000
    427          6.500657   1.000000
    428          6.698045   1.000000
    429          6.712214   1.000000
    430          6.712420   1.000000
    431          6.716826   1.000000
    432          6.716996   1.000000
    433          6.719070   1.000000
    434          6.719193   1.000000
    435          6.722981   1.000000
    436          6.725871   1.000000
    437          6.726190   1.000000
    438          6.730661   1.000000
    439          6.762090   1.000000
    440          6.782669   1.000000
    441          6.784852   1.000000
    442          6.784944   1.000000
    443          6.788903   1.000000
    444          6.789575   1.000000
    445          6.789987   1.000000
    446          6.791403   1.000000
    447          6.791582   1.000000
    448          6.791617   1.000000
    449          6.797215   1.000000
    450          6.797460   1.000000
    451          6.809539   1.000000
    452          6.814659   1.000000
    453          6.814978   1.000000
    454          6.825516   1.000000
    455          6.863400   1.000000
    456          6.863752   1.000000
    457          6.867502   1.000000
    458          6.867644   1.000000
    459          6.867918   1.000000
    460          6.889812   1.000000
    461          6.895283   1.000000
    462          6.895673   1.000000
    463          6.900692   1.000000
    464          6.901078   1.000000
    465          6.901431   1.000000
    466          6.901614   1.000000
    467          6.901657   1.000000
    468          6.905067   1.000000
    469          6.909684   1.000000
    470          6.911618   1.000000
    471          6.911842   1.000000
    472          6.912764   1.000000
    473          6.928649   1.000000
    474          6.928731   1.000000
    475          6.931006   1.000000
    476          6.931209   1.000000
    477          6.941802   1.000000
    478          7.032954   1.000000
    479          7.033495   1.000000
    480          7.033523   1.000000
    481          7.041760   1.000000
    482          7.042104   1.000000
    483          7.042349   1.000000
    484          7.295219   1.000000
    485          7.568372   1.000000
    486          7.568490   1.000000
    487          7.569697   1.000000
    488          7.569862   1.000000
    489          7.575981   1.000000
    490          7.582766   1.000000
    491          7.661877   1.000000
    492          7.671637   1.000000
    493          7.671689   1.000000
    494          7.681039   1.000000
    495          7.681166   1.000000
    496          7.683757   1.000000
    497          7.688687   1.000000
    498          7.688982   1.000000
    499          7.696275   1.000000
    500          7.697055   1.000000
    501          7.697378   1.000000
    502          7.723754   1.000000
    503          7.749026   1.000000
    504          7.760034   1.000000
    505          7.760571   1.000000
    506          7.761524   1.000000
    507          7.762239   1.000000
    508          7.767888   1.000000
    509          7.768460   1.000000
    510          7.771742   1.000000
    511          7.772109   1.000000
    512          7.772133   1.000000
    513          7.775558   1.000000
    514          7.829671   1.000000
    515          7.858883   1.000000
    516          7.859111   1.000000
    517          7.862354   1.000000
    518          7.865111   1.000000
    519          7.865441   1.000000
    520          7.868089   1.000000
    521          7.868169   1.000000
    522          7.868498   1.000000
    523          7.869998   1.000000
    524          7.870176   1.000000
    525          7.877619   1.000000
    526          7.976345   1.000000
    527          8.010814   1.000000
    528          8.014462   1.000000
    529          8.014527   1.000000
    530          8.017540   1.000000
    531          8.017815   1.000000
    532          8.031198   1.000000
    533          8.041966   1.000000
    534          8.042192   1.000000
    535          8.048696   1.000000
    536          8.048783   1.000000
    537          8.051400   1.000000
    538          8.195325   1.000000
    539          8.358939   1.000097
    540          8.359357   1.000099
    541          8.360077   1.000101
    542          8.360498   1.000102
    543          8.362192   1.000107
    544          8.362405   1.000107
    545          8.366111   1.000119
    546          8.366113   1.000119
    547          8.370399   1.000134
    548          8.371068   1.000136
    549          8.371579   1.000138
    550          8.406201   1.000342
    551          8.406436   1.000344
    552          8.414581   1.000422
    553          8.422480   1.000512
    554          8.422820   1.000516
    555          8.435107   1.000693
    556          8.534517   1.005425
    557          8.575358   1.010562
    558          8.575416   1.010572
    559          8.585284   1.012206
    560          8.585579   1.012258
    561          8.595557   1.014072
    562          8.595842   1.014126
    563          8.597273   1.014399
    564          8.597606   1.014463
    565          8.598808   1.014696
    566          8.602301   1.015383
    567          8.612511   1.017486
    568          8.718835   1.035296
    569          8.730255   1.034090
    570          8.730433   1.034061
    571          8.854367   0.878425
    572          8.862671   0.855399
    573          8.877157   0.811265
    574          8.877235   0.811014
    575          8.886323   0.780872
    576          8.887515   0.776787
    577          8.888988   0.771699
    578          8.891510   0.762883
    579          8.893300   0.756552
    580          8.893650   0.755306
    581          8.914841   0.675803
    582          8.914884   0.675633
    583          9.027592   0.222442
    584          9.059368   0.124659
    585          9.061883   0.117950
    586          9.062624   0.116005
    587          9.062802   0.115537
    588          9.066943   0.104932
    589          9.067669   0.103118
    590          9.077484   0.079891
    591          9.098801   0.037776
    592          9.099215   0.037068
    593          9.100879   0.034269
    594          9.108593   0.022154
    595          9.112864   0.016042
    596          9.114058   0.014408
    597          9.119512   0.007351
    598          9.119591   0.007254
    599          9.122029   0.004314
    600          9.124657   0.001290
    601          9.124673   0.001272
    602          9.132839  -0.007207
    603          9.146196  -0.018265
    604          9.164669  -0.028482
    605          9.164878  -0.028568
    606          9.169140  -0.030181
    607          9.169307  -0.030239
    608          9.169725  -0.030383
    609          9.172213  -0.031192
    610          9.177005  -0.032527
    611          9.177120  -0.032555
    612          9.179753  -0.033167
    613          9.179896  -0.033198
    614          9.199852  -0.035433
    615          9.327583  -0.012560
    616          9.342081  -0.010165
    617          9.494746  -0.000483
    618          9.494803  -0.000483
    619          9.501145  -0.000413
    620          9.588548  -0.000038
    621          9.588644  -0.000038
    622          9.622287  -0.000014
    623          9.622342  -0.000014
    624          9.625766  -0.000012
    625          9.626014  -0.000012
    626          9.627558  -0.000012
    627          9.634186  -0.000009
    628          9.634661  -0.000009
    629          9.647108  -0.000006
    630          9.684859  -0.000002
    631          9.701204  -0.000001
    632          9.701911  -0.000001
    633          9.750184  -0.000000
    634          9.754999  -0.000000
    635          9.764977  -0.000000
    636          9.765685  -0.000000
    637          9.790920  -0.000000
    638          9.791123  -0.000000
    639          9.802536  -0.000000
    640          9.802601  -0.000000
    641          9.827183  -0.000000
    642          9.828046  -0.000000
    643          9.834817  -0.000000
    644          9.848311  -0.000000
    645          9.848405  -0.000000
    646          9.851857  -0.000000
    647          9.857823  -0.000000
    648          9.858461  -0.000000
    649          9.862775  -0.000000
    650          9.866158  -0.000000
    651          9.866653  -0.000000
    652          9.881241  -0.000000
    653          9.929025  -0.000000
    654          9.991167  -0.000000
    655          9.991633  -0.000000
    656          9.996323  -0.000000
    657          9.996553  -0.000000
    658         10.035950  -0.000000
    659         10.054394  -0.000000
    660         10.057265  -0.000000
    661         10.057328  -0.000000
    662         10.058642  -0.000000
    663         10.058703  -0.000000
    664         10.079402  -0.000000
    665         10.124541  -0.000000
    666         10.128670  -0.000000
    667         10.129598  -0.000000
    668         10.140425  -0.000000
    669         10.140676  -0.000000
    670         10.141291  -0.000000
    671         10.164998  -0.000000
    672         10.165677  -0.000000
    673         10.200549  -0.000000
    674         10.202674  -0.000000
    675         10.202709  -0.000000
    676         10.210139  -0.000000
    677         10.210494  -0.000000
    678         10.211589  -0.000000
    679         10.218697  -0.000000
    680         10.219434  -0.000000
    681         10.220761  -0.000000
    682         10.236265  -0.000000
    683         10.240692  -0.000000
    684         10.240970  -0.000000
    685         10.254391  -0.000000
    686         10.255096  -0.000000
    687         10.255538  -0.000000
    688         10.262997  -0.000000
    689         10.264900  -0.000000
    690         10.267604  -0.000000
    691         10.268611  -0.000000
 
  0.2500000E+00 -0.8988716E-17  0.0000000E+00  0.4166667E-01
      1        -39.911470   1.000000
      2        -39.886060   1.000000
      3        -39.873908   1.000000
      4        -39.865581   1.000000
      5        -39.858507   1.000000
      6        -39.856963   1.000000
      7        -39.850841   1.000000
      8        -39.843833   1.000000
      9        -39.837904   1.000000
     10        -39.837085   1.000000
     11        -39.831347   1.000000
     12        -39.826100   1.000000
     13        -39.824552   1.000000
     14        -39.822032   1.000000
     15        -39.821409   1.000000
     16        -39.819097   1.000000
     17        -39.811862   1.000000
     18        -39.809589   1.000000
     19        -39.806475   1.000000
     20        -39.802523   1.000000
     21        -39.801835   1.000000
     22        -39.796283   1.000000
     23        -39.793198   1.000000
     24        -39.791477   1.000000
     25        -39.788389   1.000000
     26        -39.783927   1.000000
     27        -39.783393   1.000000
     28        -39.782509   1.000000
     29        -39.779416   1.000000
     30        -39.778502   1.000000
     31        -39.772435   1.000000
     32        -39.771423   1.000000
     33        -39.769981   1.000000
     34        -39.769635   1.000000
     35        -39.768662   1.000000
     36        -39.767861   1.000000
     37        -39.767442   1.000000
     38        -39.765712   1.000000
     39        -39.765517   1.000000
     40        -39.763130   1.000000
     41        -39.762176   1.000000
     42        -39.761752   1.000000
     43        -39.760620   1.000000
     44        -39.759573   1.000000
     45        -39.759353   1.000000
     46        -39.757868   1.000000
     47        -39.757162   1.000000
     48        -39.755911   1.000000
     49        -39.755528   1.000000
     50        -39.754580   1.000000
     51        -39.753068   1.000000
     52        -39.752150   1.000000
     53        -39.751675   1.000000
     54        -39.751248   1.000000
     55        -39.750806   1.000000
     56        -39.749304   1.000000
     57        -39.748716   1.000000
     58        -39.748256   1.000000
     59        -39.747102   1.000000
     60        -39.745291   1.000000
     61        -39.744818   1.000000
     62        -39.743990   1.000000
     63        -39.743339   1.000000
     64        -39.740751   1.000000
     65        -39.739695   1.000000
     66        -39.738398   1.000000
     67        -39.737890   1.000000
     68        -39.735802   1.000000
     69        -39.735339   1.000000
     70        -39.734017   1.000000
     71        -39.733682   1.000000
     72        -39.732885   1.000000
     73        -39.732368   1.000000
     74        -39.731349   1.000000
     75        -39.730995   1.000000
     76        -39.730431   1.000000
     77        -39.729689   1.000000
     78        -39.729583   1.000000
     79        -39.729056   1.000000
     80        -39.727390   1.000000
     81        -39.726125   1.000000
     82        -39.725737   1.000000
     83        -39.724583   1.000000
     84        -39.724291   1.000000
     85        -39.723342   1.000000
     86        -39.722412   1.000000
     87        -39.720879   1.000000
     88        -39.720054   1.000000
     89        -39.718518   1.000000
     90        -39.717900   1.000000
     91        -39.714616   1.000000
     92        -39.714466   1.000000
     93        -39.708770   1.000000
     94        -39.708597   1.000000
     95        -39.706247   1.000000
     96        -39.704321   1.000000
     97        -18.406274   1.000000
     98        -18.344118   1.000000
     99        -18.320622   1.000000
    100        -18.320541   1.000000
    101        -18.319332   1.000000
    102        -18.317547   1.000000
    103        -18.315627   1.000000
    104        -18.312503   1.000000
    105        -18.277557   1.000000
    106        -18.274639   1.000000
    107        -18.262802   1.000000
    108        -18.236883   1.000000
    109        -18.234982   1.000000
    110        -18.234617   1.000000
    111        -18.233435   1.000000
    112        -18.231760   1.000000
    113        -18.230043   1.000000
    114        -18.226830   1.000000
    115        -18.225727   1.000000
    116        -18.223322   1.000000
    117        -18.222030   1.000000
    118        -18.220268   1.000000
    119        -18.216173   1.000000
    120        -18.210921   1.000000
    121        -18.208985   1.000000
    122        -18.207654   1.000000
    123        -18.205795   1.000000
    124        -18.204282   1.000000
    125        -18.203543   1.000000
    126        -18.203233   1.000000
    127        -18.201377   1.000000
    128        -18.200791   1.000000
    129        -18.200122   1.000000
    130        -18.198841   1.000000
    131        -18.198060   1.000000
    132        -18.186463   1.000000
    133        -18.181776   1.000000
    134        -18.180857   1.000000
    135        -18.178384   1.000000
    136        -18.177262   1.000000
    137        -18.174005   1.000000
    138        -18.170223   1.000000
    139        -18.169178   1.000000
    140        -18.168431   1.000000
    141        -18.166777   1.000000
    142        -18.166151   1.000000
    143        -18.165253   1.000000
    144        -18.164921   1.000000
    145        -18.163520   1.000000
    146        -18.163366   1.000000
    147        -18.162411   1.000000
    148        -18.158149   1.000000
    149        -18.158113   1.000000
    150        -18.155540   1.000000
    151        -18.154869   1.000000
    152        -18.151720   1.000000
    153        -18.140243   1.000000
    154        -18.138029   1.000000
    155        -18.134221   1.000000
    156        -18.131870   1.000000
    157        -18.126125   1.000000
    158        -18.125640   1.000000
    159        -18.124650   1.000000
    160        -18.123445   1.000000
    161        -18.073643   1.000000
    162        -18.071454   1.000000
    163        -18.069561   1.000000
    164        -18.067484   1.000000
    165        -18.065923   1.000000
    166        -18.065843   1.000000
    167        -18.058105   1.000000
    168        -18.054415   1.000000
    169        -18.053778   1.000000
    170        -18.038378   1.000000
    171        -18.020914   1.000000
    172        -18.019658   1.000000
    173        -18.019574   1.000000
    174        -18.013597   1.000000
    175        -18.012490   1.000000
    176        -18.007262   1.000000
    177        -18.006862   1.000000
    178        -18.003885   1.000000
    179        -18.003214   1.000000
    180        -18.001811   1.000000
    181        -17.999131   1.000000
    182        -17.998584   1.000000
    183        -17.995094   1.000000
    184        -17.989374   1.000000
    185        -17.989301   1.000000
    186        -17.975118   1.000000
    187        -17.969352   1.000000
    188        -17.954773   1.000000
    189        -17.950757   1.000000
    190        -17.949484   1.000000
    191        -17.949002   1.000000
    192        -17.930360   1.000000
    193        -17.924801   1.000000
    194        -17.900889   1.000000
    195        -17.898645   1.000000
    196        -17.894179   1.000000
    197        -17.892237   1.000000
    198        -17.890510   1.000000
    199        -17.890226   1.000000
    200        -17.884697   1.000000
    201        -17.881219   1.000000
    202        -17.873614   1.000000
    203        -17.871117   1.000000
    204        -17.869610   1.000000
    205        -17.855089   1.000000
    206        -17.851336   1.000000
    207        -17.843154   1.000000
    208        -17.842023   1.000000
    209        -17.835724   1.000000
    210        -17.834109   1.000000
    211        -17.831658   1.000000
    212        -17.829592   1.000000
    213        -17.829243   1.000000
    214        -17.826903   1.000000
    215        -17.826828   1.000000
    216        -17.825493   1.000000
    217        -17.817876   1.000000
    218        -17.817452   1.000000
    219        -17.815971   1.000000
    220        -17.813308   1.000000
    221        -17.807767   1.000000
    222        -17.803685   1.000000
    223        -17.800242   1.000000
    224        -17.797753   1.000000
    225        -17.793732   1.000000
    226        -17.792812   1.000000
    227        -17.787001   1.000000
    228        -17.785788   1.000000
    229        -17.785243   1.000000
    230        -17.784480   1.000000
    231        -17.783505   1.000000
    232        -17.780083   1.000000
    233        -17.778572   1.000000
    234        -17.776543   1.000000
    235        -17.775648   1.000000
    236        -17.771622   1.000000
    237        -17.771555   1.000000
    238        -17.769588   1.000000
    239        -17.769246   1.000000
    240        -17.767880   1.000000
    241        -17.767351   1.000000
    242        -17.766484   1.000000
    243        -17.765799   1.000000
    244        -17.764890   1.000000
    245        -17.760944   1.000000
    246        -17.753782   1.000000
    247        -17.742456   1.000000
    248        -17.734790   1.000000
    249        -17.733962   1.000000
    250        -17.733057   1.000000
    251        -17.731302   1.000000
    252        -17.728679   1.000000
    253        -17.728115   1.000000
    254        -17.726844   1.000000
    255        -17.724887   1.000000
    256        -17.723008   1.000000
    257        -17.707354   1.000000
    258        -17.704158   1.000000
    259        -17.703987   1.000000
    260        -17.702742   1.000000
    261        -17.701891   1.000000
    262        -17.700657   1.000000
    263        -17.699798   1.000000
    264        -17.697831   1.000000
    265        -17.695871   1.000000
    266        -17.691601   1.000000
    267        -17.689767   1.000000
    268        -17.685804   1.000000
    269        -17.684185   1.000000
    270        -17.681751   1.000000
    271        -17.678680   1.000000
    272        -17.674190   1.000000
    273        -17.673544   1.000000
    274        -17.671571   1.000000
    275        -17.668724   1.000000
    276        -17.668089   1.000000
    277        -17.667605   1.000000
    278        -17.666525   1.000000
    279        -17.661763   1.000000
    280        -17.660891   1.000000
    281        -17.659105   1.000000
    282        -17.658132   1.000000
    283        -17.656236   1.000000
    284        -17.655306   1.000000
    285        -17.654280   1.000000
    286        -17.653544   1.000000
    287        -17.652817   1.000000
    288        -17.651503   1.000000
    289        -17.650286   1.000000
    290        -17.648308   1.000000
    291        -17.646976   1.000000
    292        -17.646280   1.000000
    293        -17.646129   1.000000
    294        -17.645142   1.000000
    295        -17.644630   1.000000
    296        -17.644401   1.000000
    297        -17.642189   1.000000
    298        -17.642022   1.000000
    299        -17.636551   1.000000
    300        -17.630532   1.000000
    301        -17.629481   1.000000
    302        -17.626415   1.000000
    303        -17.624608   1.000000
    304        -17.622030   1.000000
    305        -17.618397   1.000000
    306        -17.617941   1.000000
    307        -17.617834   1.000000
    308        -17.617105   1.000000
    309        -17.613703   1.000000
    310        -17.613535   1.000000
    311        -17.611685   1.000000
    312        -17.610446   1.000000
    313        -17.596556   1.000000
    314        -17.594083   1.000000
    315        -17.592678   1.000000
    316        -17.591623   1.000000
    317        -17.585347   1.000000
    318        -17.584900   1.000000
    319        -17.584427   1.000000
    320        -17.584284   1.000000
    321        -17.583071   1.000000
    322        -17.581160   1.000000
    323        -17.580913   1.000000
    324        -17.580342   1.000000
    325        -17.579555   1.000000
    326        -17.579269   1.000000
    327        -17.577805   1.000000
    328        -17.577293   1.000000
    329        -17.575662   1.000000
    330        -17.574945   1.000000
    331        -17.574275   1.000000
    332        -17.570734   1.000000
    333        -17.570491   1.000000
    334        -17.570343   1.000000
    335        -17.570189   1.000000
    336        -17.564392   1.000000
    337        -17.562098   1.000000
    338        -17.561116   1.000000
    339        -17.558821   1.000000
    340        -17.558459   1.000000
    341        -17.555478   1.000000
    342        -17.552212   1.000000
    343        -17.548969   1.000000
    344        -17.548878   1.000000
    345        -17.546075   1.000000
    346        -17.545949   1.000000
    347        -17.544821   1.000000
    348        -17.543604   1.000000
    349        -17.542351   1.000000
    350        -17.541606   1.000000
    351        -17.540431   1.000000
    352        -17.538155   1.000000
    353        -17.536657   1.000000
    354        -17.536214   1.000000
    355        -17.535778   1.000000
    356        -17.534296   1.000000
    357        -17.534117   1.000000
    358        -17.533643   1.000000
    359        -17.533254   1.000000
    360        -17.530637   1.000000
    361        -17.525728   1.000000
    362        -17.521638   1.000000
    363        -17.514840   1.000000
    364        -17.513970   1.000000
    365        -17.512707   1.000000
    366        -17.511118   1.000000
    367        -17.497478   1.000000
    368        -17.496994   1.000000
    369        -17.494342   1.000000
    370        -17.494342   1.000000
    371        -17.492199   1.000000
    372        -17.490087   1.000000
    373        -17.487782   1.000000
    374        -17.474684   1.000000
    375        -17.473766   1.000000
    376        -17.468981   1.000000
    377        -17.468353   1.000000
    378        -17.463498   1.000000
    379        -17.459094   1.000000
    380        -17.456159   1.000000
    381        -17.446985   1.000000
    382        -17.444924   1.000000
    383        -17.433822   1.000000
    384        -17.421439   1.000000
    385          2.442131   1.000000
    386          3.482175   1.000000
    387          4.223064   1.000000
    388          4.251945   1.000000
    389          4.340368   1.000000
    390          4.575942   1.000000
    391          4.644197   1.000000
    392          4.945129   1.000000
    393          4.984656   1.000000
    394          5.201207   1.000000
    395          5.213432   1.000000
    396          5.231873   1.000000
    397          5.233683   1.000000
    398          5.235049   1.000000
    399          5.332812   1.000000
    400          5.461000   1.000000
    401          5.651945   1.000000
    402          5.653644   1.000000
    403          5.654741   1.000000
    404          5.688601   1.000000
    405          5.743101   1.000000
    406          5.750168   1.000000
    407          5.764159   1.000000
    408          5.833436   1.000000
    409          5.914730   1.000000
    410          5.930777   1.000000
    411          5.976374   1.000000
    412          5.979706   1.000000
    413          5.984939   1.000000
    414          6.001063   1.000000
    415          6.068312   1.000000
    416          6.268629   1.000000
    417          6.307049   1.000000
    418          6.327389   1.000000
    419          6.393137   1.000000
    420          6.394840   1.000000
    421          6.395496   1.000000
    422          6.407320   1.000000
    423          6.434793   1.000000
    424          6.438653   1.000000
    425          6.441988   1.000000
    426          6.457924   1.000000
    427          6.463092   1.000000
    428          6.476711   1.000000
    429          6.498343   1.000000
    430          6.502432   1.000000
    431          6.507089   1.000000
    432          6.510096   1.000000
    433          6.517002   1.000000
    434          6.517573   1.000000
    435          6.520651   1.000000
    436          6.530958   1.000000
    437          6.548292   1.000000
    438          6.558453   1.000000
    439          6.602107   1.000000
    440          6.674976   1.000000
    441          6.675796   1.000000
    442          6.677483   1.000000
    443          6.680781   1.000000
    444          6.697650   1.000000
    445          6.703619   1.000000
    446          6.740667   1.000000
    447          6.773717   1.000000
    448          6.790301   1.000000
    449          6.800258   1.000000
    450          6.800536   1.000000
    451          6.805584   1.000000
    452          6.834301   1.000000
    453          6.843111   1.000000
    454          6.850804   1.000000
    455          6.862605   1.000000
    456          6.864605   1.000000
    457          6.866019   1.000000
    458          6.879211   1.000000
    459          6.891022   1.000000
    460          6.897105   1.000000
    461          6.902201   1.000000
    462          6.903404   1.000000
    463          6.903468   1.000000
    464          6.905589   1.000000
    465          6.907690   1.000000
    466          6.916169   1.000000
    467          6.918178   1.000000
    468          6.978780   1.000000
    469          6.992879   1.000000
    470          6.993888   1.000000
    471          6.995925   1.000000
    472          6.999792   1.000000
    473          7.005903   1.000000
    474          7.008405   1.000000
    475          7.027444   1.000000
    476          7.114357   1.000000
    477          7.197256   1.000000
    478          7.201522   1.000000
    479          7.203347   1.000000
    480          7.205964   1.000000
    481          7.207047   1.000000
    482          7.213524   1.000000
    483          7.221340   1.000000
    484          7.227922   1.000000
    485          7.230196   1.000000
    486          7.326882   1.000000
    487          7.405992   1.000000
    488          7.430705   1.000000
    489          7.483877   1.000000
    490          7.499647   1.000000
    491          7.526559   1.000000
    492          7.634140   1.000000
    493          7.646538   1.000000
    494          7.648191   1.000000
    495          7.659770   1.000000
    496          7.668682   1.000000
    497          7.672982   1.000000
    498          7.681464   1.000000
    499          7.687495   1.000000
    500          7.689258   1.000000
    501          7.690208   1.000000
    502          7.692288   1.000000
    503          7.701593   1.000000
    504          7.707887   1.000000
    505          7.710980   1.000000
    506          7.714778   1.000000
    507          7.748161   1.000000
    508          7.750562   1.000000
    509          7.764910   1.000000
    510          7.790394   1.000000
    511          7.793063   1.000000
    512          7.794379   1.000000
    513          7.802777   1.000000
    514          7.834800   1.000000
    515          7.835655   1.000000
    516          7.838304   1.000000
    517          7.844381   1.000000
    518          7.846952   1.000000
    519          7.851414   1.000000
    520          7.852431   1.000000
    521          7.853938   1.000000
    522          7.854572   1.000000
    523          7.878576   1.000000
    524          7.882627   1.000000
    525          7.996257   1.000000
    526          8.041817   1.000000
    527          8.051969   1.000000
    528          8.054860   1.000000
    529          8.071635   1.000000
    530          8.085219   1.000000
    531          8.089425   1.000000
    532          8.092437   1.000000
    533          8.093051   1.000000
    534          8.095960   1.000000
    535          8.182652   1.000000
    536          8.205000   1.000001
    537          8.210977   1.000001
    538          8.214099   1.000001
    539          8.252499   1.000004
    540          8.294690   1.000015
    541          8.295211   1.000015
    542          8.300799   1.000018
    543          8.304277   1.000020
    544          8.321171   1.000033
    545          8.322628   1.000034
    546          8.327044   1.000039
    547          8.380208   1.000174
    548          8.404775   1.000330
    549          8.414886   1.000425
    550          8.427286   1.000575
    551          8.440493   1.000786
    552          8.444771   1.000868
    553          8.446964   1.000913
    554          8.451653   1.001017
    555          8.455287   1.001103
    556          8.482961   1.002009
    557          8.493188   1.002478
    558          8.493814   1.002510
    559          8.501747   1.002940
    560          8.609351   1.016821
    561          8.621724   1.019490
    562          8.640528   1.023780
    563          8.644118   1.024611
    564          8.648489   1.025620
    565          8.649547   1.025862
    566          8.649920   1.025948
    567          8.653836   1.026841
    568          8.664811   1.029259
    569          8.778768   1.010232
    570          8.808574   0.974407
    571          8.817955   0.958975
    572          8.819516   0.956200
    573          8.824733   0.946496
    574          8.840926   0.912044
    575          8.852426   0.883560
    576          8.873811   0.821895
    577          8.901210   0.727828
    578          8.903592   0.718957
    579          8.904698   0.714804
    580          8.910576   0.692398
    581          9.062877   0.115343
    582          9.068598   0.100815
    583          9.077016   0.080943
    584          9.081412   0.071276
    585          9.082406   0.069157
    586          9.087472   0.058749
    587          9.094619   0.045151
    588          9.097468   0.040081
    589          9.097505   0.040016
    590          9.106129   0.025871
    591          9.119442   0.007438
    592          9.123738   0.002331
    593          9.123988   0.002045
    594          9.127331  -0.001639
    595          9.137339  -0.011308
    596          9.140778  -0.014181
    597          9.152034  -0.022089
    598          9.165923  -0.028987
    599          9.166858  -0.029348
    600          9.173043  -0.031443
    601          9.177218  -0.032580
    602          9.182965  -0.033805
    603          9.191987  -0.035011
    604          9.198039  -0.035383
    605          9.268302  -0.025180
    606          9.270235  -0.024734
    607          9.282888  -0.021811
    608          9.282936  -0.021800
    609          9.295434  -0.018987
    610          9.298268  -0.018368
    611          9.301068  -0.017764
    612          9.313264  -0.015247
    613          9.358842  -0.007815
    614          9.372908  -0.006178
    615          9.373072  -0.006160
    616          9.374575  -0.006003
    617          9.449451  -0.001382
    618          9.452545  -0.001291
    619          9.494221  -0.000490
    620          9.509921  -0.000331
    621          9.510341  -0.000328
    622          9.516190  -0.000282
    623          9.523225  -0.000235
    624          9.540322  -0.000150
    625          9.598938  -0.000028
    626          9.609009  -0.000021
    627          9.623758  -0.000013
    628          9.628042  -0.000011
    629          9.635775  -0.000009
    630          9.636168  -0.000009
    631          9.674922  -0.000002
    632          9.683978  -0.000002
    633          9.693324  -0.000001
    634          9.696164  -0.000001
    635          9.701077  -0.000001
    636          9.702363  -0.000001
    637          9.714435  -0.000001
    638          9.729670  -0.000000
    639          9.742391  -0.000000
    640          9.755786  -0.000000
    641          9.769332  -0.000000
    642          9.769633  -0.000000
    643          9.778021  -0.000000
    644          9.779708  -0.000000
    645          9.789436  -0.000000
    646          9.792566  -0.000000
    647          9.801597  -0.000000
    648          9.810274  -0.000000
    649          9.814238  -0.000000
    650          9.815822  -0.000000
    651          9.823358  -0.000000
    652          9.852605  -0.000000
    653          9.870527  -0.000000
    654          9.893344  -0.000000
    655          9.899690  -0.000000
    656          9.909191  -0.000000
    657          9.910815  -0.000000
    658          9.910824  -0.000000
    659          9.945371  -0.000000
    660          9.952994  -0.000000
    661          9.978209  -0.000000
    662          9.982910  -0.000000
    663         10.006165  -0.000000
    664         10.008305  -0.000000
    665         10.025220  -0.000000
    666         10.027768  -0.000000
    667         10.031958  -0.000000
    668         10.035089  -0.000000
    669         10.040600  -0.000000
    670         10.070619  -0.000000
    671         10.078688  -0.000000
    672         10.148156  -0.000000
    673         10.163299  -0.000000
    674         10.173172  -0.000000
    675         10.175349  -0.000000
    676         10.175932  -0.000000
    677         10.189036  -0.000000
    678         10.196073  -0.000000
    679         10.244544  -0.000000
    680         10.249995  -0.000000
    681         10.260185  -0.000000
    682         10.273095  -0.000000
    683         10.274259  -0.000000
    684         10.281555  -0.000000
    685         10.292247  -0.000000
    686         10.323356  -0.000000
    687         10.329141  -0.000000
    688         10.336411  -0.000000
    689         10.337848  -0.000000
    690         10.367308  -0.000000
    691         10.369940  -0.000000
 
  0.1345275E-16  0.2500000E+00  0.0000000E+00  0.4166667E-01
      1        -39.911474   1.000000
      2        -39.886044   1.000000
      3        -39.873873   1.000000
      4        -39.865581   1.000000
      5        -39.858617   1.000000
      6        -39.857054   1.000000
      7        -39.850733   1.000000
      8        -39.843761   1.000000
      9        -39.837975   1.000000
     10        -39.836960   1.000000
     11        -39.831375   1.000000
     12        -39.826028   1.000000
     13        -39.824713   1.000000
     14        -39.822087   1.000000
     15        -39.821399   1.000000
     16        -39.819109   1.000000
     17        -39.811726   1.000000
     18        -39.809708   1.000000
     19        -39.806407   1.000000
     20        -39.802306   1.000000
     21        -39.801863   1.000000
     22        -39.796340   1.000000
     23        -39.793298   1.000000
     24        -39.791481   1.000000
     25        -39.788376   1.000000
     26        -39.783866   1.000000
     27        -39.783506   1.000000
     28        -39.782531   1.000000
     29        -39.779407   1.000000
     30        -39.778532   1.000000
     31        -39.772343   1.000000
     32        -39.771483   1.000000
     33        -39.770173   1.000000
     34        -39.769488   1.000000
     35        -39.768721   1.000000
     36        -39.767698   1.000000
     37        -39.767503   1.000000
     38        -39.765700   1.000000
     39        -39.765600   1.000000
     40        -39.763162   1.000000
     41        -39.762117   1.000000
     42        -39.761803   1.000000
     43        -39.760585   1.000000
     44        -39.759549   1.000000
     45        -39.759379   1.000000
     46        -39.757790   1.000000
     47        -39.757130   1.000000
     48        -39.755736   1.000000
     49        -39.755678   1.000000
     50        -39.754621   1.000000
     51        -39.753012   1.000000
     52        -39.752065   1.000000
     53        -39.751717   1.000000
     54        -39.751270   1.000000
     55        -39.750766   1.000000
     56        -39.749297   1.000000
     57        -39.748824   1.000000
     58        -39.748198   1.000000
     59        -39.747108   1.000000
     60        -39.745374   1.000000
     61        -39.744758   1.000000
     62        -39.744043   1.000000
     63        -39.743231   1.000000
     64        -39.740763   1.000000
     65        -39.739641   1.000000
     66        -39.738449   1.000000
     67        -39.737888   1.000000
     68        -39.735711   1.000000
     69        -39.735409   1.000000
     70        -39.734245   1.000000
     71        -39.733836   1.000000
     72        -39.732901   1.000000
     73        -39.732211   1.000000
     74        -39.731300   1.000000
     75        -39.731020   1.000000
     76        -39.730344   1.000000
     77        -39.729750   1.000000
     78        -39.729581   1.000000
     79        -39.729003   1.000000
     80        -39.727394   1.000000
     81        -39.726190   1.000000
     82        -39.725677   1.000000
     83        -39.724498   1.000000
     84        -39.724339   1.000000
     85        -39.723364   1.000000
     86        -39.722373   1.000000
     87        -39.720797   1.000000
     88        -39.720093   1.000000
     89        -39.718578   1.000000
     90        -39.717867   1.000000
     91        -39.714781   1.000000
     92        -39.714339   1.000000
     93        -39.708745   1.000000
     94        -39.708625   1.000000
     95        -39.706243   1.000000
     96        -39.704316   1.000000
     97        -18.406273   1.000000
     98        -18.344109   1.000000
     99        -18.320625   1.000000
    100        -18.320518   1.000000
    101        -18.319313   1.000000
    102        -18.317482   1.000000
    103        -18.315654   1.000000
    104        -18.312565   1.000000
    105        -18.277612   1.000000
    106        -18.274626   1.000000
    107        -18.262826   1.000000
    108        -18.236911   1.000000
    109        -18.234971   1.000000
    110        -18.234599   1.000000
    111        -18.233457   1.000000
    112        -18.231732   1.000000
    113        -18.230048   1.000000
    114        -18.226596   1.000000
    115        -18.225674   1.000000
    116        -18.223285   1.000000
    117        -18.222104   1.000000
    118        -18.220247   1.000000
    119        -18.216310   1.000000
    120        -18.210993   1.000000
    121        -18.208915   1.000000
    122        -18.207798   1.000000
    123        -18.205750   1.000000
    124        -18.204311   1.000000
    125        -18.203566   1.000000
    126        -18.203239   1.000000
    127        -18.201399   1.000000
    128        -18.200798   1.000000
    129        -18.200131   1.000000
    130        -18.198840   1.000000
    131        -18.198039   1.000000
    132        -18.186357   1.000000
    133        -18.181805   1.000000
    134        -18.180882   1.000000
    135        -18.178352   1.000000
    136        -18.177352   1.000000
    137        -18.173994   1.000000
    138        -18.170264   1.000000
    139        -18.169270   1.000000
    140        -18.168359   1.000000
    141        -18.166752   1.000000
    142        -18.166183   1.000000
    143        -18.165273   1.000000
    144        -18.164829   1.000000
    145        -18.163521   1.000000
    146        -18.163310   1.000000
    147        -18.162332   1.000000
    148        -18.158166   1.000000
    149        -18.158109   1.000000
    150        -18.155604   1.000000
    151        -18.154852   1.000000
    152        -18.151720   1.000000
    153        -18.140275   1.000000
    154        -18.137965   1.000000
    155        -18.134198   1.000000
    156        -18.131937   1.000000
    157        -18.126129   1.000000
    158        -18.125617   1.000000
    159        -18.124661   1.000000
    160        -18.123446   1.000000
    161        -18.073615   1.000000
    162        -18.071462   1.000000
    163        -18.069559   1.000000
    164        -18.067455   1.000000
    165        -18.065927   1.000000
    166        -18.065849   1.000000
    167        -18.058163   1.000000
    168        -18.054429   1.000000
    169        -18.053799   1.000000
    170        -18.038398   1.000000
    171        -18.020810   1.000000
    172        -18.019618   1.000000
    173        -18.019539   1.000000
    174        -18.013626   1.000000
    175        -18.012501   1.000000
    176        -18.007195   1.000000
    177        -18.006914   1.000000
    178        -18.003859   1.000000
    179        -18.003239   1.000000
    180        -18.001850   1.000000
    181        -17.999156   1.000000
    182        -17.998682   1.000000
    183        -17.995295   1.000000
    184        -17.989369   1.000000
    185        -17.989235   1.000000
    186        -17.975012   1.000000
    187        -17.969381   1.000000
    188        -17.954739   1.000000
    189        -17.950680   1.000000
    190        -17.949460   1.000000
    191        -17.949014   1.000000
    192        -17.930363   1.000000
    193        -17.924757   1.000000
    194        -17.900866   1.000000
    195        -17.898648   1.000000
    196        -17.894084   1.000000
    197        -17.892142   1.000000
    198        -17.890495   1.000000
    199        -17.890369   1.000000
    200        -17.884705   1.000000
    201        -17.881163   1.000000
    202        -17.873712   1.000000
    203        -17.871081   1.000000
    204        -17.869630   1.000000
    205        -17.855037   1.000000
    206        -17.851329   1.000000
    207        -17.843197   1.000000
    208        -17.841997   1.000000
    209        -17.835655   1.000000
    210        -17.834183   1.000000
    211        -17.831759   1.000000
    212        -17.829676   1.000000
    213        -17.829241   1.000000
    214        -17.826879   1.000000
    215        -17.826737   1.000000
    216        -17.825607   1.000000
    217        -17.817827   1.000000
    218        -17.817584   1.000000
    219        -17.815819   1.000000
    220        -17.813359   1.000000
    221        -17.807776   1.000000
    222        -17.803708   1.000000
    223        -17.800149   1.000000
    224        -17.797707   1.000000
    225        -17.793828   1.000000
    226        -17.792903   1.000000
    227        -17.786915   1.000000
    228        -17.785763   1.000000
    229        -17.785107   1.000000
    230        -17.784497   1.000000
    231        -17.783497   1.000000
    232        -17.779933   1.000000
    233        -17.778559   1.000000
    234        -17.776509   1.000000
    235        -17.775594   1.000000
    236        -17.771707   1.000000
    237        -17.771616   1.000000
    238        -17.769777   1.000000
    239        -17.769063   1.000000
    240        -17.767808   1.000000
    241        -17.767430   1.000000
    242        -17.766492   1.000000
    243        -17.765822   1.000000
    244        -17.765130   1.000000
    245        -17.760955   1.000000
    246        -17.753825   1.000000
    247        -17.742432   1.000000
    248        -17.734895   1.000000
    249        -17.733977   1.000000
    250        -17.733173   1.000000
    251        -17.731136   1.000000
    252        -17.728700   1.000000
    253        -17.727854   1.000000
    254        -17.726873   1.000000
    255        -17.724947   1.000000
    256        -17.723081   1.000000
    257        -17.707331   1.000000
    258        -17.704206   1.000000
    259        -17.703970   1.000000
    260        -17.702652   1.000000
    261        -17.701926   1.000000
    262        -17.700693   1.000000
    263        -17.699855   1.000000
    264        -17.697822   1.000000
    265        -17.695795   1.000000
    266        -17.691575   1.000000
    267        -17.689780   1.000000
    268        -17.686007   1.000000
    269        -17.684173   1.000000
    270        -17.681766   1.000000
    271        -17.678639   1.000000
    272        -17.674142   1.000000
    273        -17.673559   1.000000
    274        -17.671634   1.000000
    275        -17.668610   1.000000
    276        -17.667964   1.000000
    277        -17.667469   1.000000
    278        -17.666488   1.000000
    279        -17.661622   1.000000
    280        -17.660886   1.000000
    281        -17.659161   1.000000
    282        -17.658111   1.000000
    283        -17.656234   1.000000
    284        -17.655300   1.000000
    285        -17.654239   1.000000
    286        -17.653587   1.000000
    287        -17.652706   1.000000
    288        -17.651434   1.000000
    289        -17.650293   1.000000
    290        -17.648275   1.000000
    291        -17.646955   1.000000
    292        -17.646356   1.000000
    293        -17.646177   1.000000
    294        -17.645149   1.000000
    295        -17.644645   1.000000
    296        -17.644390   1.000000
    297        -17.642257   1.000000
    298        -17.642107   1.000000
    299        -17.636579   1.000000
    300        -17.630605   1.000000
    301        -17.629478   1.000000
    302        -17.626451   1.000000
    303        -17.624608   1.000000
    304        -17.622107   1.000000
    305        -17.618422   1.000000
    306        -17.617990   1.000000
    307        -17.617761   1.000000
    308        -17.616995   1.000000
    309        -17.613720   1.000000
    310        -17.613618   1.000000
    311        -17.611775   1.000000
    312        -17.610466   1.000000
    313        -17.596555   1.000000
    314        -17.593943   1.000000
    315        -17.592700   1.000000
    316        -17.591620   1.000000
    317        -17.585449   1.000000
    318        -17.585035   1.000000
    319        -17.584492   1.000000
    320        -17.584309   1.000000
    321        -17.583124   1.000000
    322        -17.581179   1.000000
    323        -17.581002   1.000000
    324        -17.580330   1.000000
    325        -17.579476   1.000000
    326        -17.579262   1.000000
    327        -17.577865   1.000000
    328        -17.577231   1.000000
    329        -17.575614   1.000000
    330        -17.574767   1.000000
    331        -17.574143   1.000000
    332        -17.570800   1.000000
    333        -17.570587   1.000000
    334        -17.570335   1.000000
    335        -17.570138   1.000000
    336        -17.564377   1.000000
    337        -17.562165   1.000000
    338        -17.560991   1.000000
    339        -17.558884   1.000000
    340        -17.558512   1.000000
    341        -17.555517   1.000000
    342        -17.552169   1.000000
    343        -17.548927   1.000000
    344        -17.548850   1.000000
    345        -17.546139   1.000000
    346        -17.545943   1.000000
    347        -17.544827   1.000000
    348        -17.543607   1.000000
    349        -17.542335   1.000000
    350        -17.541587   1.000000
    351        -17.540405   1.000000
    352        -17.538015   1.000000
    353        -17.536764   1.000000
    354        -17.536216   1.000000
    355        -17.535787   1.000000
    356        -17.534258   1.000000
    357        -17.534154   1.000000
    358        -17.533631   1.000000
    359        -17.533308   1.000000
    360        -17.530644   1.000000
    361        -17.525698   1.000000
    362        -17.521675   1.000000
    363        -17.514809   1.000000
    364        -17.513983   1.000000
    365        -17.512674   1.000000
    366        -17.511117   1.000000
    367        -17.497312   1.000000
    368        -17.496890   1.000000
    369        -17.494396   1.000000
    370        -17.494341   1.000000
    371        -17.492240   1.000000
    372        -17.490159   1.000000
    373        -17.487857   1.000000
    374        -17.474636   1.000000
    375        -17.473804   1.000000
    376        -17.468980   1.000000
    377        -17.468356   1.000000
    378        -17.463473   1.000000
    379        -17.459120   1.000000
    380        -17.456120   1.000000
    381        -17.447033   1.000000
    382        -17.444923   1.000000
    383        -17.433818   1.000000
    384        -17.421437   1.000000
    385          2.442133   1.000000
    386          3.482169   1.000000
    387          4.223061   1.000000
    388          4.251948   1.000000
    389          4.340392   1.000000
    390          4.576008   1.000000
    391          4.644092   1.000000
    392          4.945123   1.000000
    393          4.984657   1.000000
    394          5.201240   1.000000
    395          5.213325   1.000000
    396          5.232007   1.000000
    397          5.233678   1.000000
    398          5.235046   1.000000
    399          5.332789   1.000000
    400          5.460982   1.000000
    401          5.652060   1.000000
    402          5.653622   1.000000
    403          5.654770   1.000000
    404          5.688562   1.000000
    405          5.743078   1.000000
    406          5.750115   1.000000
    407          5.764165   1.000000
    408          5.833397   1.000000
    409          5.914698   1.000000
    410          5.930825   1.000000
    411          5.976460   1.000000
    412          5.979762   1.000000
    413          5.984870   1.000000
    414          6.001032   1.000000
    415          6.068291   1.000000
    416          6.268694   1.000000
    417          6.307062   1.000000
    418          6.327435   1.000000
    419          6.393231   1.000000
    420          6.394972   1.000000
    421          6.395459   1.000000
    422          6.407107   1.000000
    423          6.434728   1.000000
    424          6.438789   1.000000
    425          6.442010   1.000000
    426          6.457707   1.000000
    427          6.462957   1.000000
    428          6.476830   1.000000
    429          6.498495   1.000000
    430          6.502471   1.000000
    431          6.507017   1.000000
    432          6.510067   1.000000
    433          6.517008   1.000000
    434          6.517627   1.000000
    435          6.520773   1.000000
    436          6.531102   1.000000
    437          6.548295   1.000000
    438          6.558399   1.000000
    439          6.601868   1.000000
    440          6.674734   1.000000
    441          6.675645   1.000000
    442          6.677550   1.000000
    443          6.680954   1.000000
    444          6.697704   1.000000
    445          6.703561   1.000000
    446          6.740705   1.000000
    447          6.773670   1.000000
    448          6.790118   1.000000
    449          6.800142   1.000000
    450          6.800456   1.000000
    451          6.805815   1.000000
    452          6.834212   1.000000
    453          6.842873   1.000000
    454          6.850641   1.000000
    455          6.862822   1.000000
    456          6.864491   1.000000
    457          6.866086   1.000000
    458          6.879359   1.000000
    459          6.891207   1.000000
    460          6.897034   1.000000
    461          6.902437   1.000000
    462          6.903257   1.000000
    463          6.903613   1.000000
    464          6.905546   1.000000
    465          6.907612   1.000000
    466          6.916339   1.000000
    467          6.918452   1.000000
    468          6.978742   1.000000
    469          6.992952   1.000000
    470          6.993943   1.000000
    471          6.996130   1.000000
    472          6.999480   1.000000
    473          7.005651   1.000000
    474          7.008288   1.000000
    475          7.027490   1.000000
    476          7.114379   1.000000
    477          7.197274   1.000000
    478          7.201628   1.000000
    479          7.203165   1.000000
    480          7.205945   1.000000
    481          7.206910   1.000000
    482          7.213500   1.000000
    483          7.221442   1.000000
    484          7.227959   1.000000
    485          7.230363   1.000000
    486          7.326822   1.000000
    487          7.406016   1.000000
    488          7.430343   1.000000
    489          7.483927   1.000000
    490          7.499789   1.000000
    491          7.526812   1.000000
    492          7.634095   1.000000
    493          7.646452   1.000000
    494          7.648209   1.000000
    495          7.659502   1.000000
    496          7.668709   1.000000
    497          7.673073   1.000000
    498          7.681651   1.000000
    499          7.687527   1.000000
    500          7.688975   1.000000
    501          7.690203   1.000000
    502          7.692472   1.000000
    503          7.701802   1.000000
    504          7.708106   1.000000
    505          7.711071   1.000000
    506          7.714851   1.000000
    507          7.747937   1.000000
    508          7.750556   1.000000
    509          7.764728   1.000000
    510          7.790027   1.000000
    511          7.793329   1.000000
    512          7.794727   1.000000
    513          7.802545   1.000000
    514          7.835074   1.000000
    515          7.835805   1.000000
    516          7.838343   1.000000
    517          7.844415   1.000000
    518          7.847043   1.000000
    519          7.851348   1.000000
    520          7.852415   1.000000
    521          7.853415   1.000000
    522          7.854761   1.000000
    523          7.878532   1.000000
    524          7.882523   1.000000
    525          7.996002   1.000000
    526          8.041859   1.000000
    527          8.052148   1.000000
    528          8.054916   1.000000
    529          8.071418   1.000000
    530          8.085349   1.000000
    531          8.089673   1.000000
    532          8.092408   1.000000
    533          8.092842   1.000000
    534          8.095696   1.000000
    535          8.182392   1.000000
    536          8.204845   1.000001
    537          8.211281   1.000001
    538          8.214644   1.000001
    539          8.252087   1.000004
    540          8.294578   1.000014
    541          8.295436   1.000015
    542          8.300837   1.000018
    543          8.304115   1.000019
    544          8.320757   1.000032
    545          8.322905   1.000034
    546          8.327271   1.000039
    547          8.380112   1.000174
    548          8.405010   1.000332
    549          8.414547   1.000421
    550          8.427165   1.000573
    551          8.440501   1.000787
    552          8.445098   1.000875
    553          8.446911   1.000912
    554          8.451403   1.001011
    555          8.455037   1.001097
    556          8.483023   1.002012
    557          8.493340   1.002486
    558          8.493894   1.002514
    559          8.501620   1.002933
    560          8.609221   1.016794
    561          8.621651   1.019474
    562          8.640923   1.023872
    563          8.643943   1.024571
    564          8.648076   1.025524
    565          8.649462   1.025843
    566          8.650272   1.026029
    567          8.653820   1.026837
    568          8.664800   1.029257
    569          8.778353   1.010600
    570          8.808617   0.974340
    571          8.817896   0.959078
    572          8.819776   0.955733
    573          8.824910   0.946154
    574          8.840975   0.911930
    575          8.852560   0.883208
    576          8.873852   0.821766
    577          8.901163   0.728003
    578          8.903725   0.718457
    579          8.904775   0.714513
    580          8.910613   0.692254
    581          9.062645   0.115949
    582          9.068957   0.099933
    583          9.077182   0.080570
    584          9.081383   0.071338
    585          9.082719   0.068497
    586          9.087629   0.058437
    587          9.095242   0.044024
    588          9.097440   0.040129
    589          9.097931   0.039276
    590          9.105796   0.026384
    591          9.119692   0.007129
    592          9.123667   0.002412
    593          9.123953   0.002085
    594          9.126860  -0.001133
    595          9.137120  -0.011117
    596          9.140741  -0.014151
    597          9.151888  -0.022000
    598          9.165950  -0.028998
    599          9.166765  -0.029313
    600          9.173235  -0.031501
    601          9.177357  -0.032614
    602          9.182823  -0.033779
    603          9.191632  -0.034978
    604          9.197996  -0.035381
    605          9.268625  -0.025105
    606          9.269892  -0.024813
    607          9.282554  -0.021888
    608          9.283471  -0.021678
    609          9.295550  -0.018961
    610          9.298054  -0.018414
    611          9.300896  -0.017801
    612          9.313250  -0.015250
    613          9.358959  -0.007800
    614          9.372803  -0.006189
    615          9.373123  -0.006155
    616          9.374565  -0.006004
    617          9.449451  -0.001382
    618          9.452434  -0.001294
    619          9.494076  -0.000491
    620          9.510013  -0.000331
    621          9.510751  -0.000324
    622          9.516153  -0.000283
    623          9.522728  -0.000238
    624          9.540298  -0.000150
    625          9.598907  -0.000028
    626          9.609191  -0.000020
    627          9.623687  -0.000013
    628          9.628172  -0.000011
    629          9.635496  -0.000009
    630          9.636438  -0.000009
    631          9.674718  -0.000002
    632          9.684367  -0.000002
    633          9.693369  -0.000001
    634          9.696387  -0.000001
    635          9.701384  -0.000001
    636          9.702456  -0.000001
    637          9.713883  -0.000001
    638          9.728796  -0.000000
    639          9.742896  -0.000000
    640          9.755801  -0.000000
    641          9.768808  -0.000000
    642          9.769774  -0.000000
    643          9.777645  -0.000000
    644          9.780218  -0.000000
    645          9.789730  -0.000000
    646          9.792623  -0.000000
    647          9.801875  -0.000000
    648          9.810029  -0.000000
    649          9.814272  -0.000000
    650          9.816160  -0.000000
    651          9.823171  -0.000000
    652          9.852324  -0.000000
    653          9.870615  -0.000000
    654          9.893236  -0.000000
    655          9.900016  -0.000000
    656          9.909093  -0.000000
    657          9.910763  -0.000000
    658          9.911052  -0.000000
    659          9.944864  -0.000000
    660          9.952982  -0.000000
    661          9.978409  -0.000000
    662          9.982834  -0.000000
    663         10.006334  -0.000000
    664         10.008121  -0.000000
    665         10.025147  -0.000000
    666         10.028449  -0.000000
    667         10.032254  -0.000000
    668         10.035063  -0.000000
    669         10.040455  -0.000000
    670         10.070386  -0.000000
    671         10.078486  -0.000000
    672         10.148378  -0.000000
    673         10.163533  -0.000000
    674         10.173579  -0.000000
    675         10.175144  -0.000000
    676         10.175643  -0.000000
    677         10.188767  -0.000000
    678         10.196022  -0.000000
    679         10.244385  -0.000000
    680         10.250075  -0.000000
    681         10.260530  -0.000000
    682         10.273174  -0.000000
    683         10.274213  -0.000000
    684         10.281606  -0.000000
    685         10.292141  -0.000000
    686         10.323002  -0.000000
    687         10.329017  -0.000000
    688         10.336279  -0.000000
    689         10.337894  -0.000000
    690         10.368430  -0.000000
    691         10.373805  -0.000000
 
 -0.2500000E+00  0.2500000E+00  0.0000000E+00  0.4166667E-01
      1        -39.911474   1.000000
      2        -39.886044   1.000000
      3        -39.873873   1.000000
      4        -39.865581   1.000000
      5        -39.858617   1.000000
      6        -39.857054   1.000000
      7        -39.850733   1.000000
      8        -39.843761   1.000000
      9        -39.837975   1.000000
     10        -39.836960   1.000000
     11        -39.831375   1.000000
     12        -39.826028   1.000000
     13        -39.824713   1.000000
     14        -39.822087   1.000000
     15        -39.821399   1.000000
     16        -39.819109   1.000000
     17        -39.811726   1.000000
     18        -39.809708   1.000000
     19        -39.806407   1.000000
     20        -39.802306   1.000000
     21        -39.801863   1.000000
     22        -39.796340   1.000000
     23        -39.793298   1.000000
     24        -39.791481   1.000000
     25        -39.788376   1.000000
     26        -39.783866   1.000000
     27        -39.783506   1.000000
     28        -39.782531   1.000000
     29        -39.779407   1.000000
     30        -39.778532   1.000000
     31        -39.772343   1.000000
     32        -39.771483   1.000000
     33        -39.770173   1.000000
     34        -39.769488   1.000000
     35        -39.768721   1.000000
     36        -39.767698   1.000000
     37        -39.767503   1.000000
     38        -39.765700   1.000000
     39        -39.765600   1.000000
     40        -39.763162   1.000000
     41        -39.762117   1.000000
     42        -39.761803   1.000000
     43        -39.760585   1.000000
     44        -39.759549   1.000000
     45        -39.759379   1.000000
     46        -39.757790   1.000000
     47        -39.757130   1.000000
     48        -39.755736   1.000000
     49        -39.755678   1.000000
     50        -39.754621   1.000000
     51        -39.753012   1.000000
     52        -39.752065   1.000000
     53        -39.751717   1.000000
     54        -39.751270   1.000000
     55        -39.750766   1.000000
     56        -39.749296   1.000000
     57        -39.748824   1.000000
     58        -39.748198   1.000000
     59        -39.747108   1.000000
     60        -39.745374   1.000000
     61        -39.744758   1.000000
     62        -39.744043   1.000000
     63        -39.743231   1.000000
     64        -39.740763   1.000000
     65        -39.739641   1.000000
     66        -39.738449   1.000000
     67        -39.737888   1.000000
     68        -39.735711   1.000000
     69        -39.735409   1.000000
     70        -39.734245   1.000000
     71        -39.733836   1.000000
     72        -39.732901   1.000000
     73        -39.732211   1.000000
     74        -39.731300   1.000000
     75        -39.731020   1.000000
     76        -39.730344   1.000000
     77        -39.729750   1.000000
     78        -39.729581   1.000000
     79        -39.729003   1.000000
     80        -39.727394   1.000000
     81        -39.726190   1.000000
     82        -39.725677   1.000000
     83        -39.724498   1.000000
     84        -39.724339   1.000000
     85        -39.723364   1.000000
     86        -39.722373   1.000000
     87        -39.720797   1.000000
     88        -39.720093   1.000000
     89        -39.718579   1.000000
     90        -39.717867   1.000000
     91        -39.714781   1.000000
     92        -39.714339   1.000000
     93        -39.708745   1.000000
     94        -39.708625   1.000000
     95        -39.706243   1.000000
     96        -39.704316   1.000000
     97        -18.406273   1.000000
     98        -18.344109   1.000000
     99        -18.320625   1.000000
    100        -18.320518   1.000000
    101        -18.319313   1.000000
    102        -18.317482   1.000000
    103        -18.315654   1.000000
    104        -18.312565   1.000000
    105        -18.277612   1.000000
    106        -18.274626   1.000000
    107        -18.262826   1.000000
    108        -18.236911   1.000000
    109        -18.234971   1.000000
    110        -18.234599   1.000000
    111        -18.233457   1.000000
    112        -18.231732   1.000000
    113        -18.230048   1.000000
    114        -18.226595   1.000000
    115        -18.225674   1.000000
    116        -18.223285   1.000000
    117        -18.222104   1.000000
    118        -18.220247   1.000000
    119        -18.216310   1.000000
    120        -18.210993   1.000000
    121        -18.208914   1.000000
    122        -18.207798   1.000000
    123        -18.205750   1.000000
    124        -18.204311   1.000000
    125        -18.203566   1.000000
    126        -18.203238   1.000000
    127        -18.201399   1.000000
    128        -18.200799   1.000000
    129        -18.200131   1.000000
    130        -18.198840   1.000000
    131        -18.198039   1.000000
    132        -18.186357   1.000000
    133        -18.181805   1.000000
    134        -18.180882   1.000000
    135        -18.178352   1.000000
    136        -18.177352   1.000000
    137        -18.173994   1.000000
    138        -18.170264   1.000000
    139        -18.169270   1.000000
    140        -18.168359   1.000000
    141        -18.166752   1.000000
    142        -18.166183   1.000000
    143        -18.165273   1.000000
    144        -18.164829   1.000000
    145        -18.163521   1.000000
    146        -18.163310   1.000000
    147        -18.162332   1.000000
    148        -18.158166   1.000000
    149        -18.158109   1.000000
    150        -18.155604   1.000000
    151        -18.154852   1.000000
    152        -18.151720   1.000000
    153        -18.140275   1.000000
    154        -18.137965   1.000000
    155        -18.134198   1.000000
    156        -18.131937   1.000000
    157        -18.126129   1.000000
    158        -18.125617   1.000000
    159        -18.124661   1.000000
    160        -18.123446   1.000000
    161        -18.073615   1.000000
    162        -18.071462   1.000000
    163        -18.069559   1.000000
    164        -18.067455   1.000000
    165        -18.065927   1.000000
    166        -18.065849   1.000000
    167        -18.058163   1.000000
    168        -18.054429   1.000000
    169        -18.053799   1.000000
    170        -18.038398   1.000000
    171        -18.020810   1.000000
    172        -18.019618   1.000000
    173        -18.019539   1.000000
    174        -18.013626   1.000000
    175        -18.012501   1.000000
    176        -18.007195   1.000000
    177        -18.006914   1.000000
    178        -18.003859   1.000000
    179        -18.003239   1.000000
    180        -18.001850   1.000000
    181        -17.999156   1.000000
    182        -17.998682   1.000000
    183        -17.995295   1.000000
    184        -17.989369   1.000000
    185        -17.989234   1.000000
    186        -17.975012   1.000000
    187        -17.969381   1.000000
    188        -17.954739   1.000000
    189        -17.950680   1.000000
    190        -17.949460   1.000000
    191        -17.949014   1.000000
    192        -17.930363   1.000000
    193        -17.924757   1.000000
    194        -17.900866   1.000000
    195        -17.898648   1.000000
    196        -17.894084   1.000000
    197        -17.892142   1.000000
    198        -17.890495   1.000000
    199        -17.890369   1.000000
    200        -17.884705   1.000000
    201        -17.881163   1.000000
    202        -17.873712   1.000000
    203        -17.871081   1.000000
    204        -17.869630   1.000000
    205        -17.855037   1.000000
    206        -17.851329   1.000000
    207        -17.843197   1.000000
    208        -17.841997   1.000000
    209        -17.835655   1.000000
    210        -17.834183   1.000000
    211        -17.831759   1.000000
    212        -17.829676   1.000000
    213        -17.829241   1.000000
    214        -17.826879   1.000000
    215        -17.826737   1.000000
    216        -17.825607   1.000000
    217        -17.817827   1.000000
    218        -17.817584   1.000000
    219        -17.815819   1.000000
    220        -17.813359   1.000000
    221        -17.807776   1.000000
    222        -17.803708   1.000000
    223        -17.800149   1.000000
    224        -17.797708   1.000000
    225        -17.793828   1.000000
    226        -17.792903   1.000000
    227        -17.786915   1.000000
    228        -17.785763   1.000000
    229        -17.785107   1.000000
    230        -17.784497   1.000000
    231        -17.783497   1.000000
    232        -17.779933   1.000000
    233        -17.778559   1.000000
    234        -17.776509   1.000000
    235        -17.775594   1.000000
    236        -17.771707   1.000000
    237        -17.771616   1.000000
    238        -17.769777   1.000000
    239        -17.769063   1.000000
    240        -17.767808   1.000000
    241        -17.767430   1.000000
    242        -17.766492   1.000000
    243        -17.765822   1.000000
    244        -17.765130   1.000000
    245        -17.760955   1.000000
    246        -17.753825   1.000000
    247        -17.742432   1.000000
    248        -17.734895   1.000000
    249        -17.733977   1.000000
    250        -17.733173   1.000000
    251        -17.731136   1.000000
    252        -17.728700   1.000000
    253        -17.727854   1.000000
    254        -17.726873   1.000000
    255        -17.724947   1.000000
    256        -17.723081   1.000000
    257        -17.707331   1.000000
    258        -17.704206   1.000000
    259        -17.703970   1.000000
    260        -17.702652   1.000000
    261        -17.701926   1.000000
    262        -17.700693   1.000000
    263        -17.699855   1.000000
    264        -17.697822   1.000000
    265        -17.695795   1.000000
    266        -17.691575   1.000000
    267        -17.689780   1.000000
    268        -17.686007   1.000000
    269        -17.684173   1.000000
    270        -17.681766   1.000000
    271        -17.678639   1.000000
    272        -17.674142   1.000000
    273        -17.673559   1.000000
    274        -17.671634   1.000000
    275        -17.668610   1.000000
    276        -17.667964   1.000000
    277        -17.667469   1.000000
    278        -17.666488   1.000000
    279        -17.661622   1.000000
    280        -17.660886   1.000000
    281        -17.659161   1.000000
    282        -17.658111   1.000000
    283        -17.656234   1.000000
    284        -17.655300   1.000000
    285        -17.654239   1.000000
    286        -17.653587   1.000000
    287        -17.652706   1.000000
    288        -17.651434   1.000000
    289        -17.650293   1.000000
    290        -17.648275   1.000000
    291        -17.646955   1.000000
    292        -17.646356   1.000000
    293        -17.646177   1.000000
    294        -17.645149   1.000000
    295        -17.644645   1.000000
    296        -17.644390   1.000000
    297        -17.642257   1.000000
    298        -17.642107   1.000000
    299        -17.636579   1.000000
    300        -17.630605   1.000000
    301        -17.629478   1.000000
    302        -17.626451   1.000000
    303        -17.624608   1.000000
    304        -17.622107   1.000000
    305        -17.618422   1.000000
    306        -17.617990   1.000000
    307        -17.617761   1.000000
    308        -17.616995   1.000000
    309        -17.613720   1.000000
    310        -17.613617   1.000000
    311        -17.611775   1.000000
    312        -17.610466   1.000000
    313        -17.596555   1.000000
    314        -17.593943   1.000000
    315        -17.592700   1.000000
    316        -17.591620   1.000000
    317        -17.585449   1.000000
    318        -17.585035   1.000000
    319        -17.584492   1.000000
    320        -17.584309   1.000000
    321        -17.583124   1.000000
    322        -17.581179   1.000000
    323        -17.581002   1.000000
    324        -17.580330   1.000000
    325        -17.579476   1.000000
    326        -17.579262   1.000000
    327        -17.577865   1.000000
    328        -17.577231   1.000000
    329        -17.575614   1.000000
    330        -17.574767   1.000000
    331        -17.574143   1.000000
    332        -17.570800   1.000000
    333        -17.570587   1.000000
    334        -17.570335   1.000000
    335        -17.570138   1.000000
    336        -17.564377   1.000000
    337        -17.562165   1.000000
    338        -17.560991   1.000000
    339        -17.558884   1.000000
    340        -17.558512   1.000000
    341        -17.555517   1.000000
    342        -17.552169   1.000000
    343        -17.548927   1.000000
    344        -17.548850   1.000000
    345        -17.546139   1.000000
    346        -17.545943   1.000000
    347        -17.544827   1.000000
    348        -17.543607   1.000000
    349        -17.542335   1.000000
    350        -17.541587   1.000000
    351        -17.540405   1.000000
    352        -17.538015   1.000000
    353        -17.536764   1.000000
    354        -17.536216   1.000000
    355        -17.535787   1.000000
    356        -17.534258   1.000000
    357        -17.534154   1.000000
    358        -17.533631   1.000000
    359        -17.533308   1.000000
    360        -17.530644   1.000000
    361        -17.525698   1.000000
    362        -17.521675   1.000000
    363        -17.514809   1.000000
    364        -17.513983   1.000000
    365        -17.512674   1.000000
    366        -17.511117   1.000000
    367        -17.497312   1.000000
    368        -17.496890   1.000000
    369        -17.494396   1.000000
    370        -17.494341   1.000000
    371        -17.492240   1.000000
    372        -17.490160   1.000000
    373        -17.487857   1.000000
    374        -17.474636   1.000000
    375        -17.473804   1.000000
    376        -17.468980   1.000000
    377        -17.468356   1.000000
    378        -17.463473   1.000000
    379        -17.459120   1.000000
    380        -17.456120   1.000000
    381        -17.447033   1.000000
    382        -17.444923   1.000000
    383        -17.433818   1.000000
    384        -17.421437   1.000000
    385          2.442133   1.000000
    386          3.482169   1.000000
    387          4.223061   1.000000
    388          4.251948   1.000000
    389          4.340392   1.000000
    390          4.576008   1.000000
    391          4.644092   1.000000
    392          4.945123   1.000000
    393          4.984657   1.000000
    394          5.201240   1.000000
    395          5.213325   1.000000
    396          5.232007   1.000000
    397          5.233678   1.000000
    398          5.235046   1.000000
    399          5.332789   1.000000
    400          5.460982   1.000000
    401          5.652060   1.000000
    402          5.653622   1.000000
    403          5.654770   1.000000
    404          5.688562   1.000000
    405          5.743078   1.000000
    406          5.750115   1.000000
    407          5.764165   1.000000
    408          5.833397   1.000000
    409          5.914698   1.000000
    410          5.930825   1.000000
    411          5.976460   1.000000
    412          5.979762   1.000000
    413          5.984870   1.000000
    414          6.001032   1.000000
    415          6.068291   1.000000
    416          6.268694   1.000000
    417          6.307062   1.000000
    418          6.327435   1.000000
    419          6.393231   1.000000
    420          6.394972   1.000000
    421          6.395459   1.000000
    422          6.407107   1.000000
    423          6.434728   1.000000
    424          6.438789   1.000000
    425          6.442010   1.000000
    426          6.457707   1.000000
    427          6.462957   1.000000
    428          6.476830   1.000000
    429          6.498495   1.000000
    430          6.502471   1.000000
    431          6.507017   1.000000
    432          6.510067   1.000000
    433          6.517008   1.000000
    434          6.517627   1.000000
    435          6.520773   1.000000
    436          6.531102   1.000000
    437          6.548295   1.000000
    438          6.558399   1.000000
    439          6.601868   1.000000
    440          6.674734   1.000000
    441          6.675645   1.000000
    442          6.677550   1.000000
    443          6.680954   1.000000
    444          6.697704   1.000000
    445          6.703561   1.000000
    446          6.740705   1.000000
    447          6.773670   1.000000
    448          6.790118   1.000000
    449          6.800142   1.000000
    450          6.800456   1.000000
    451          6.805815   1.000000
    452          6.834212   1.000000
    453          6.842873   1.000000
    454          6.850641   1.000000
    455          6.862822   1.000000
    456          6.864491   1.000000
    457          6.866086   1.000000
    458          6.879359   1.000000
    459          6.891207   1.000000
    460          6.897034   1.000000
    461          6.902437   1.000000
    462          6.903257   1.000000
    463          6.903613   1.000000
    464          6.905546   1.000000
    465          6.907612   1.000000
    466          6.916339   1.000000
    467          6.918452   1.000000
    468          6.978742   1.000000
    469          6.992952   1.000000
    470          6.993943   1.000000
    471          6.996130   1.000000
    472          6.999480   1.000000
    473          7.005651   1.000000
    474          7.008288   1.000000
    475          7.027490   1.000000
    476          7.114379   1.000000
    477          7.197274   1.000000
    478          7.201628   1.000000
    479          7.203165   1.000000
    480          7.205945   1.000000
    481          7.206910   1.000000
    482          7.213500   1.000000
    483          7.221442   1.000000
    484          7.227959   1.000000
    485          7.230363   1.000000
    486          7.326822   1.000000
    487          7.406016   1.000000
    488          7.430343   1.000000
    489          7.483927   1.000000
    490          7.499789   1.000000
    491          7.526812   1.000000
    492          7.634095   1.000000
    493          7.646452   1.000000
    494          7.648209   1.000000
    495          7.659502   1.000000
    496          7.668709   1.000000
    497          7.673073   1.000000
    498          7.681651   1.000000
    499          7.687527   1.000000
    500          7.688975   1.000000
    501          7.690203   1.000000
    502          7.692472   1.000000
    503          7.701802   1.000000
    504          7.708106   1.000000
    505          7.711071   1.000000
    506          7.714851   1.000000
    507          7.747937   1.000000
    508          7.750556   1.000000
    509          7.764728   1.000000
    510          7.790027   1.000000
    511          7.793329   1.000000
    512          7.794727   1.000000
    513          7.802545   1.000000
    514          7.835074   1.000000
    515          7.835805   1.000000
    516          7.838343   1.000000
    517          7.844415   1.000000
    518          7.847043   1.000000
    519          7.851348   1.000000
    520          7.852415   1.000000
    521          7.853415   1.000000
    522          7.854761   1.000000
    523          7.878532   1.000000
    524          7.882523   1.000000
    525          7.996002   1.000000
    526          8.041859   1.000000
    527          8.052148   1.000000
    528          8.054916   1.000000
    529          8.071418   1.000000
    530          8.085349   1.000000
    531          8.089673   1.000000
    532          8.092408   1.000000
    533          8.092842   1.000000
    534          8.095696   1.000000
    535          8.182392   1.000000
    536          8.204845   1.000001
    537          8.211281   1.000001
    538          8.214644   1.000001
    539          8.252087   1.000004
    540          8.294578   1.000014
    541          8.295436   1.000015
    542          8.300837   1.000018
    543          8.304115   1.000019
    544          8.320757   1.000032
    545          8.322905   1.000034
    546          8.327271   1.000039
    547          8.380112   1.000174
    548          8.405010   1.000332
    549          8.414547   1.000421
    550          8.427165   1.000573
    551          8.440501   1.000787
    552          8.445098   1.000875
    553          8.446911   1.000912
    554          8.451403   1.001011
    555          8.455037   1.001097
    556          8.483023   1.002012
    557          8.493340   1.002486
    558          8.493893   1.002514
    559          8.501620   1.002933
    560          8.609221   1.016794
    561          8.621651   1.019474
    562          8.640923   1.023872
    563          8.643943   1.024571
    564          8.648076   1.025524
    565          8.649462   1.025843
    566          8.650272   1.026029
    567          8.653820   1.026837
    568          8.664800   1.029257
    569          8.778353   1.010600
    570          8.808617   0.974340
    571          8.817896   0.959078
    572          8.819776   0.955733
    573          8.824910   0.946154
    574          8.840975   0.911930
    575          8.852560   0.883209
    576          8.873852   0.821766
    577          8.901163   0.728003
    578          8.903725   0.718457
    579          8.904775   0.714513
    580          8.910613   0.692254
    581          9.062645   0.115949
    582          9.068957   0.099933
    583          9.077182   0.080570
    584          9.081383   0.071338
    585          9.082719   0.068497
    586          9.087629   0.058437
    587          9.095242   0.044024
    588          9.097440   0.040129
    589          9.097931   0.039276
    590          9.105796   0.026384
    591          9.119692   0.007129
    592          9.123667   0.002412
    593          9.123953   0.002085
    594          9.126860  -0.001133
    595          9.137120  -0.011117
    596          9.140741  -0.014151
    597          9.151888  -0.022000
    598          9.165950  -0.028998
    599          9.166765  -0.029313
    600          9.173235  -0.031501
    601          9.177357  -0.032614
    602          9.182823  -0.033779
    603          9.191632  -0.034978
    604          9.197996  -0.035381
    605          9.268625  -0.025105
    606          9.269892  -0.024813
    607          9.282554  -0.021888
    608          9.283471  -0.021678
    609          9.295550  -0.018961
    610          9.298054  -0.018414
    611          9.300896  -0.017801
    612          9.313250  -0.015250
    613          9.358959  -0.007800
    614          9.372803  -0.006189
    615          9.373123  -0.006155
    616          9.374565  -0.006004
    617          9.449451  -0.001382
    618          9.452434  -0.001294
    619          9.494076  -0.000491
    620          9.510013  -0.000331
    621          9.510751  -0.000324
    622          9.516153  -0.000283
    623          9.522728  -0.000238
    624          9.540298  -0.000150
    625          9.598907  -0.000028
    626          9.609191  -0.000020
    627          9.623687  -0.000013
    628          9.628172  -0.000011
    629          9.635496  -0.000009
    630          9.636438  -0.000009
    631          9.674719  -0.000002
    632          9.684367  -0.000002
    633          9.693369  -0.000001
    634          9.696387  -0.000001
    635          9.701384  -0.000001
    636          9.702456  -0.000001
    637          9.713883  -0.000001
    638          9.728796  -0.000000
    639          9.742896  -0.000000
    640          9.755801  -0.000000
    641          9.768808  -0.000000
    642          9.769774  -0.000000
    643          9.777645  -0.000000
    644          9.780218  -0.000000
    645          9.789730  -0.000000
    646          9.792623  -0.000000
    647          9.801875  -0.000000
    648          9.810029  -0.000000
    649          9.814272  -0.000000
    650          9.816160  -0.000000
    651          9.823171  -0.000000
    652          9.852324  -0.000000
    653          9.870615  -0.000000
    654          9.893236  -0.000000
    655          9.900016  -0.000000
    656          9.909093  -0.000000
    657          9.910763  -0.000000
    658          9.911052  -0.000000
    659          9.944864  -0.000000
    660          9.952982  -0.000000
    661          9.978409  -0.000000
    662          9.982834  -0.000000
    663         10.006334  -0.000000
    664         10.008121  -0.000000
    665         10.025147  -0.000000
    666         10.028449  -0.000000
    667         10.032254  -0.000000
    668         10.035063  -0.000000
    669         10.040455  -0.000000
    670         10.070386  -0.000000
    671         10.078486  -0.000000
    672         10.148378  -0.000000
    673         10.163533  -0.000000
    674         10.173579  -0.000000
    675         10.175144  -0.000000
    676         10.175643  -0.000000
    677         10.188767  -0.000000
    678         10.196022  -0.000000
    679         10.244385  -0.000000
    680         10.250075  -0.000000
    681         10.260530  -0.000000
    682         10.273175  -0.000000
    683         10.274213  -0.000000
    684         10.281607  -0.000000
    685         10.292141  -0.000000
    686         10.323002  -0.000000
    687         10.329016  -0.000000
    688         10.336279  -0.000000
    689         10.337893  -0.000000
    690         10.368693  -0.000000
    691         10.370384  -0.000000
 
  0.5000000E+00 -0.1797743E-16  0.0000000E+00  0.2083333E-01
      1        -39.908200   1.000000
      2        -39.885292   1.000000
      3        -39.878187   1.000000
      4        -39.865829   1.000000
      5        -39.860858   1.000000
      6        -39.854119   1.000000
      7        -39.853741   1.000000
      8        -39.850495   1.000000
      9        -39.840975   1.000000
     10        -39.837817   1.000000
     11        -39.831741   1.000000
     12        -39.828158   1.000000
     13        -39.825160   1.000000
     14        -39.823008   1.000000
     15        -39.815718   1.000000
     16        -39.809954   1.000000
     17        -39.807311   1.000000
     18        -39.806985   1.000000
     19        -39.802835   1.000000
     20        -39.798986   1.000000
     21        -39.795698   1.000000
     22        -39.791804   1.000000
     23        -39.787918   1.000000
     24        -39.787884   1.000000
     25        -39.787267   1.000000
     26        -39.785962   1.000000
     27        -39.785517   1.000000
     28        -39.781512   1.000000
     29        -39.781155   1.000000
     30        -39.780346   1.000000
     31        -39.779582   1.000000
     32        -39.777942   1.000000
     33        -39.774575   1.000000
     34        -39.774565   1.000000
     35        -39.774106   1.000000
     36        -39.772994   1.000000
     37        -39.768610   1.000000
     38        -39.767926   1.000000
     39        -39.767691   1.000000
     40        -39.766168   1.000000
     41        -39.766165   1.000000
     42        -39.763357   1.000000
     43        -39.762340   1.000000
     44        -39.760828   1.000000
     45        -39.760489   1.000000
     46        -39.759066   1.000000
     47        -39.757882   1.000000
     48        -39.755832   1.000000
     49        -39.755452   1.000000
     50        -39.753557   1.000000
     51        -39.753002   1.000000
     52        -39.750722   1.000000
     53        -39.748936   1.000000
     54        -39.748121   1.000000
     55        -39.746188   1.000000
     56        -39.745168   1.000000
     57        -39.745164   1.000000
     58        -39.743990   1.000000
     59        -39.743651   1.000000
     60        -39.743199   1.000000
     61        -39.742700   1.000000
     62        -39.742349   1.000000
     63        -39.740923   1.000000
     64        -39.739851   1.000000
     65        -39.738736   1.000000
     66        -39.738601   1.000000
     67        -39.737156   1.000000
     68        -39.736843   1.000000
     69        -39.736224   1.000000
     70        -39.734670   1.000000
     71        -39.734218   1.000000
     72        -39.733592   1.000000
     73        -39.732328   1.000000
     74        -39.731767   1.000000
     75        -39.731098   1.000000
     76        -39.731086   1.000000
     77        -39.730537   1.000000
     78        -39.730250   1.000000
     79        -39.729357   1.000000
     80        -39.728541   1.000000
     81        -39.726994   1.000000
     82        -39.726177   1.000000
     83        -39.725272   1.000000
     84        -39.725016   1.000000
     85        -39.723698   1.000000
     86        -39.721599   1.000000
     87        -39.721104   1.000000
     88        -39.720768   1.000000
     89        -39.718458   1.000000
     90        -39.717780   1.000000
     91        -39.714613   1.000000
     92        -39.713690   1.000000
     93        -39.708870   1.000000
     94        -39.708570   1.000000
     95        -39.706623   1.000000
     96        -39.704548   1.000000
     97        -18.376011   1.000000
     98        -18.367956   1.000000
     99        -18.321159   1.000000
    100        -18.289320   1.000000
    101        -18.288929   1.000000
    102        -18.284651   1.000000
    103        -18.281978   1.000000
    104        -18.281886   1.000000
    105        -18.281347   1.000000
    106        -18.280719   1.000000
    107        -18.280316   1.000000
    108        -18.279095   1.000000
    109        -18.271511   1.000000
    110        -18.266736   1.000000
    111        -18.263232   1.000000
    112        -18.260458   1.000000
    113        -18.229222   1.000000
    114        -18.210865   1.000000
    115        -18.210313   1.000000
    116        -18.208150   1.000000
    117        -18.207179   1.000000
    118        -18.201985   1.000000
    119        -18.200539   1.000000
    120        -18.199498   1.000000
    121        -18.198201   1.000000
    122        -18.197745   1.000000
    123        -18.196405   1.000000
    124        -18.195986   1.000000
    125        -18.195837   1.000000
    126        -18.194518   1.000000
    127        -18.193298   1.000000
    128        -18.193037   1.000000
    129        -18.192478   1.000000
    130        -18.191982   1.000000
    131        -18.191751   1.000000
    132        -18.191475   1.000000
    133        -18.190813   1.000000
    134        -18.189852   1.000000
    135        -18.188816   1.000000
    136        -18.186913   1.000000
    137        -18.174711   1.000000
    138        -18.169032   1.000000
    139        -18.166657   1.000000
    140        -18.165055   1.000000
    141        -18.163914   1.000000
    142        -18.160557   1.000000
    143        -18.158291   1.000000
    144        -18.156828   1.000000
    145        -18.156592   1.000000
    146        -18.155609   1.000000
    147        -18.153387   1.000000
    148        -18.152475   1.000000
    149        -18.151821   1.000000
    150        -18.151032   1.000000
    151        -18.150585   1.000000
    152        -18.148542   1.000000
    153        -18.147892   1.000000
    154        -18.144576   1.000000
    155        -18.142274   1.000000
    156        -18.141682   1.000000
    157        -18.140394   1.000000
    158        -18.139903   1.000000
    159        -18.138439   1.000000
    160        -18.137393   1.000000
    161        -18.089274   1.000000
    162        -18.083328   1.000000
    163        -18.077631   1.000000
    164        -18.073485   1.000000
    165        -18.071888   1.000000
    166        -18.069339   1.000000
    167        -18.069146   1.000000
    168        -18.069051   1.000000
    169        -18.067654   1.000000
    170        -18.067210   1.000000
    171        -18.045048   1.000000
    172        -18.039677   1.000000
    173        -18.033417   1.000000
    174        -18.033199   1.000000
    175        -18.031396   1.000000
    176        -18.026714   1.000000
    177        -18.024503   1.000000
    178        -18.021765   1.000000
    179        -18.002711   1.000000
    180        -17.995747   1.000000
    181        -17.995283   1.000000
    182        -17.989783   1.000000
    183        -17.989673   1.000000
    184        -17.988178   1.000000
    185        -17.986538   1.000000
    186        -17.983057   1.000000
    187        -17.981492   1.000000
    188        -17.981231   1.000000
    189        -17.979463   1.000000
    190        -17.977387   1.000000
    191        -17.939746   1.000000
    192        -17.939461   1.000000
    193        -17.933537   1.000000
    194        -17.933483   1.000000
    195        -17.929561   1.000000
    196        -17.929189   1.000000
    197        -17.896514   1.000000
    198        -17.888134   1.000000
    199        -17.881581   1.000000
    200        -17.873802   1.000000
    201        -17.872919   1.000000
    202        -17.872548   1.000000
    203        -17.860206   1.000000
    204        -17.853282   1.000000
    205        -17.847255   1.000000
    206        -17.845030   1.000000
    207        -17.843357   1.000000
    208        -17.837780   1.000000
    209        -17.836770   1.000000
    210        -17.835101   1.000000
    211        -17.835074   1.000000
    212        -17.834545   1.000000
    213        -17.830893   1.000000
    214        -17.829883   1.000000
    215        -17.817845   1.000000
    216        -17.814090   1.000000
    217        -17.811306   1.000000
    218        -17.806796   1.000000
    219        -17.803879   1.000000
    220        -17.802120   1.000000
    221        -17.801871   1.000000
    222        -17.797843   1.000000
    223        -17.797596   1.000000
    224        -17.797166   1.000000
    225        -17.794624   1.000000
    226        -17.793500   1.000000
    227        -17.792567   1.000000
    228        -17.792270   1.000000
    229        -17.791770   1.000000
    230        -17.790574   1.000000
    231        -17.789494   1.000000
    232        -17.789178   1.000000
    233        -17.766650   1.000000
    234        -17.760709   1.000000
    235        -17.757831   1.000000
    236        -17.755201   1.000000
    237        -17.747950   1.000000
    238        -17.745936   1.000000
    239        -17.745893   1.000000
    240        -17.743712   1.000000
    241        -17.742276   1.000000
    242        -17.741737   1.000000
    243        -17.740155   1.000000
    244        -17.734363   1.000000
    245        -17.731520   1.000000
    246        -17.728441   1.000000
    247        -17.725150   1.000000
    248        -17.724665   1.000000
    249        -17.721743   1.000000
    250        -17.719929   1.000000
    251        -17.718828   1.000000
    252        -17.716588   1.000000
    253        -17.716240   1.000000
    254        -17.715217   1.000000
    255        -17.714929   1.000000
    256        -17.713540   1.000000
    257        -17.713199   1.000000
    258        -17.712922   1.000000
    259        -17.712320   1.000000
    260        -17.712306   1.000000
    261        -17.709668   1.000000
    262        -17.709365   1.000000
    263        -17.708965   1.000000
    264        -17.708167   1.000000
    265        -17.707606   1.000000
    266        -17.706093   1.000000
    267        -17.705934   1.000000
    268        -17.700716   1.000000
    269        -17.687802   1.000000
    270        -17.683529   1.000000
    271        -17.682743   1.000000
    272        -17.680519   1.000000
    273        -17.678858   1.000000
    274        -17.676003   1.000000
    275        -17.674786   1.000000
    276        -17.673119   1.000000
    277        -17.670431   1.000000
    278        -17.669755   1.000000
    279        -17.669476   1.000000
    280        -17.669360   1.000000
    281        -17.667281   1.000000
    282        -17.666964   1.000000
    283        -17.665622   1.000000
    284        -17.665001   1.000000
    285        -17.664577   1.000000
    286        -17.655590   1.000000
    287        -17.653178   1.000000
    288        -17.651146   1.000000
    289        -17.650857   1.000000
    290        -17.650237   1.000000
    291        -17.635846   1.000000
    292        -17.633361   1.000000
    293        -17.628310   1.000000
    294        -17.627390   1.000000
    295        -17.619251   1.000000
    296        -17.618798   1.000000
    297        -17.617444   1.000000
    298        -17.614298   1.000000
    299        -17.611731   1.000000
    300        -17.610205   1.000000
    301        -17.608220   1.000000
    302        -17.607864   1.000000
    303        -17.606022   1.000000
    304        -17.605953   1.000000
    305        -17.605143   1.000000
    306        -17.604687   1.000000
    307        -17.603928   1.000000
    308        -17.602971   1.000000
    309        -17.602561   1.000000
    310        -17.601472   1.000000
    311        -17.600753   1.000000
    312        -17.600632   1.000000
    313        -17.599684   1.000000
    314        -17.599246   1.000000
    315        -17.598747   1.000000
    316        -17.597663   1.000000
    317        -17.595782   1.000000
    318        -17.594602   1.000000
    319        -17.593248   1.000000
    320        -17.593189   1.000000
    321        -17.587896   1.000000
    322        -17.587034   1.000000
    323        -17.584164   1.000000
    324        -17.583188   1.000000
    325        -17.581292   1.000000
    326        -17.577266   1.000000
    327        -17.576726   1.000000
    328        -17.576436   1.000000
    329        -17.574781   1.000000
    330        -17.573298   1.000000
    331        -17.573085   1.000000
    332        -17.571042   1.000000
    333        -17.570706   1.000000
    334        -17.570483   1.000000
    335        -17.569258   1.000000
    336        -17.569148   1.000000
    337        -17.568217   1.000000
    338        -17.566213   1.000000
    339        -17.565175   1.000000
    340        -17.563303   1.000000
    341        -17.557688   1.000000
    342        -17.555240   1.000000
    343        -17.553803   1.000000
    344        -17.550713   1.000000
    345        -17.550174   1.000000
    346        -17.550043   1.000000
    347        -17.549461   1.000000
    348        -17.548979   1.000000
    349        -17.548801   1.000000
    350        -17.547984   1.000000
    351        -17.547567   1.000000
    352        -17.546625   1.000000
    353        -17.546065   1.000000
    354        -17.543431   1.000000
    355        -17.542296   1.000000
    356        -17.542235   1.000000
    357        -17.531931   1.000000
    358        -17.528322   1.000000
    359        -17.526794   1.000000
    360        -17.525470   1.000000
    361        -17.525467   1.000000
    362        -17.524225   1.000000
    363        -17.522779   1.000000
    364        -17.520937   1.000000
    365        -17.516696   1.000000
    366        -17.516216   1.000000
    367        -17.509911   1.000000
    368        -17.506791   1.000000
    369        -17.505673   1.000000
    370        -17.504846   1.000000
    371        -17.503071   1.000000
    372        -17.495862   1.000000
    373        -17.491467   1.000000
    374        -17.487780   1.000000
    375        -17.479609   1.000000
    376        -17.477969   1.000000
    377        -17.474507   1.000000
    378        -17.472395   1.000000
    379        -17.471238   1.000000
    380        -17.465624   1.000000
    381        -17.451683   1.000000
    382        -17.446011   1.000000
    383        -17.434158   1.000000
    384        -17.429415   1.000000
    385          2.450879   1.000000
    386          3.723013   1.000000
    387          3.825949   1.000000
    388          4.495917   1.000000
    389          4.508965   1.000000
    390          4.531785   1.000000
    391          4.533925   1.000000
    392          4.534623   1.000000
    393          4.715178   1.000000
    394          5.178838   1.000000
    395          5.180742   1.000000
    396          5.182163   1.000000
    397          5.269757   1.000000
    398          5.713778   1.000000
    399          5.715467   1.000000
    400          5.718050   1.000000
    401          5.759759   1.000000
    402          5.894956   1.000000
    403          5.900659   1.000000
    404          5.901813   1.000000
    405          5.909579   1.000000
    406          5.946711   1.000000
    407          5.957920   1.000000
    408          5.994633   1.000000
    409          5.995118   1.000000
    410          5.998801   1.000000
    411          5.999306   1.000000
    412          6.000531   1.000000
    413          6.001489   1.000000
    414          6.004118   1.000000
    415          6.029302   1.000000
    416          6.052615   1.000000
    417          6.053488   1.000000
    418          6.055617   1.000000
    419          6.139919   1.000000
    420          6.182058   1.000000
    421          6.187810   1.000000
    422          6.191277   1.000000
    423          6.191949   1.000000
    424          6.192695   1.000000
    425          6.192950   1.000000
    426          6.199123   1.000000
    427          6.253611   1.000000
    428          6.304568   1.000000
    429          6.384666   1.000000
    430          6.564331   1.000000
    431          6.568349   1.000000
    432          6.571539   1.000000
    433          6.574676   1.000000
    434          6.581738   1.000000
    435          6.584223   1.000000
    436          6.584926   1.000000
    437          6.622316   1.000000
    438          6.667655   1.000000
    439          6.667716   1.000000
    440          6.672546   1.000000
    441          6.699208   1.000000
    442          6.707076   1.000000
    443          6.734793   1.000000
    444          6.762303   1.000000
    445          6.762725   1.000000
    446          6.767310   1.000000
    447          6.767658   1.000000
    448          6.770685   1.000000
    449          6.771904   1.000000
    450          6.773262   1.000000
    451          6.793161   1.000000
    452          6.828012   1.000000
    453          6.832026   1.000000
    454          6.833148   1.000000
    455          6.848515   1.000000
    456          6.860262   1.000000
    457          6.863248   1.000000
    458          6.864137   1.000000
    459          6.869577   1.000000
    460          6.871785   1.000000
    461          6.876261   1.000000
    462          6.879799   1.000000
    463          6.881139   1.000000
    464          6.882263   1.000000
    465          6.883445   1.000000
    466          6.887721   1.000000
    467          6.890552   1.000000
    468          6.890945   1.000000
    469          6.900789   1.000000
    470          6.907983   1.000000
    471          6.908120   1.000000
    472          6.916974   1.000000
    473          6.920434   1.000000
    474          6.923587   1.000000
    475          7.076165   1.000000
    476          7.134428   1.000000
    477          7.140478   1.000000
    478          7.196067   1.000000
    479          7.203227   1.000000
    480          7.203552   1.000000
    481          7.264023   1.000000
    482          7.328501   1.000000
    483          7.370128   1.000000
    484          7.420859   1.000000
    485          7.426055   1.000000
    486          7.427927   1.000000
    487          7.429790   1.000000
    488          7.432277   1.000000
    489          7.454761   1.000000
    490          7.464696   1.000000
    491          7.475286   1.000000
    492          7.476488   1.000000
    493          7.478692   1.000000
    494          7.602307   1.000000
    495          7.614330   1.000000
    496          7.615748   1.000000
    497          7.631653   1.000000
    498          7.664143   1.000000
    499          7.670222   1.000000
    500          7.675649   1.000000
    501          7.675998   1.000000
    502          7.680808   1.000000
    503          7.681577   1.000000
    504          7.686233   1.000000
    505          7.694462   1.000000
    506          7.706074   1.000000
    507          7.706405   1.000000
    508          7.707019   1.000000
    509          7.709535   1.000000
    510          7.711468   1.000000
    511          7.715434   1.000000
    512          7.717806   1.000000
    513          7.793508   1.000000
    514          7.800478   1.000000
    515          7.803907   1.000000
    516          7.809915   1.000000
    517          7.868763   1.000000
    518          7.881787   1.000000
    519          7.885069   1.000000
    520          7.887086   1.000000
    521          7.931259   1.000000
    522          7.940218   1.000000
    523          7.944882   1.000000
    524          7.946157   1.000000
    525          7.991239   1.000000
    526          8.008863   1.000000
    527          8.042339   1.000000
    528          8.076687   1.000000
    529          8.081574   1.000000
    530          8.086195   1.000000
    531          8.147258   1.000000
    532          8.246869   1.000003
    533          8.247927   1.000003
    534          8.250733   1.000003
    535          8.266803   1.000006
    536          8.287865   1.000012
    537          8.289929   1.000013
    538          8.291233   1.000013
    539          8.294026   1.000014
    540          8.297169   1.000016
    541          8.299592   1.000017
    542          8.302606   1.000019
    543          8.345875   1.000067
    544          8.365307   1.000116
    545          8.383833   1.000192
    546          8.391368   1.000234
    547          8.393303   1.000246
    548          8.394968   1.000257
    549          8.398426   1.000280
    550          8.398572   1.000282
    551          8.404868   1.000331
    552          8.405075   1.000332
    553          8.408274   1.000360
    554          8.409260   1.000369
    555          8.409460   1.000371
    556          8.413132   1.000407
    557          8.413389   1.000409
    558          8.417117   1.000449
    559          8.447904   1.000933
    560          8.459569   1.001214
    561          8.462857   1.001306
    562          8.471861   1.001588
    563          8.491202   1.002381
    564          8.512317   1.003609
    565          8.618937   1.018874
    566          8.634556   1.022400
    567          8.637576   1.023097
    568          8.646289   1.025113
    569          8.833106   0.929505
    570          8.873326   0.823416
    571          8.879702   0.803010
    572          8.882462   0.793897
    573          9.035587   0.195663
    574          9.040640   0.179463
    575          9.056570   0.132306
    576          9.058352   0.127411
    577          9.058984   0.125695
    578          9.060554   0.121476
    579          9.067253   0.104156
    580          9.069569   0.098431
    581          9.075508   0.084372
    582          9.083291   0.067292
    583          9.109000   0.021553
    584          9.119928   0.006839
    585          9.125547   0.000299
    586          9.129151  -0.003547
    587          9.132459  -0.006842
    588          9.134133  -0.008426
    589          9.138181  -0.012032
    590          9.138984  -0.012710
    591          9.141450  -0.014716
    592          9.148696  -0.019974
    593          9.149118  -0.020252
    594          9.149260  -0.020344
    595          9.152418  -0.022321
    596          9.152767  -0.022528
    597          9.155344  -0.024004
    598          9.157395  -0.025103
    599          9.158059  -0.025445
    600          9.161028  -0.026889
    601          9.162608  -0.027605
    602          9.163426  -0.027960
    603          9.164414  -0.028377
    604          9.171621  -0.031006
    605          9.282037  -0.022007
    606          9.291836  -0.019784
    607          9.298035  -0.018418
    608          9.303547  -0.017237
    609          9.305268  -0.016876
    610          9.313229  -0.015254
    611          9.315134  -0.014879
    612          9.319311  -0.014075
    613          9.319754  -0.013991
    614          9.325955  -0.012849
    615          9.374450  -0.006016
    616          9.380743  -0.005389
    617          9.409509  -0.003157
    618          9.414175  -0.002881
    619          9.422164  -0.002455
    620          9.430544  -0.002067
    621          9.557616  -0.000093
    622          9.572654  -0.000061
    623          9.574520  -0.000057
    624          9.583678  -0.000044
    625          9.591899  -0.000035
    626          9.594520  -0.000032
    627          9.600947  -0.000026
    628          9.610952  -0.000019
    629          9.663967  -0.000003
    630          9.667523  -0.000003
    631          9.669322  -0.000003
    632          9.691617  -0.000001
    633          9.697001  -0.000001
    634          9.701076  -0.000001
    635          9.711089  -0.000001
    636          9.713522  -0.000001
    637          9.713757  -0.000001
    638          9.719512  -0.000000
    639          9.719710  -0.000000
    640          9.720250  -0.000000
    641          9.723024  -0.000000
    642          9.725198  -0.000000
    643          9.728601  -0.000000
    644          9.748893  -0.000000
    645          9.762670  -0.000000
    646          9.768534  -0.000000
    647          9.775552  -0.000000
    648          9.780221  -0.000000
    649          9.828279  -0.000000
    650          9.848796  -0.000000
    651          9.905216  -0.000000
    652          9.906375  -0.000000
    653          9.908774  -0.000000
    654          9.912686  -0.000000
    655          9.919758  -0.000000
    656          9.923811  -0.000000
    657          9.950389  -0.000000
    658          9.956555  -0.000000
    659          9.962092  -0.000000
    660          9.967553  -0.000000
    661          9.968400  -0.000000
    662          9.969301  -0.000000
    663          9.974566  -0.000000
    664          9.977206  -0.000000
    665          9.978963  -0.000000
    666         10.012466  -0.000000
    667         10.015053  -0.000000
    668         10.021512  -0.000000
    669         10.032392  -0.000000
    670         10.037073  -0.000000
    671         10.107371  -0.000000
    672         10.128759  -0.000000
    673         10.196527  -0.000000
    674         10.202458  -0.000000
    675         10.204324  -0.000000
    676         10.208625  -0.000000
    677         10.210866  -0.000000
    678         10.217904  -0.000000
    679         10.225817  -0.000000
    680         10.226898  -0.000000
    681         10.246200  -0.000000
    682         10.250380  -0.000000
    683         10.252162  -0.000000
    684         10.268577  -0.000000
    685         10.270212  -0.000000
    686         10.280398  -0.000000
    687         10.281944  -0.000000
    688         10.282148  -0.000000
    689         10.283904  -0.000000
    690         10.295140  -0.000000
    691         10.301065  -0.000000
 
  0.2690550E-16  0.5000000E+00  0.0000000E+00  0.2083333E-01
      1        -39.908212   1.000000
      2        -39.885208   1.000000
      3        -39.878202   1.000000
      4        -39.865929   1.000000
      5        -39.860957   1.000000
      6        -39.854086   1.000000
      7        -39.853694   1.000000
      8        -39.850392   1.000000
      9        -39.841031   1.000000
     10        -39.837924   1.000000
     11        -39.831587   1.000000
     12        -39.828072   1.000000
     13        -39.825192   1.000000
     14        -39.823055   1.000000
     15        -39.815938   1.000000
     16        -39.809800   1.000000
     17        -39.807410   1.000000
     18        -39.806826   1.000000
     19        -39.802759   1.000000
     20        -39.798949   1.000000
     21        -39.795610   1.000000
     22        -39.791763   1.000000
     23        -39.788041   1.000000
     24        -39.787930   1.000000
     25        -39.787463   1.000000
     26        -39.785940   1.000000
     27        -39.785540   1.000000
     28        -39.781439   1.000000
     29        -39.781106   1.000000
     30        -39.780359   1.000000
     31        -39.779578   1.000000
     32        -39.778004   1.000000
     33        -39.774725   1.000000
     34        -39.774456   1.000000
     35        -39.774194   1.000000
     36        -39.772955   1.000000
     37        -39.768800   1.000000
     38        -39.767787   1.000000
     39        -39.767690   1.000000
     40        -39.766334   1.000000
     41        -39.766021   1.000000
     42        -39.763279   1.000000
     43        -39.762292   1.000000
     44        -39.760910   1.000000
     45        -39.760607   1.000000
     46        -39.758898   1.000000
     47        -39.757791   1.000000
     48        -39.755668   1.000000
     49        -39.755590   1.000000
     50        -39.753609   1.000000
     51        -39.752915   1.000000
     52        -39.750556   1.000000
     53        -39.748995   1.000000
     54        -39.748103   1.000000
     55        -39.746028   1.000000
     56        -39.745308   1.000000
     57        -39.745192   1.000000
     58        -39.744147   1.000000
     59        -39.743607   1.000000
     60        -39.743279   1.000000
     61        -39.742701   1.000000
     62        -39.742286   1.000000
     63        -39.740747   1.000000
     64        -39.739722   1.000000
     65        -39.738736   1.000000
     66        -39.738558   1.000000
     67        -39.737321   1.000000
     68        -39.736963   1.000000
     69        -39.736253   1.000000
     70        -39.734760   1.000000
     71        -39.734456   1.000000
     72        -39.733611   1.000000
     73        -39.732176   1.000000
     74        -39.731869   1.000000
     75        -39.731131   1.000000
     76        -39.731012   1.000000
     77        -39.730486   1.000000
     78        -39.730280   1.000000
     79        -39.729346   1.000000
     80        -39.728476   1.000000
     81        -39.726971   1.000000
     82        -39.726185   1.000000
     83        -39.725250   1.000000
     84        -39.725003   1.000000
     85        -39.723689   1.000000
     86        -39.721646   1.000000
     87        -39.720988   1.000000
     88        -39.720617   1.000000
     89        -39.718559   1.000000
     90        -39.717801   1.000000
     91        -39.714775   1.000000
     92        -39.713603   1.000000
     93        -39.708838   1.000000
     94        -39.708609   1.000000
     95        -39.706615   1.000000
     96        -39.704536   1.000000
     97        -18.376014   1.000000
     98        -18.367936   1.000000
     99        -18.321099   1.000000
    100        -18.289230   1.000000
    101        -18.289130   1.000000
    102        -18.284604   1.000000
    103        -18.281967   1.000000
    104        -18.281813   1.000000
    105        -18.281343   1.000000
    106        -18.280773   1.000000
    107        -18.280282   1.000000
    108        -18.279147   1.000000
    109        -18.271592   1.000000
    110        -18.266714   1.000000
    111        -18.263167   1.000000
    112        -18.260501   1.000000
    113        -18.229292   1.000000
    114        -18.210728   1.000000
    115        -18.210348   1.000000
    116        -18.207969   1.000000
    117        -18.207237   1.000000
    118        -18.201926   1.000000
    119        -18.200632   1.000000
    120        -18.199520   1.000000
    121        -18.198188   1.000000
    122        -18.197633   1.000000
    123        -18.196481   1.000000
    124        -18.196055   1.000000
    125        -18.195984   1.000000
    126        -18.194436   1.000000
    127        -18.193344   1.000000
    128        -18.193001   1.000000
    129        -18.192389   1.000000
    130        -18.191868   1.000000
    131        -18.191832   1.000000
    132        -18.191402   1.000000
    133        -18.190908   1.000000
    134        -18.189907   1.000000
    135        -18.188890   1.000000
    136        -18.186857   1.000000
    137        -18.174685   1.000000
    138        -18.169073   1.000000
    139        -18.166508   1.000000
    140        -18.165116   1.000000
    141        -18.164018   1.000000
    142        -18.160627   1.000000
    143        -18.158367   1.000000
    144        -18.156709   1.000000
    145        -18.156598   1.000000
    146        -18.155536   1.000000
    147        -18.153358   1.000000
    148        -18.152422   1.000000
    149        -18.151836   1.000000
    150        -18.151044   1.000000
    151        -18.150572   1.000000
    152        -18.148594   1.000000
    153        -18.147814   1.000000
    154        -18.144628   1.000000
    155        -18.142286   1.000000
    156        -18.141620   1.000000
    157        -18.140434   1.000000
    158        -18.140000   1.000000
    159        -18.138600   1.000000
    160        -18.137362   1.000000
    161        -18.089278   1.000000
    162        -18.083165   1.000000
    163        -18.077619   1.000000
    164        -18.073340   1.000000
    165        -18.071880   1.000000
    166        -18.069436   1.000000
    167        -18.069284   1.000000
    168        -18.069075   1.000000
    169        -18.067549   1.000000
    170        -18.067223   1.000000
    171        -18.045162   1.000000
    172        -18.039602   1.000000
    173        -18.033329   1.000000
    174        -18.033135   1.000000
    175        -18.031533   1.000000
    176        -18.026784   1.000000
    177        -18.024345   1.000000
    178        -18.021778   1.000000
    179        -18.002776   1.000000
    180        -17.995716   1.000000
    181        -17.995534   1.000000
    182        -17.989724   1.000000
    183        -17.989649   1.000000
    184        -17.988201   1.000000
    185        -17.986475   1.000000
    186        -17.983052   1.000000
    187        -17.981585   1.000000
    188        -17.981137   1.000000
    189        -17.979428   1.000000
    190        -17.977490   1.000000
    191        -17.939601   1.000000
    192        -17.939378   1.000000
    193        -17.933594   1.000000
    194        -17.933452   1.000000
    195        -17.929627   1.000000
    196        -17.929248   1.000000
    197        -17.896461   1.000000
    198        -17.888065   1.000000
    199        -17.881584   1.000000
    200        -17.873783   1.000000
    201        -17.872889   1.000000
    202        -17.872467   1.000000
    203        -17.860186   1.000000
    204        -17.853102   1.000000
    205        -17.847339   1.000000
    206        -17.845001   1.000000
    207        -17.843254   1.000000
    208        -17.837856   1.000000
    209        -17.836924   1.000000
    210        -17.835183   1.000000
    211        -17.835047   1.000000
    212        -17.834498   1.000000
    213        -17.830950   1.000000
    214        -17.829917   1.000000
    215        -17.817834   1.000000
    216        -17.814358   1.000000
    217        -17.811318   1.000000
    218        -17.807124   1.000000
    219        -17.803975   1.000000
    220        -17.802085   1.000000
    221        -17.801702   1.000000
    222        -17.797809   1.000000
    223        -17.797430   1.000000
    224        -17.797055   1.000000
    225        -17.794515   1.000000
    226        -17.793242   1.000000
    227        -17.792491   1.000000
    228        -17.792207   1.000000
    229        -17.791694   1.000000
    230        -17.790522   1.000000
    231        -17.789660   1.000000
    232        -17.789175   1.000000
    233        -17.766701   1.000000
    234        -17.760818   1.000000
    235        -17.758026   1.000000
    236        -17.755432   1.000000
    237        -17.748089   1.000000
    238        -17.746232   1.000000
    239        -17.745720   1.000000
    240        -17.743757   1.000000
    241        -17.742249   1.000000
    242        -17.741645   1.000000
    243        -17.740170   1.000000
    244        -17.734250   1.000000
    245        -17.731536   1.000000
    246        -17.728312   1.000000
    247        -17.725130   1.000000
    248        -17.724525   1.000000
    249        -17.721801   1.000000
    250        -17.719771   1.000000
    251        -17.718909   1.000000
    252        -17.716636   1.000000
    253        -17.716103   1.000000
    254        -17.715332   1.000000
    255        -17.715012   1.000000
    256        -17.713576   1.000000
    257        -17.713242   1.000000
    258        -17.712969   1.000000
    259        -17.712452   1.000000
    260        -17.712282   1.000000
    261        -17.709777   1.000000
    262        -17.709468   1.000000
    263        -17.708881   1.000000
    264        -17.708020   1.000000
    265        -17.707471   1.000000
    266        -17.706116   1.000000
    267        -17.705987   1.000000
    268        -17.700646   1.000000
    269        -17.687837   1.000000
    270        -17.683569   1.000000
    271        -17.682639   1.000000
    272        -17.680337   1.000000
    273        -17.678784   1.000000
    274        -17.676054   1.000000
    275        -17.674818   1.000000
    276        -17.673162   1.000000
    277        -17.670308   1.000000
    278        -17.669713   1.000000
    279        -17.669374   1.000000
    280        -17.669355   1.000000
    281        -17.667155   1.000000
    282        -17.666939   1.000000
    283        -17.665740   1.000000
    284        -17.664963   1.000000
    285        -17.664360   1.000000
    286        -17.655551   1.000000
    287        -17.653021   1.000000
    288        -17.651125   1.000000
    289        -17.650903   1.000000
    290        -17.650221   1.000000
    291        -17.636019   1.000000
    292        -17.633460   1.000000
    293        -17.628468   1.000000
    294        -17.627664   1.000000
    295        -17.619238   1.000000
    296        -17.618751   1.000000
    297        -17.617581   1.000000
    298        -17.614365   1.000000
    299        -17.611946   1.000000
    300        -17.610224   1.000000
    301        -17.608272   1.000000
    302        -17.607628   1.000000
    303        -17.606108   1.000000
    304        -17.606002   1.000000
    305        -17.605258   1.000000
    306        -17.604789   1.000000
    307        -17.603747   1.000000
    308        -17.602863   1.000000
    309        -17.602535   1.000000
    310        -17.601515   1.000000
    311        -17.600793   1.000000
    312        -17.600635   1.000000
    313        -17.599608   1.000000
    314        -17.599180   1.000000
    315        -17.598762   1.000000
    316        -17.597638   1.000000
    317        -17.595875   1.000000
    318        -17.594548   1.000000
    319        -17.593358   1.000000
    320        -17.593258   1.000000
    321        -17.587981   1.000000
    322        -17.586878   1.000000
    323        -17.584011   1.000000
    324        -17.583028   1.000000
    325        -17.581397   1.000000
    326        -17.577310   1.000000
    327        -17.576865   1.000000
    328        -17.576376   1.000000
    329        -17.574745   1.000000
    330        -17.573291   1.000000
    331        -17.573013   1.000000
    332        -17.571271   1.000000
    333        -17.570714   1.000000
    334        -17.570395   1.000000
    335        -17.569326   1.000000
    336        -17.569062   1.000000
    337        -17.568166   1.000000
    338        -17.566231   1.000000
    339        -17.565120   1.000000
    340        -17.563221   1.000000
    341        -17.557776   1.000000
    342        -17.555350   1.000000
    343        -17.553880   1.000000
    344        -17.550663   1.000000
    345        -17.550040   1.000000
    346        -17.549857   1.000000
    347        -17.549535   1.000000
    348        -17.549030   1.000000
    349        -17.548841   1.000000
    350        -17.548054   1.000000
    351        -17.547631   1.000000
    352        -17.546662   1.000000
    353        -17.546073   1.000000
    354        -17.543375   1.000000
    355        -17.542275   1.000000
    356        -17.542150   1.000000
    357        -17.531911   1.000000
    358        -17.528265   1.000000
    359        -17.526668   1.000000
    360        -17.525510   1.000000
    361        -17.525456   1.000000
    362        -17.524195   1.000000
    363        -17.522861   1.000000
    364        -17.520790   1.000000
    365        -17.516806   1.000000
    366        -17.516152   1.000000
    367        -17.509976   1.000000
    368        -17.506769   1.000000
    369        -17.505739   1.000000
    370        -17.504830   1.000000
    371        -17.503135   1.000000
    372        -17.495756   1.000000
    373        -17.491348   1.000000
    374        -17.487848   1.000000
    375        -17.479525   1.000000
    376        -17.478017   1.000000
    377        -17.474631   1.000000
    378        -17.472331   1.000000
    379        -17.471272   1.000000
    380        -17.465563   1.000000
    381        -17.451825   1.000000
    382        -17.445914   1.000000
    383        -17.434254   1.000000
    384        -17.429347   1.000000
    385          2.450882   1.000000
    386          3.722918   1.000000
    387          3.826055   1.000000
    388          4.495988   1.000000
    389          4.508940   1.000000
    390          4.531849   1.000000
    391          4.533845   1.000000
    392          4.534548   1.000000
    393          4.715199   1.000000
    394          5.178973   1.000000
    395          5.180737   1.000000
    396          5.182154   1.000000
    397          5.269634   1.000000
    398          5.713723   1.000000
    399          5.715346   1.000000
    400          5.718129   1.000000
    401          5.759755   1.000000
    402          5.894966   1.000000
    403          5.900622   1.000000
    404          5.901600   1.000000
    405          5.909592   1.000000
    406          5.946770   1.000000
    407          5.958036   1.000000
    408          5.994759   1.000000
    409          5.995193   1.000000
    410          5.998945   1.000000
    411          5.999226   1.000000
    412          6.000472   1.000000
    413          6.001623   1.000000
    414          6.004058   1.000000
    415          6.029313   1.000000
    416          6.052749   1.000000
    417          6.053508   1.000000
    418          6.055507   1.000000
    419          6.140106   1.000000
    420          6.182325   1.000000
    421          6.188058   1.000000
    422          6.191175   1.000000
    423          6.191781   1.000000
    424          6.192510   1.000000
    425          6.192828   1.000000
    426          6.199153   1.000000
    427          6.253690   1.000000
    428          6.304436   1.000000
    429          6.384633   1.000000
    430          6.564249   1.000000
    431          6.568153   1.000000
    432          6.571534   1.000000
    433          6.574528   1.000000
    434          6.581678   1.000000
    435          6.584261   1.000000
    436          6.584823   1.000000
    437          6.622268   1.000000
    438          6.667372   1.000000
    439          6.667582   1.000000
    440          6.672709   1.000000
    441          6.699516   1.000000
    442          6.706976   1.000000
    443          6.734884   1.000000
    444          6.762461   1.000000
    445          6.763123   1.000000
    446          6.767494   1.000000
    447          6.767749   1.000000
    448          6.770437   1.000000
    449          6.771845   1.000000
    450          6.773182   1.000000
    451          6.793126   1.000000
    452          6.827942   1.000000
    453          6.831892   1.000000
    454          6.833164   1.000000
    455          6.848099   1.000000
    456          6.860388   1.000000
    457          6.863042   1.000000
    458          6.864367   1.000000
    459          6.869325   1.000000
    460          6.871811   1.000000
    461          6.876545   1.000000
    462          6.879497   1.000000
    463          6.881499   1.000000
    464          6.882458   1.000000
    465          6.883476   1.000000
    466          6.887761   1.000000
    467          6.890540   1.000000
    468          6.891047   1.000000
    469          6.901045   1.000000
    470          6.907593   1.000000
    471          6.908022   1.000000
    472          6.916590   1.000000
    473          6.920313   1.000000
    474          6.923912   1.000000
    475          7.076299   1.000000
    476          7.134534   1.000000
    477          7.141130   1.000000
    478          7.196270   1.000000
    479          7.203132   1.000000
    480          7.203505   1.000000
    481          7.263647   1.000000
    482          7.328559   1.000000
    483          7.369989   1.000000
    484          7.420932   1.000000
    485          7.426045   1.000000
    486          7.427543   1.000000
    487          7.429868   1.000000
    488          7.432077   1.000000
    489          7.454872   1.000000
    490          7.464615   1.000000
    491          7.475390   1.000000
    492          7.476603   1.000000
    493          7.478392   1.000000
    494          7.602314   1.000000
    495          7.614239   1.000000
    496          7.615822   1.000000
    497          7.631302   1.000000
    498          7.664076   1.000000
    499          7.670305   1.000000
    500          7.675799   1.000000
    501          7.676483   1.000000
    502          7.680798   1.000000
    503          7.681296   1.000000
    504          7.686289   1.000000
    505          7.694895   1.000000
    506          7.706304   1.000000
    507          7.706525   1.000000
    508          7.707149   1.000000
    509          7.709570   1.000000
    510          7.710808   1.000000
    511          7.715305   1.000000
    512          7.717949   1.000000
    513          7.793069   1.000000
    514          7.799992   1.000000
    515          7.804305   1.000000
    516          7.810508   1.000000
    517          7.868032   1.000000
    518          7.881836   1.000000
    519          7.885174   1.000000
    520          7.887407   1.000000
    521          7.931238   1.000000
    522          7.940111   1.000000
    523          7.945378   1.000000
    524          7.946586   1.000000
    525          7.991011   1.000000
    526          8.008822   1.000000
    527          8.041887   1.000000
    528          8.077011   1.000000
    529          8.081658   1.000000
    530          8.086156   1.000000
    531          8.146844   1.000000
    532          8.246771   1.000003
    533          8.248219   1.000003
    534          8.250967   1.000004
    535          8.266823   1.000006
    536          8.288053   1.000012
    537          8.289739   1.000012
    538          8.290836   1.000013
    539          8.294062   1.000014
    540          8.296951   1.000016
    541          8.299371   1.000017
    542          8.302298   1.000018
    543          8.345919   1.000067
    544          8.365447   1.000117
    545          8.383438   1.000190
    546          8.390966   1.000231
    547          8.393325   1.000246
    548          8.394775   1.000255
    549          8.397888   1.000277
    550          8.399189   1.000286
    551          8.404776   1.000330
    552          8.405575   1.000337
    553          8.408238   1.000360
    554          8.409166   1.000368
    555          8.410027   1.000376
    556          8.413165   1.000407
    557          8.413657   1.000412
    558          8.416803   1.000445
    559          8.447530   1.000925
    560          8.459378   1.001209
    561          8.463025   1.001311
    562          8.472203   1.001600
    563          8.490737   1.002358
    564          8.512603   1.003629
    565          8.619030   1.018895
    566          8.634417   1.022368
    567          8.638096   1.023217
    568          8.645719   1.024981
    569          8.833359   0.928964
    570          8.873580   0.822619
    571          8.879646   0.803195
    572          8.882757   0.792913
    573          9.035184   0.196979
    574          9.040854   0.178789
    575          9.057026   0.131046
    576          9.058251   0.127686
    577          9.059140   0.125274
    578          9.060876   0.120616
    579          9.067599   0.103292
    580          9.069790   0.097892
    581          9.075133   0.085233
    582          9.083830   0.066168
    583          9.108286   0.022608
    584          9.120310   0.006374
    585          9.125337   0.000531
    586          9.129221  -0.003619
    587          9.132934  -0.007297
    588          9.134088  -0.008385
    589          9.138110  -0.011972
    590          9.138653  -0.012432
    591          9.141505  -0.014760
    592          9.148082  -0.019564
    593          9.149013  -0.020183
    594          9.149204  -0.020308
    595          9.152273  -0.022234
    596          9.152992  -0.022662
    597          9.155445  -0.024060
    598          9.156655  -0.024714
    599          9.157825  -0.025325
    600          9.161173  -0.026957
    601          9.162724  -0.027655
    602          9.164192  -0.028285
    603          9.164741  -0.028512
    604          9.171936  -0.031105
    605          9.281658  -0.022094
    606          9.291076  -0.019954
    607          9.298029  -0.018420
    608          9.303462  -0.017255
    609          9.305488  -0.016830
    610          9.312824  -0.015335
    611          9.315307  -0.014845
    612          9.319605  -0.014019
    613          9.319635  -0.014014
    614          9.326415  -0.012767
    615          9.374319  -0.006029
    616          9.380167  -0.005444
    617          9.409282  -0.003171
    618          9.414107  -0.002884
    619          9.422967  -0.002415
    620          9.430440  -0.002072
    621          9.557746  -0.000093
    622          9.572895  -0.000060
    623          9.575304  -0.000056
    624          9.583303  -0.000045
    625          9.591989  -0.000034
    626          9.594672  -0.000032
    627          9.600548  -0.000027
    628          9.610609  -0.000020
    629          9.664184  -0.000003
    630          9.667558  -0.000003
    631          9.668977  -0.000003
    632          9.691800  -0.000001
    633          9.697251  -0.000001
    634          9.701108  -0.000001
    635          9.711157  -0.000001
    636          9.713449  -0.000001
    637          9.714135  -0.000001
    638          9.718695  -0.000001
    639          9.719524  -0.000000
    640          9.719947  -0.000000
    641          9.723455  -0.000000
    642          9.725599  -0.000000
    643          9.728881  -0.000000
    644          9.748660  -0.000000
    645          9.763271  -0.000000
    646          9.768512  -0.000000
    647          9.775685  -0.000000
    648          9.779894  -0.000000
    649          9.827671  -0.000000
    650          9.848459  -0.000000
    651          9.905820  -0.000000
    652          9.906345  -0.000000
    653          9.908491  -0.000000
    654          9.912398  -0.000000
    655          9.918989  -0.000000
    656          9.924585  -0.000000
    657          9.950160  -0.000000
    658          9.956335  -0.000000
    659          9.962370  -0.000000
    660          9.967631  -0.000000
    661          9.968228  -0.000000
    662          9.969560  -0.000000
    663          9.975044  -0.000000
    664          9.977392  -0.000000
    665          9.979302  -0.000000
    666         10.012221  -0.000000
    667         10.015528  -0.000000
    668         10.021148  -0.000000
    669         10.032371  -0.000000
    670         10.037350  -0.000000
    671         10.106710  -0.000000
    672         10.129124  -0.000000
    673         10.196110  -0.000000
    674         10.202201  -0.000000
    675         10.204413  -0.000000
    676         10.209473  -0.000000
    677         10.211407  -0.000000
    678         10.218415  -0.000000
    679         10.225438  -0.000000
    680         10.225956  -0.000000
    681         10.246341  -0.000000
    682         10.250439  -0.000000
    683         10.252559  -0.000000
    684         10.268088  -0.000000
    685         10.270096  -0.000000
    686         10.280416  -0.000000
    687         10.281408  -0.000000
    688         10.282635  -0.000000
    689         10.283586  -0.000000
    690         10.295621  -0.000000
    691         10.298658  -0.000000
 
  0.5000000E+00  0.5000000E+00  0.0000000E+00  0.2083333E-01
      1        -39.908212   1.000000
      2        -39.885208   1.000000
      3        -39.878202   1.000000
      4        -39.865929   1.000000
      5        -39.860957   1.000000
      6        -39.854086   1.000000
      7        -39.853694   1.000000
      8        -39.850392   1.000000
      9        -39.841031   1.000000
     10        -39.837924   1.000000
     11        -39.831587   1.000000
     12        -39.828072   1.000000
     13        -39.825192   1.000000
     14        -39.823055   1.000000
     15        -39.815938   1.000000
     16        -39.809800   1.000000
     17        -39.807410   1.000000
     18        -39.806826   1.000000
     19        -39.802759   1.000000
     20        -39.798949   1.000000
     21        -39.795610   1.000000
     22        -39.791762   1.000000
     23        -39.788041   1.000000
     24        -39.787930   1.000000
     25        -39.787463   1.000000
     26        -39.785940   1.000000
     27        -39.785540   1.000000
     28        -39.781439   1.000000
     29        -39.781106   1.000000
     30        -39.780359   1.000000
     31        -39.779578   1.000000
     32        -39.778004   1.000000
     33        -39.774725   1.000000
     34        -39.774456   1.000000
     35        -39.774194   1.000000
     36        -39.772955   1.000000
     37        -39.768800   1.000000
     38        -39.767787   1.000000
     39        -39.767690   1.000000
     40        -39.766334   1.000000
     41        -39.766021   1.000000
     42        -39.763279   1.000000
     43        -39.762292   1.000000
     44        -39.760910   1.000000
     45        -39.760607   1.000000
     46        -39.758898   1.000000
     47        -39.757791   1.000000
     48        -39.755668   1.000000
     49        -39.755590   1.000000
     50        -39.753609   1.000000
     51        -39.752915   1.000000
     52        -39.750556   1.000000
     53        -39.748996   1.000000
     54        -39.748103   1.000000
     55        -39.746028   1.000000
     56        -39.745308   1.000000
     57        -39.745192   1.000000
     58        -39.744147   1.000000
     59        -39.743607   1.000000
     60        -39.743279   1.000000
     61        -39.742701   1.000000
     62        -39.742286   1.000000
     63        -39.740747   1.000000
     64        -39.739722   1.000000
     65        -39.738736   1.000000
     66        -39.738558   1.000000
     67        -39.737321   1.000000
     68        -39.736963   1.000000
     69        -39.736253   1.000000
     70        -39.734760   1.000000
     71        -39.734456   1.000000
     72        -39.733611   1.000000
     73        -39.732176   1.000000
     74        -39.731869   1.000000
     75        -39.731131   1.000000
     76        -39.731012   1.000000
     77        -39.730486   1.000000
     78        -39.730280   1.000000
     79        -39.729346   1.000000
     80        -39.728476   1.000000
     81        -39.726971   1.000000
     82        -39.726185   1.000000
     83        -39.725250   1.000000
     84        -39.725003   1.000000
     85        -39.723689   1.000000
     86        -39.721646   1.000000
     87        -39.720988   1.000000
     88        -39.720617   1.000000
     89        -39.718559   1.000000
     90        -39.717801   1.000000
     91        -39.714775   1.000000
     92        -39.713603   1.000000
     93        -39.708838   1.000000
     94        -39.708609   1.000000
     95        -39.706615   1.000000
     96        -39.704536   1.000000
     97        -18.376014   1.000000
     98        -18.367936   1.000000
     99        -18.321099   1.000000
    100        -18.289230   1.000000
    101        -18.289130   1.000000
    102        -18.284604   1.000000
    103        -18.281967   1.000000
    104        -18.281813   1.000000
    105        -18.281343   1.000000
    106        -18.280773   1.000000
    107        -18.280282   1.000000
    108        -18.279147   1.000000
    109        -18.271592   1.000000
    110        -18.266714   1.000000
    111        -18.263167   1.000000
    112        -18.260501   1.000000
    113        -18.229292   1.000000
    114        -18.210728   1.000000
    115        -18.210348   1.000000
    116        -18.207969   1.000000
    117        -18.207237   1.000000
    118        -18.201926   1.000000
    119        -18.200632   1.000000
    120        -18.199520   1.000000
    121        -18.198188   1.000000
    122        -18.197634   1.000000
    123        -18.196481   1.000000
    124        -18.196055   1.000000
    125        -18.195984   1.000000
    126        -18.194436   1.000000
    127        -18.193344   1.000000
    128        -18.193001   1.000000
    129        -18.192389   1.000000
    130        -18.191868   1.000000
    131        -18.191832   1.000000
    132        -18.191402   1.000000
    133        -18.190908   1.000000
    134        -18.189907   1.000000
    135        -18.188890   1.000000
    136        -18.186857   1.000000
    137        -18.174685   1.000000
    138        -18.169073   1.000000
    139        -18.166508   1.000000
    140        -18.165116   1.000000
    141        -18.164018   1.000000
    142        -18.160627   1.000000
    143        -18.158367   1.000000
    144        -18.156709   1.000000
    145        -18.156598   1.000000
    146        -18.155536   1.000000
    147        -18.153358   1.000000
    148        -18.152422   1.000000
    149        -18.151836   1.000000
    150        -18.151044   1.000000
    151        -18.150572   1.000000
    152        -18.148594   1.000000
    153        -18.147814   1.000000
    154        -18.144628   1.000000
    155        -18.142286   1.000000
    156        -18.141620   1.000000
    157        -18.140434   1.000000
    158        -18.140000   1.000000
    159        -18.138600   1.000000
    160        -18.137362   1.000000
    161        -18.089278   1.000000
    162        -18.083165   1.000000
    163        -18.077619   1.000000
    164        -18.073340   1.000000
    165        -18.071880   1.000000
    166        -18.069436   1.000000
    167        -18.069284   1.000000
    168        -18.069075   1.000000
    169        -18.067549   1.000000
    170        -18.067223   1.000000
    171        -18.045162   1.000000
    172        -18.039602   1.000000
    173        -18.033329   1.000000
    174        -18.033135   1.000000
    175        -18.031533   1.000000
    176        -18.026784   1.000000
    177        -18.024345   1.000000
    178        -18.021778   1.000000
    179        -18.002776   1.000000
    180        -17.995716   1.000000
    181        -17.995534   1.000000
    182        -17.989724   1.000000
    183        -17.989649   1.000000
    184        -17.988201   1.000000
    185        -17.986475   1.000000
    186        -17.983052   1.000000
    187        -17.981585   1.000000
    188        -17.981137   1.000000
    189        -17.979428   1.000000
    190        -17.977490   1.000000
    191        -17.939601   1.000000
    192        -17.939378   1.000000
    193        -17.933594   1.000000
    194        -17.933452   1.000000
    195        -17.929627   1.000000
    196        -17.929247   1.000000
    197        -17.896461   1.000000
    198        -17.888065   1.000000
    199        -17.881584   1.000000
    200        -17.873783   1.000000
    201        -17.872889   1.000000
    202        -17.872467   1.000000
    203        -17.860186   1.000000
    204        -17.853102   1.000000
    205        -17.847339   1.000000
    206        -17.845001   1.000000
    207        -17.843254   1.000000
    208        -17.837856   1.000000
    209        -17.836924   1.000000
    210        -17.835183   1.000000
    211        -17.835047   1.000000
    212        -17.834498   1.000000
    213        -17.830950   1.000000
    214        -17.829917   1.000000
    215        -17.817834   1.000000
    216        -17.814358   1.000000
    217        -17.811318   1.000000
    218        -17.807124   1.000000
    219        -17.803975   1.000000
    220        -17.802085   1.000000
    221        -17.801702   1.000000
    222        -17.797809   1.000000
    223        -17.797430   1.000000
    224        -17.797055   1.000000
    225        -17.794515   1.000000
    226        -17.793242   1.000000
    227        -17.792491   1.000000
    228        -17.792207   1.000000
    229        -17.791694   1.000000
    230        -17.790522   1.000000
    231        -17.789660   1.000000
    232        -17.789175   1.000000
    233        -17.766701   1.000000
    234        -17.760818   1.000000
    235        -17.758026   1.000000
    236        -17.755432   1.000000
    237        -17.748090   1.000000
    238        -17.746232   1.000000
    239        -17.745720   1.000000
    240        -17.743757   1.000000
    241        -17.742249   1.000000
    242        -17.741645   1.000000
    243        -17.740170   1.000000
    244        -17.734250   1.000000
    245        -17.731536   1.000000
    246        -17.728312   1.000000
    247        -17.725130   1.000000
    248        -17.724525   1.000000
    249        -17.721801   1.000000
    250        -17.719771   1.000000
    251        -17.718909   1.000000
    252        -17.716636   1.000000
    253        -17.716103   1.000000
    254        -17.715332   1.000000
    255        -17.715012   1.000000
    256        -17.713576   1.000000
    257        -17.713242   1.000000
    258        -17.712969   1.000000
    259        -17.712452   1.000000
    260        -17.712282   1.000000
    261        -17.709777   1.000000
    262        -17.709468   1.000000
    263        -17.708881   1.000000
    264        -17.708020   1.000000
    265        -17.707471   1.000000
    266        -17.706116   1.000000
    267        -17.705987   1.000000
    268        -17.700646   1.000000
    269        -17.687837   1.000000
    270        -17.683569   1.000000
    271        -17.682639   1.000000
    272        -17.680337   1.000000
    273        -17.678784   1.000000
    274        -17.676054   1.000000
    275        -17.674818   1.000000
    276        -17.673162   1.000000
    277        -17.670308   1.000000
    278        -17.669713   1.000000
    279        -17.669374   1.000000
    280        -17.669354   1.000000
    281        -17.667155   1.000000
    282        -17.666939   1.000000
    283        -17.665740   1.000000
    284        -17.664963   1.000000
    285        -17.664360   1.000000
    286        -17.655551   1.000000
    287        -17.653021   1.000000
    288        -17.651125   1.000000
    289        -17.650903   1.000000
    290        -17.650221   1.000000
    291        -17.636019   1.000000
    292        -17.633460   1.000000
    293        -17.628468   1.000000
    294        -17.627664   1.000000
    295        -17.619239   1.000000
    296        -17.618751   1.000000
    297        -17.617581   1.000000
    298        -17.614365   1.000000
    299        -17.611946   1.000000
    300        -17.610224   1.000000
    301        -17.608272   1.000000
    302        -17.607628   1.000000
    303        -17.606108   1.000000
    304        -17.606002   1.000000
    305        -17.605258   1.000000
    306        -17.604789   1.000000
    307        -17.603747   1.000000
    308        -17.602863   1.000000
    309        -17.602535   1.000000
    310        -17.601515   1.000000
    311        -17.600793   1.000000
    312        -17.600635   1.000000
    313        -17.599608   1.000000
    314        -17.599180   1.000000
    315        -17.598762   1.000000
    316        -17.597638   1.000000
    317        -17.595875   1.000000
    318        -17.594548   1.000000
    319        -17.593358   1.000000
    320        -17.593258   1.000000
    321        -17.587981   1.000000
    322        -17.586878   1.000000
    323        -17.584011   1.000000
    324        -17.583028   1.000000
    325        -17.581397   1.000000
    326        -17.577310   1.000000
    327        -17.576865   1.000000
    328        -17.576376   1.000000
    329        -17.574745   1.000000
    330        -17.573291   1.000000
    331        -17.573013   1.000000
    332        -17.571271   1.000000
    333        -17.570714   1.000000
    334        -17.570395   1.000000
    335        -17.569326   1.000000
    336        -17.569062   1.000000
    337        -17.568166   1.000000
    338        -17.566231   1.000000
    339        -17.565120   1.000000
    340        -17.563221   1.000000
    341        -17.557776   1.000000
    342        -17.555350   1.000000
    343        -17.553880   1.000000
    344        -17.550663   1.000000
    345        -17.550040   1.000000
    346        -17.549857   1.000000
    347        -17.549535   1.000000
    348        -17.549030   1.000000
    349        -17.548841   1.000000
    350        -17.548054   1.000000
    351        -17.547631   1.000000
    352        -17.546662   1.000000
    353        -17.546073   1.000000
    354        -17.543375   1.000000
    355        -17.542275   1.000000
    356        -17.542150   1.000000
    357        -17.531911   1.000000
    358        -17.528265   1.000000
    359        -17.526668   1.000000
    360        -17.525510   1.000000
    361        -17.525456   1.000000
    362        -17.524195   1.000000
    363        -17.522861   1.000000
    364        -17.520790   1.000000
    365        -17.516806   1.000000
    366        -17.516152   1.000000
    367        -17.509976   1.000000
    368        -17.506769   1.000000
    369        -17.505739   1.000000
    370        -17.504830   1.000000
    371        -17.503135   1.000000
    372        -17.495756   1.000000
    373        -17.491348   1.000000
    374        -17.487848   1.000000
    375        -17.479525   1.000000
    376        -17.478017   1.000000
    377        -17.474631   1.000000
    378        -17.472331   1.000000
    379        -17.471272   1.000000
    380        -17.465563   1.000000
    381        -17.451825   1.000000
    382        -17.445914   1.000000
    383        -17.434255   1.000000
    384        -17.429347   1.000000
    385          2.450882   1.000000
    386          3.722918   1.000000
    387          3.826055   1.000000
    388          4.495988   1.000000
    389          4.508940   1.000000
    390          4.531849   1.000000
    391          4.533845   1.000000
    392          4.534548   1.000000
    393          4.715199   1.000000
    394          5.178973   1.000000
    395          5.180737   1.000000
    396          5.182154   1.000000
    397          5.269634   1.000000
    398          5.713723   1.000000
    399          5.715346   1.000000
    400          5.718129   1.000000
    401          5.759755   1.000000
    402          5.894966   1.000000
    403          5.900622   1.000000
    404          5.901600   1.000000
    405          5.909592   1.000000
    406          5.946770   1.000000
    407          5.958036   1.000000
    408          5.994759   1.000000
    409          5.995193   1.000000
    410          5.998945   1.000000
    411          5.999226   1.000000
    412          6.000472   1.000000
    413          6.001624   1.000000
    414          6.004058   1.000000
    415          6.029313   1.000000
    416          6.052749   1.000000
    417          6.053508   1.000000
    418          6.055507   1.000000
    419          6.140106   1.000000
    420          6.182325   1.000000
    421          6.188058   1.000000
    422          6.191175   1.000000
    423          6.191781   1.000000
    424          6.192510   1.000000
    425          6.192828   1.000000
    426          6.199153   1.000000
    427          6.253689   1.000000
    428          6.304436   1.000000
    429          6.384633   1.000000
    430          6.564249   1.000000
    431          6.568153   1.000000
    432          6.571534   1.000000
    433          6.574528   1.000000
    434          6.581678   1.000000
    435          6.584261   1.000000
    436          6.584823   1.000000
    437          6.622268   1.000000
    438          6.667372   1.000000
    439          6.667582   1.000000
    440          6.672709   1.000000
    441          6.699516   1.000000
    442          6.706976   1.000000
    443          6.734883   1.000000
    444          6.762461   1.000000
    445          6.763123   1.000000
    446          6.767494   1.000000
    447          6.767749   1.000000
    448          6.770437   1.000000
    449          6.771846   1.000000
    450          6.773182   1.000000
    451          6.793126   1.000000
    452          6.827942   1.000000
    453          6.831892   1.000000
    454          6.833164   1.000000
    455          6.848099   1.000000
    456          6.860388   1.000000
    457          6.863042   1.000000
    458          6.864367   1.000000
    459          6.869325   1.000000
    460          6.871811   1.000000
    461          6.876545   1.000000
    462          6.879497   1.000000
    463          6.881499   1.000000
    464          6.882458   1.000000
    465          6.883476   1.000000
    466          6.887761   1.000000
    467          6.890540   1.000000
    468          6.891047   1.000000
    469          6.901045   1.000000
    470          6.907593   1.000000
    471          6.908022   1.000000
    472          6.916590   1.000000
    473          6.920313   1.000000
    474          6.923912   1.000000
    475          7.076299   1.000000
    476          7.134534   1.000000
    477          7.141130   1.000000
    478          7.196270   1.000000
    479          7.203132   1.000000
    480          7.203505   1.000000
    481          7.263647   1.000000
    482          7.328559   1.000000
    483          7.369989   1.000000
    484          7.420932   1.000000
    485          7.426045   1.000000
    486          7.427543   1.000000
    487          7.429868   1.000000
    488          7.432077   1.000000
    489          7.454872   1.000000
    490          7.464615   1.000000
    491          7.475390   1.000000
    492          7.476603   1.000000
    493          7.478392   1.000000
    494          7.602314   1.000000
    495          7.614239   1.000000
    496          7.615822   1.000000
    497          7.631302   1.000000
    498          7.664076   1.000000
    499          7.670305   1.000000
    500          7.675799   1.000000
    501          7.676483   1.000000
    502          7.680798   1.000000
    503          7.681296   1.000000
    504          7.686289   1.000000
    505          7.694895   1.000000
    506          7.706304   1.000000
    507          7.706525   1.000000
    508          7.707149   1.000000
    509          7.709570   1.000000
    510          7.710808   1.000000
    511          7.715305   1.000000
    512          7.717949   1.000000
    513          7.793069   1.000000
    514          7.799992   1.000000
    515          7.804305   1.000000
    516          7.810508   1.000000
    517          7.868032   1.000000
    518          7.881836   1.000000
    519          7.885174   1.000000
    520          7.887407   1.000000
    521          7.931238   1.000000
    522          7.940111   1.000000
    523          7.945378   1.000000
    524          7.946586   1.000000
    525          7.991011   1.000000
    526          8.008822   1.000000
    527          8.041887   1.000000
    528          8.077011   1.000000
    529          8.081658   1.000000
    530          8.086156   1.000000
    531          8.146844   1.000000
    532          8.246771   1.000003
    533          8.248219   1.000003
    534          8.250967   1.000004
    535          8.266823   1.000006
    536          8.288053   1.000012
    537          8.289739   1.000012
    538          8.290836   1.000013
    539          8.294062   1.000014
    540          8.296951   1.000016
    541          8.299371   1.000017
    542          8.302298   1.000018
    543          8.345919   1.000067
    544          8.365447   1.000117
    545          8.383438   1.000190
    546          8.390966   1.000231
    547          8.393325   1.000246
    548          8.394775   1.000255
    549          8.397888   1.000277
    550          8.399189   1.000286
    551          8.404776   1.000330
    552          8.405575   1.000337
    553          8.408238   1.000360
    554          8.409166   1.000368
    555          8.410027   1.000376
    556          8.413165   1.000407
    557          8.413657   1.000412
    558          8.416803   1.000445
    559          8.447530   1.000925
    560          8.459378   1.001209
    561          8.463025   1.001311
    562          8.472202   1.001600
    563          8.490737   1.002358
    564          8.512603   1.003629
    565          8.619030   1.018895
    566          8.634417   1.022368
    567          8.638096   1.023217
    568          8.645719   1.024981
    569          8.833359   0.928964
    570          8.873580   0.822619
    571          8.879646   0.803195
    572          8.882757   0.792914
    573          9.035184   0.196979
    574          9.040854   0.178789
    575          9.057026   0.131046
    576          9.058251   0.127686
    577          9.059140   0.125274
    578          9.060876   0.120616
    579          9.067599   0.103292
    580          9.069790   0.097892
    581          9.075133   0.085233
    582          9.083830   0.066168
    583          9.108286   0.022608
    584          9.120310   0.006374
    585          9.125337   0.000531
    586          9.129221  -0.003619
    587          9.132934  -0.007297
    588          9.134088  -0.008385
    589          9.138110  -0.011972
    590          9.138653  -0.012432
    591          9.141505  -0.014760
    592          9.148082  -0.019564
    593          9.149013  -0.020183
    594          9.149204  -0.020308
    595          9.152273  -0.022234
    596          9.152992  -0.022662
    597          9.155445  -0.024060
    598          9.156655  -0.024714
    599          9.157825  -0.025325
    600          9.161173  -0.026957
    601          9.162724  -0.027655
    602          9.164192  -0.028285
    603          9.164741  -0.028512
    604          9.171936  -0.031105
    605          9.281658  -0.022094
    606          9.291076  -0.019954
    607          9.298029  -0.018420
    608          9.303462  -0.017255
    609          9.305488  -0.016830
    610          9.312824  -0.015335
    611          9.315307  -0.014845
    612          9.319605  -0.014019
    613          9.319634  -0.014014
    614          9.326415  -0.012767
    615          9.374319  -0.006029
    616          9.380167  -0.005444
    617          9.409282  -0.003171
    618          9.414107  -0.002884
    619          9.422967  -0.002415
    620          9.430440  -0.002072
    621          9.557746  -0.000093
    622          9.572895  -0.000060
    623          9.575304  -0.000056
    624          9.583303  -0.000045
    625          9.591989  -0.000034
    626          9.594672  -0.000032
    627          9.600547  -0.000027
    628          9.610609  -0.000020
    629          9.664184  -0.000003
    630          9.667558  -0.000003
    631          9.668977  -0.000003
    632          9.691800  -0.000001
    633          9.697251  -0.000001
    634          9.701108  -0.000001
    635          9.711157  -0.000001
    636          9.713449  -0.000001
    637          9.714135  -0.000001
    638          9.718695  -0.000001
    639          9.719524  -0.000000
    640          9.719947  -0.000000
    641          9.723455  -0.000000
    642          9.725599  -0.000000
    643          9.728881  -0.000000
    644          9.748660  -0.000000
    645          9.763271  -0.000000
    646          9.768512  -0.000000
    647          9.775685  -0.000000
    648          9.779894  -0.000000
    649          9.827671  -0.000000
    650          9.848459  -0.000000
    651          9.905820  -0.000000
    652          9.906345  -0.000000
    653          9.908491  -0.000000
    654          9.912398  -0.000000
    655          9.918990  -0.000000
    656          9.924585  -0.000000
    657          9.950161  -0.000000
    658          9.956335  -0.000000
    659          9.962370  -0.000000
    660          9.967631  -0.000000
    661          9.968228  -0.000000
    662          9.969560  -0.000000
    663          9.975044  -0.000000
    664          9.977392  -0.000000
    665          9.979302  -0.000000
    666         10.012221  -0.000000
    667         10.015528  -0.000000
    668         10.021148  -0.000000
    669         10.032371  -0.000000
    670         10.037350  -0.000000
    671         10.106710  -0.000000
    672         10.129124  -0.000000
    673         10.196110  -0.000000
    674         10.202202  -0.000000
    675         10.204413  -0.000000
    676         10.209473  -0.000000
    677         10.211407  -0.000000
    678         10.218415  -0.000000
    679         10.225438  -0.000000
    680         10.225956  -0.000000
    681         10.246341  -0.000000
    682         10.250439  -0.000000
    683         10.252559  -0.000000
    684         10.268087  -0.000000
    685         10.270096  -0.000000
    686         10.280416  -0.000000
    687         10.281408  -0.000000
    688         10.282965  -0.000000
    689         10.283619  -0.000000
    690         10.295540  -0.000000
    691         10.297611  -0.000000
 
  0.2500000E+00  0.2500000E+00  0.0000000E+00  0.4166667E-01
      1        -39.908341   1.000000
      2        -39.884163   1.000000
      3        -39.875241   1.000000
      4        -39.873633   1.000000
      5        -39.861558   1.000000
      6        -39.850684   1.000000
      7        -39.849571   1.000000
      8        -39.848633   1.000000
      9        -39.841364   1.000000
     10        -39.840364   1.000000
     11        -39.836227   1.000000
     12        -39.829181   1.000000
     13        -39.822338   1.000000
     14        -39.820464   1.000000
     15        -39.815765   1.000000
     16        -39.811616   1.000000
     17        -39.807704   1.000000
     18        -39.806900   1.000000
     19        -39.802259   1.000000
     20        -39.798779   1.000000
     21        -39.797824   1.000000
     22        -39.795197   1.000000
     23        -39.788875   1.000000
     24        -39.786603   1.000000
     25        -39.785487   1.000000
     26        -39.782946   1.000000
     27        -39.782435   1.000000
     28        -39.782095   1.000000
     29        -39.780873   1.000000
     30        -39.779948   1.000000
     31        -39.778676   1.000000
     32        -39.777936   1.000000
     33        -39.776708   1.000000
     34        -39.774317   1.000000
     35        -39.773113   1.000000
     36        -39.772708   1.000000
     37        -39.770100   1.000000
     38        -39.769103   1.000000
     39        -39.768361   1.000000
     40        -39.767073   1.000000
     41        -39.766794   1.000000
     42        -39.766371   1.000000
     43        -39.762753   1.000000
     44        -39.759358   1.000000
     45        -39.758844   1.000000
     46        -39.757635   1.000000
     47        -39.756139   1.000000
     48        -39.755881   1.000000
     49        -39.754070   1.000000
     50        -39.753635   1.000000
     51        -39.752571   1.000000
     52        -39.750853   1.000000
     53        -39.750306   1.000000
     54        -39.749766   1.000000
     55        -39.747642   1.000000
     56        -39.746847   1.000000
     57        -39.746119   1.000000
     58        -39.744408   1.000000
     59        -39.743287   1.000000
     60        -39.742828   1.000000
     61        -39.742005   1.000000
     62        -39.741397   1.000000
     63        -39.739809   1.000000
     64        -39.739537   1.000000
     65        -39.738721   1.000000
     66        -39.737913   1.000000
     67        -39.736830   1.000000
     68        -39.736053   1.000000
     69        -39.735215   1.000000
     70        -39.735018   1.000000
     71        -39.734409   1.000000
     72        -39.733882   1.000000
     73        -39.733757   1.000000
     74        -39.732519   1.000000
     75        -39.731915   1.000000
     76        -39.730760   1.000000
     77        -39.730063   1.000000
     78        -39.729914   1.000000
     79        -39.729477   1.000000
     80        -39.727499   1.000000
     81        -39.726890   1.000000
     82        -39.726059   1.000000
     83        -39.725852   1.000000
     84        -39.724621   1.000000
     85        -39.723734   1.000000
     86        -39.722181   1.000000
     87        -39.721020   1.000000
     88        -39.720642   1.000000
     89        -39.719089   1.000000
     90        -39.717442   1.000000
     91        -39.714390   1.000000
     92        -39.713900   1.000000
     93        -39.708822   1.000000
     94        -39.708548   1.000000
     95        -39.706619   1.000000
     96        -39.704546   1.000000
     97        -18.383682   1.000000
     98        -18.343233   1.000000
     99        -18.334789   1.000000
    100        -18.320687   1.000000
    101        -18.299227   1.000000
    102        -18.293290   1.000000
    103        -18.286074   1.000000
    104        -18.284646   1.000000
    105        -18.284603   1.000000
    106        -18.267998   1.000000
    107        -18.256907   1.000000
    108        -18.255306   1.000000
    109        -18.253897   1.000000
    110        -18.249219   1.000000
    111        -18.244310   1.000000
    112        -18.241125   1.000000
    113        -18.238317   1.000000
    114        -18.234747   1.000000
    115        -18.231147   1.000000
    116        -18.227367   1.000000
    117        -18.225952   1.000000
    118        -18.220295   1.000000
    119        -18.217364   1.000000
    120        -18.216680   1.000000
    121        -18.214702   1.000000
    122        -18.210517   1.000000
    123        -18.199558   1.000000
    124        -18.189525   1.000000
    125        -18.188785   1.000000
    126        -18.187704   1.000000
    127        -18.186081   1.000000
    128        -18.183912   1.000000
    129        -18.183341   1.000000
    130        -18.181197   1.000000
    131        -18.181009   1.000000
    132        -18.180757   1.000000
    133        -18.179460   1.000000
    134        -18.177869   1.000000
    135        -18.176594   1.000000
    136        -18.175431   1.000000
    137        -18.173903   1.000000
    138        -18.171000   1.000000
    139        -18.166760   1.000000
    140        -18.166149   1.000000
    141        -18.165417   1.000000
    142        -18.164445   1.000000
    143        -18.163552   1.000000
    144        -18.161436   1.000000
    145        -18.160669   1.000000
    146        -18.158483   1.000000
    147        -18.158011   1.000000
    148        -18.155532   1.000000
    149        -18.154873   1.000000
    150        -18.152329   1.000000
    151        -18.149902   1.000000
    152        -18.148208   1.000000
    153        -18.146072   1.000000
    154        -18.144898   1.000000
    155        -18.143764   1.000000
    156        -18.129109   1.000000
    157        -18.124407   1.000000
    158        -18.122798   1.000000
    159        -18.119527   1.000000
    160        -18.115927   1.000000
    161        -18.112292   1.000000
    162        -18.108222   1.000000
    163        -18.105562   1.000000
    164        -18.103987   1.000000
    165        -18.092276   1.000000
    166        -18.089646   1.000000
    167        -18.065747   1.000000
    168        -18.059259   1.000000
    169        -18.058700   1.000000
    170        -18.054380   1.000000
    171        -18.052533   1.000000
    172        -18.044231   1.000000
    173        -18.042226   1.000000
    174        -18.029684   1.000000
    175        -18.026956   1.000000
    176        -18.023020   1.000000
    177        -18.020006   1.000000
    178        -18.019434   1.000000
    179        -18.017037   1.000000
    180        -17.999085   1.000000
    181        -17.994681   1.000000
    182        -17.983147   1.000000
    183        -17.978223   1.000000
    184        -17.973709   1.000000
    185        -17.971879   1.000000
    186        -17.971007   1.000000
    187        -17.966426   1.000000
    188        -17.964680   1.000000
    189        -17.961287   1.000000
    190        -17.953085   1.000000
    191        -17.946937   1.000000
    192        -17.942637   1.000000
    193        -17.942086   1.000000
    194        -17.939735   1.000000
    195        -17.916484   1.000000
    196        -17.909109   1.000000
    197        -17.906870   1.000000
    198        -17.904382   1.000000
    199        -17.902945   1.000000
    200        -17.901522   1.000000
    201        -17.881728   1.000000
    202        -17.873786   1.000000
    203        -17.872846   1.000000
    204        -17.870718   1.000000
    205        -17.861962   1.000000
    206        -17.856168   1.000000
    207        -17.852039   1.000000
    208        -17.846280   1.000000
    209        -17.843923   1.000000
    210        -17.833697   1.000000
    211        -17.823885   1.000000
    212        -17.821118   1.000000
    213        -17.816528   1.000000
    214        -17.813562   1.000000
    215        -17.812644   1.000000
    216        -17.812100   1.000000
    217        -17.805041   1.000000
    218        -17.804770   1.000000
    219        -17.803452   1.000000
    220        -17.799340   1.000000
    221        -17.798024   1.000000
    222        -17.797379   1.000000
    223        -17.795393   1.000000
    224        -17.795301   1.000000
    225        -17.793497   1.000000
    226        -17.789932   1.000000
    227        -17.788689   1.000000
    228        -17.783300   1.000000
    229        -17.782413   1.000000
    230        -17.778223   1.000000
    231        -17.776830   1.000000
    232        -17.774478   1.000000
    233        -17.773391   1.000000
    234        -17.771885   1.000000
    235        -17.770688   1.000000
    236        -17.767518   1.000000
    237        -17.764669   1.000000
    238        -17.762522   1.000000
    239        -17.759616   1.000000
    240        -17.757750   1.000000
    241        -17.756973   1.000000
    242        -17.756133   1.000000
    243        -17.743410   1.000000
    244        -17.741712   1.000000
    245        -17.738500   1.000000
    246        -17.733660   1.000000
    247        -17.730229   1.000000
    248        -17.728458   1.000000
    249        -17.727279   1.000000
    250        -17.726933   1.000000
    251        -17.725705   1.000000
    252        -17.724618   1.000000
    253        -17.719650   1.000000
    254        -17.717859   1.000000
    255        -17.716754   1.000000
    256        -17.712609   1.000000
    257        -17.709335   1.000000
    258        -17.705920   1.000000
    259        -17.703811   1.000000
    260        -17.702006   1.000000
    261        -17.699282   1.000000
    262        -17.697642   1.000000
    263        -17.696114   1.000000
    264        -17.695163   1.000000
    265        -17.692455   1.000000
    266        -17.689935   1.000000
    267        -17.685245   1.000000
    268        -17.684320   1.000000
    269        -17.684260   1.000000
    270        -17.682797   1.000000
    271        -17.676749   1.000000
    272        -17.675890   1.000000
    273        -17.674762   1.000000
    274        -17.674131   1.000000
    275        -17.673360   1.000000
    276        -17.672023   1.000000
    277        -17.669571   1.000000
    278        -17.667472   1.000000
    279        -17.666895   1.000000
    280        -17.663729   1.000000
    281        -17.659574   1.000000
    282        -17.657088   1.000000
    283        -17.655450   1.000000
    284        -17.653976   1.000000
    285        -17.653334   1.000000
    286        -17.649148   1.000000
    287        -17.647789   1.000000
    288        -17.646257   1.000000
    289        -17.645261   1.000000
    290        -17.644518   1.000000
    291        -17.641979   1.000000
    292        -17.640303   1.000000
    293        -17.639937   1.000000
    294        -17.637890   1.000000
    295        -17.637619   1.000000
    296        -17.633045   1.000000
    297        -17.630201   1.000000
    298        -17.629263   1.000000
    299        -17.628700   1.000000
    300        -17.627866   1.000000
    301        -17.626891   1.000000
    302        -17.621925   1.000000
    303        -17.620686   1.000000
    304        -17.614748   1.000000
    305        -17.612165   1.000000
    306        -17.611499   1.000000
    307        -17.608229   1.000000
    308        -17.604995   1.000000
    309        -17.603773   1.000000
    310        -17.602719   1.000000
    311        -17.601141   1.000000
    312        -17.599393   1.000000
    313        -17.590508   1.000000
    314        -17.590024   1.000000
    315        -17.589599   1.000000
    316        -17.588869   1.000000
    317        -17.587298   1.000000
    318        -17.585263   1.000000
    319        -17.585092   1.000000
    320        -17.583267   1.000000
    321        -17.582107   1.000000
    322        -17.581712   1.000000
    323        -17.581286   1.000000
    324        -17.580363   1.000000
    325        -17.579648   1.000000
    326        -17.577708   1.000000
    327        -17.576888   1.000000
    328        -17.575928   1.000000
    329        -17.574129   1.000000
    330        -17.573079   1.000000
    331        -17.571790   1.000000
    332        -17.571655   1.000000
    333        -17.569537   1.000000
    334        -17.567440   1.000000
    335        -17.566740   1.000000
    336        -17.565554   1.000000
    337        -17.564667   1.000000
    338        -17.564284   1.000000
    339        -17.564010   1.000000
    340        -17.563610   1.000000
    341        -17.562318   1.000000
    342        -17.561293   1.000000
    343        -17.560335   1.000000
    344        -17.559052   1.000000
    345        -17.558355   1.000000
    346        -17.556757   1.000000
    347        -17.554539   1.000000
    348        -17.554320   1.000000
    349        -17.552247   1.000000
    350        -17.548910   1.000000
    351        -17.547639   1.000000
    352        -17.546666   1.000000
    353        -17.544863   1.000000
    354        -17.537536   1.000000
    355        -17.537068   1.000000
    356        -17.536232   1.000000
    357        -17.535365   1.000000
    358        -17.533042   1.000000
    359        -17.531471   1.000000
    360        -17.526943   1.000000
    361        -17.525161   1.000000
    362        -17.522423   1.000000
    363        -17.520518   1.000000
    364        -17.517445   1.000000
    365        -17.516104   1.000000
    366        -17.514954   1.000000
    367        -17.513069   1.000000
    368        -17.512332   1.000000
    369        -17.509700   1.000000
    370        -17.494243   1.000000
    371        -17.491609   1.000000
    372        -17.491272   1.000000
    373        -17.489867   1.000000
    374        -17.488947   1.000000
    375        -17.485684   1.000000
    376        -17.482432   1.000000
    377        -17.470562   1.000000
    378        -17.467673   1.000000
    379        -17.466676   1.000000
    380        -17.461457   1.000000
    381        -17.449150   1.000000
    382        -17.447416   1.000000
    383        -17.443333   1.000000
    384        -17.430787   1.000000
    385          2.450810   1.000000
    386          3.670761   1.000000
    387          4.025221   1.000000
    388          4.104747   1.000000
    389          4.442556   1.000000
    390          4.506296   1.000000
    391          4.791307   1.000000
    392          4.793386   1.000000
    393          4.794124   1.000000
    394          4.900078   1.000000
    395          5.089229   1.000000
    396          5.154875   1.000000
    397          5.621480   1.000000
    398          5.623013   1.000000
    399          5.625672   1.000000
    400          5.656066   1.000000
    401          5.712231   1.000000
    402          5.789558   1.000000
    403          5.813272   1.000000
    404          5.914387   1.000000
    405          5.916804   1.000000
    406          5.920769   1.000000
    407          5.931369   1.000000
    408          5.961952   1.000000
    409          5.975172   1.000000
    410          5.985914   1.000000
    411          5.990007   1.000000
    412          5.993361   1.000000
    413          6.019578   1.000000
    414          6.049265   1.000000
    415          6.077583   1.000000
    416          6.173301   1.000000
    417          6.177501   1.000000
    418          6.179511   1.000000
    419          6.180541   1.000000
    420          6.181846   1.000000
    421          6.188572   1.000000
    422          6.214597   1.000000
    423          6.216587   1.000000
    424          6.234781   1.000000
    425          6.253582   1.000000
    426          6.282750   1.000000
    427          6.310802   1.000000
    428          6.312869   1.000000
    429          6.314753   1.000000
    430          6.423061   1.000000
    431          6.484890   1.000000
    432          6.489518   1.000000
    433          6.492274   1.000000
    434          6.508566   1.000000
    435          6.554132   1.000000
    436          6.570641   1.000000
    437          6.583176   1.000000
    438          6.585593   1.000000
    439          6.588955   1.000000
    440          6.625363   1.000000
    441          6.692906   1.000000
    442          6.693721   1.000000
    443          6.699133   1.000000
    444          6.703886   1.000000
    445          6.706641   1.000000
    446          6.712356   1.000000
    447          6.726834   1.000000
    448          6.746217   1.000000
    449          6.749527   1.000000
    450          6.783064   1.000000
    451          6.804602   1.000000
    452          6.810887   1.000000
    453          6.814371   1.000000
    454          6.826338   1.000000
    455          6.844728   1.000000
    456          6.872623   1.000000
    457          6.877351   1.000000
    458          6.881866   1.000000
    459          6.884689   1.000000
    460          6.898263   1.000000
    461          6.915633   1.000000
    462          6.918839   1.000000
    463          6.920703   1.000000
    464          6.945337   1.000000
    465          6.955411   1.000000
    466          6.963561   1.000000
    467          6.996640   1.000000
    468          6.997857   1.000000
    469          6.998328   1.000000
    470          7.000265   1.000000
    471          7.001974   1.000000
    472          7.061926   1.000000
    473          7.080978   1.000000
    474          7.084378   1.000000
    475          7.085817   1.000000
    476          7.087743   1.000000
    477          7.090043   1.000000
    478          7.127277   1.000000
    479          7.132830   1.000000
    480          7.153492   1.000000
    481          7.206880   1.000000
    482          7.208415   1.000000
    483          7.218792   1.000000
    484          7.288410   1.000000
    485          7.311631   1.000000
    486          7.318373   1.000000
    487          7.405117   1.000000
    488          7.419011   1.000000
    489          7.490992   1.000000
    490          7.520174   1.000000
    491          7.542821   1.000000
    492          7.612334   1.000000
    493          7.616861   1.000000
    494          7.623590   1.000000
    495          7.625000   1.000000
    496          7.628734   1.000000
    497          7.630286   1.000000
    498          7.634194   1.000000
    499          7.636956   1.000000
    500          7.639695   1.000000
    501          7.644325   1.000000
    502          7.645680   1.000000
    503          7.661338   1.000000
    504          7.699755   1.000000
    505          7.716727   1.000000
    506          7.732483   1.000000
    507          7.739427   1.000000
    508          7.741774   1.000000
    509          7.744339   1.000000
    510          7.747761   1.000000
    511          7.750612   1.000000
    512          7.753433   1.000000
    513          7.754576   1.000000
    514          7.774004   1.000000
    515          7.776535   1.000000
    516          7.779353   1.000000
    517          7.800098   1.000000
    518          7.824463   1.000000
    519          7.824678   1.000000
    520          7.900392   1.000000
    521          7.913108   1.000000
    522          7.913683   1.000000
    523          7.941576   1.000000
    524          8.042191   1.000000
    525          8.082587   1.000000
    526          8.092025   1.000000
    527          8.118283   1.000000
    528          8.132648   1.000000
    529          8.170359   1.000000
    530          8.183667   1.000000
    531          8.185385   1.000000
    532          8.196914   1.000001
    533          8.210951   1.000001
    534          8.212171   1.000001
    535          8.212820   1.000001
    536          8.220647   1.000001
    537          8.228357   1.000002
    538          8.231093   1.000002
    539          8.236267   1.000002
    540          8.239421   1.000002
    541          8.240228   1.000002
    542          8.288890   1.000012
    543          8.337966   1.000054
    544          8.341536   1.000059
    545          8.343024   1.000062
    546          8.351642   1.000079
    547          8.363519   1.000111
    548          8.370459   1.000134
    549          8.373511   1.000145
    550          8.376570   1.000158
    551          8.378998   1.000168
    552          8.384091   1.000193
    553          8.384489   1.000195
    554          8.387980   1.000214
    555          8.391363   1.000234
    556          8.396546   1.000267
    557          8.399104   1.000285
    558          8.405259   1.000334
    559          8.406248   1.000342
    560          8.494326   1.002536
    561          8.503274   1.003030
    562          8.507428   1.003285
    563          8.566650   1.009250
    564          8.582381   1.011709
    565          8.739637   1.032070
    566          8.750725   1.028271
    567          8.757207   1.025249
    568          8.760592   1.023414
    569          8.764658   1.020966
    570          8.772888   1.015145
    571          8.866148   0.845261
    572          8.896627   0.744611
    573          8.903522   0.719220
    574          8.907159   0.705488
    575          8.927271   0.626065
    576          8.932084   0.606346
    577          8.941393   0.567665
    578          8.951484   0.525196
    579          9.009811   0.286605
    580          9.027725   0.221986
    581          9.058186   0.127865
    582          9.065410   0.108810
    583          9.071203   0.094475
    584          9.078656   0.077279
    585          9.082037   0.069941
    586          9.084377   0.065032
    587          9.088291   0.057126
    588          9.091665   0.050618
    589          9.125273   0.000602
    590          9.175086  -0.032026
    591          9.179745  -0.033165
    592          9.185408  -0.034214
    593          9.195752  -0.035280
    594          9.199501  -0.035425
    595          9.208416  -0.035324
    596          9.213466  -0.035020
    597          9.219026  -0.034508
    598          9.223433  -0.033985
    599          9.226015  -0.033636
    600          9.228103  -0.033333
    601          9.228612  -0.033256
    602          9.239711  -0.031350
    603          9.293697  -0.019370
    604          9.312864  -0.015327
    605          9.316478  -0.014617
    606          9.329377  -0.012245
    607          9.333795  -0.011492
    608          9.342474  -0.010105
    609          9.355540  -0.008243
    610          9.359611  -0.007718
    611          9.373712  -0.006093
    612          9.378385  -0.005617
    613          9.380120  -0.005449
    614          9.444155  -0.001550
    615          9.448013  -0.001426
    616          9.467902  -0.000914
    617          9.483570  -0.000633
    618          9.490896  -0.000531
    619          9.513649  -0.000301
    620          9.540337  -0.000149
    621          9.547918  -0.000122
    622          9.558509  -0.000091
    623          9.559751  -0.000088
    624          9.565003  -0.000075
    625          9.575062  -0.000057
    626          9.581968  -0.000046
    627          9.587096  -0.000040
    628          9.598264  -0.000029
    629          9.598864  -0.000028
    630          9.606817  -0.000022
    631          9.611624  -0.000019
    632          9.613405  -0.000018
    633          9.624430  -0.000013
    634          9.625822  -0.000012
    635          9.629321  -0.000011
    636          9.634545  -0.000009
    637          9.637143  -0.000008
    638          9.640796  -0.000008
    639          9.643819  -0.000007
    640          9.645378  -0.000006
    641          9.650030  -0.000006
    642          9.656705  -0.000004
    643          9.666317  -0.000003
    644          9.671858  -0.000003
    645          9.809564  -0.000000
    646          9.816580  -0.000000
    647          9.838268  -0.000000
    648          9.841344  -0.000000
    649          9.847893  -0.000000
    650          9.853521  -0.000000
    651          9.883410  -0.000000
    652          9.891677  -0.000000
    653          9.902249  -0.000000
    654          9.908021  -0.000000
    655          9.909689  -0.000000
    656          9.920210  -0.000000
    657          9.921188  -0.000000
    658          9.929860  -0.000000
    659          9.936464  -0.000000
    660          9.941294  -0.000000
    661          9.950302  -0.000000
    662          9.951290  -0.000000
    663         10.010652  -0.000000
    664         10.019954  -0.000000
    665         10.022147  -0.000000
    666         10.030968  -0.000000
    667         10.036881  -0.000000
    668         10.039050  -0.000000
    669         10.095371  -0.000000
    670         10.111280  -0.000000
    671         10.118239  -0.000000
    672         10.123608  -0.000000
    673         10.126994  -0.000000
    674         10.128805  -0.000000
    675         10.132712  -0.000000
    676         10.154861  -0.000000
    677         10.169859  -0.000000
    678         10.176763  -0.000000
    679         10.182140  -0.000000
    680         10.193038  -0.000000
    681         10.205714  -0.000000
    682         10.211370  -0.000000
    683         10.214408  -0.000000
    684         10.226402  -0.000000
    685         10.230956  -0.000000
    686         10.233379  -0.000000
    687         10.292237  -0.000000
    688         10.317283  -0.000000
    689         10.322914  -0.000000
    690         10.326894  -0.000000
    691         10.331996  -0.000000
 
 -0.2500000E+00  0.5000000E+00  0.0000000E+00  0.4166667E-01
      1        -39.908347   1.000000
      2        -39.884109   1.000000
      3        -39.875220   1.000000
      4        -39.873719   1.000000
      5        -39.861563   1.000000
      6        -39.850698   1.000000
      7        -39.849474   1.000000
      8        -39.848692   1.000000
      9        -39.841332   1.000000
     10        -39.840466   1.000000
     11        -39.836199   1.000000
     12        -39.829112   1.000000
     13        -39.822286   1.000000
     14        -39.820547   1.000000
     15        -39.815794   1.000000
     16        -39.811563   1.000000
     17        -39.807759   1.000000
     18        -39.806865   1.000000
     19        -39.802317   1.000000
     20        -39.798685   1.000000
     21        -39.797837   1.000000
     22        -39.795113   1.000000
     23        -39.788792   1.000000
     24        -39.786602   1.000000
     25        -39.785547   1.000000
     26        -39.783153   1.000000
     27        -39.782422   1.000000
     28        -39.782223   1.000000
     29        -39.780825   1.000000
     30        -39.779944   1.000000
     31        -39.778563   1.000000
     32        -39.777958   1.000000
     33        -39.776691   1.000000
     34        -39.774372   1.000000
     35        -39.773236   1.000000
     36        -39.772648   1.000000
     37        -39.770086   1.000000
     38        -39.769137   1.000000
     39        -39.768334   1.000000
     40        -39.767004   1.000000
     41        -39.766760   1.000000
     42        -39.766341   1.000000
     43        -39.762755   1.000000
     44        -39.759382   1.000000
     45        -39.758863   1.000000
     46        -39.757672   1.000000
     47        -39.756129   1.000000
     48        -39.755859   1.000000
     49        -39.753970   1.000000
     50        -39.753574   1.000000
     51        -39.752589   1.000000
     52        -39.750959   1.000000
     53        -39.750398   1.000000
     54        -39.749705   1.000000
     55        -39.747562   1.000000
     56        -39.746807   1.000000
     57        -39.746073   1.000000
     58        -39.744410   1.000000
     59        -39.743270   1.000000
     60        -39.742722   1.000000
     61        -39.742049   1.000000
     62        -39.741341   1.000000
     63        -39.739937   1.000000
     64        -39.739593   1.000000
     65        -39.738796   1.000000
     66        -39.737938   1.000000
     67        -39.736881   1.000000
     68        -39.735949   1.000000
     69        -39.735243   1.000000
     70        -39.735090   1.000000
     71        -39.734298   1.000000
     72        -39.734036   1.000000
     73        -39.733707   1.000000
     74        -39.732599   1.000000
     75        -39.731820   1.000000
     76        -39.730784   1.000000
     77        -39.730068   1.000000
     78        -39.729896   1.000000
     79        -39.729478   1.000000
     80        -39.727424   1.000000
     81        -39.726896   1.000000
     82        -39.726074   1.000000
     83        -39.725871   1.000000
     84        -39.724547   1.000000
     85        -39.723768   1.000000
     86        -39.722254   1.000000
     87        -39.720964   1.000000
     88        -39.720553   1.000000
     89        -39.719118   1.000000
     90        -39.717453   1.000000
     91        -39.714485   1.000000
     92        -39.713847   1.000000
     93        -39.708804   1.000000
     94        -39.708568   1.000000
     95        -39.706615   1.000000
     96        -39.704540   1.000000
     97        -18.383679   1.000000
     98        -18.343213   1.000000
     99        -18.334807   1.000000
    100        -18.320668   1.000000
    101        -18.299204   1.000000
    102        -18.293261   1.000000
    103        -18.286098   1.000000
    104        -18.284676   1.000000
    105        -18.284607   1.000000
    106        -18.268129   1.000000
    107        -18.256900   1.000000
    108        -18.255196   1.000000
    109        -18.253894   1.000000
    110        -18.249109   1.000000
    111        -18.244320   1.000000
    112        -18.241167   1.000000
    113        -18.238259   1.000000
    114        -18.234791   1.000000
    115        -18.231171   1.000000
    116        -18.227385   1.000000
    117        -18.225984   1.000000
    118        -18.220376   1.000000
    119        -18.217434   1.000000
    120        -18.216644   1.000000
    121        -18.214674   1.000000
    122        -18.210478   1.000000
    123        -18.199475   1.000000
    124        -18.189632   1.000000
    125        -18.188771   1.000000
    126        -18.187681   1.000000
    127        -18.186098   1.000000
    128        -18.183950   1.000000
    129        -18.183450   1.000000
    130        -18.181235   1.000000
    131        -18.181062   1.000000
    132        -18.180658   1.000000
    133        -18.179345   1.000000
    134        -18.177976   1.000000
    135        -18.176714   1.000000
    136        -18.175300   1.000000
    137        -18.173828   1.000000
    138        -18.170958   1.000000
    139        -18.166726   1.000000
    140        -18.166100   1.000000
    141        -18.165436   1.000000
    142        -18.164499   1.000000
    143        -18.163524   1.000000
    144        -18.161314   1.000000
    145        -18.160596   1.000000
    146        -18.158485   1.000000
    147        -18.158089   1.000000
    148        -18.155526   1.000000
    149        -18.154972   1.000000
    150        -18.152358   1.000000
    151        -18.149792   1.000000
    152        -18.148242   1.000000
    153        -18.146048   1.000000
    154        -18.144931   1.000000
    155        -18.143766   1.000000
    156        -18.129175   1.000000
    157        -18.124363   1.000000
    158        -18.122735   1.000000
    159        -18.119512   1.000000
    160        -18.115935   1.000000
    161        -18.112300   1.000000
    162        -18.108213   1.000000
    163        -18.105598   1.000000
    164        -18.104053   1.000000
    165        -18.092237   1.000000
    166        -18.089700   1.000000
    167        -18.065720   1.000000
    168        -18.059306   1.000000
    169        -18.058756   1.000000
    170        -18.054446   1.000000
    171        -18.052546   1.000000
    172        -18.044196   1.000000
    173        -18.042169   1.000000
    174        -18.029595   1.000000
    175        -18.026991   1.000000
    176        -18.023091   1.000000
    177        -18.020119   1.000000
    178        -18.019401   1.000000
    179        -18.016891   1.000000
    180        -17.999071   1.000000
    181        -17.994666   1.000000
    182        -17.983174   1.000000
    183        -17.978188   1.000000
    184        -17.973611   1.000000
    185        -17.971919   1.000000
    186        -17.970982   1.000000
    187        -17.966446   1.000000
    188        -17.964848   1.000000
    189        -17.961315   1.000000
    190        -17.953129   1.000000
    191        -17.946929   1.000000
    192        -17.942491   1.000000
    193        -17.942063   1.000000
    194        -17.939728   1.000000
    195        -17.916507   1.000000
    196        -17.909134   1.000000
    197        -17.906854   1.000000
    198        -17.904306   1.000000
    199        -17.902983   1.000000
    200        -17.901449   1.000000
    201        -17.881707   1.000000
    202        -17.873831   1.000000
    203        -17.872822   1.000000
    204        -17.870667   1.000000
    205        -17.861864   1.000000
    206        -17.856239   1.000000
    207        -17.852009   1.000000
    208        -17.846399   1.000000
    209        -17.843897   1.000000
    210        -17.833626   1.000000
    211        -17.823869   1.000000
    212        -17.821140   1.000000
    213        -17.816643   1.000000
    214        -17.813718   1.000000
    215        -17.812916   1.000000
    216        -17.812100   1.000000
    217        -17.805048   1.000000
    218        -17.804845   1.000000
    219        -17.803324   1.000000
    220        -17.799269   1.000000
    221        -17.797855   1.000000
    222        -17.797423   1.000000
    223        -17.795271   1.000000
    224        -17.795138   1.000000
    225        -17.793595   1.000000
    226        -17.789959   1.000000
    227        -17.788651   1.000000
    228        -17.783381   1.000000
    229        -17.782433   1.000000
    230        -17.778293   1.000000
    231        -17.776703   1.000000
    232        -17.774557   1.000000
    233        -17.773481   1.000000
    234        -17.771880   1.000000
    235        -17.770578   1.000000
    236        -17.767560   1.000000
    237        -17.764570   1.000000
    238        -17.762499   1.000000
    239        -17.759528   1.000000
    240        -17.757793   1.000000
    241        -17.756969   1.000000
    242        -17.756218   1.000000
    243        -17.743325   1.000000
    244        -17.741625   1.000000
    245        -17.738784   1.000000
    246        -17.733600   1.000000
    247        -17.730111   1.000000
    248        -17.728439   1.000000
    249        -17.727260   1.000000
    250        -17.727009   1.000000
    251        -17.725627   1.000000
    252        -17.724675   1.000000
    253        -17.719565   1.000000
    254        -17.717908   1.000000
    255        -17.716853   1.000000
    256        -17.712648   1.000000
    257        -17.709307   1.000000
    258        -17.705887   1.000000
    259        -17.703832   1.000000
    260        -17.702194   1.000000
    261        -17.699275   1.000000
    262        -17.697647   1.000000
    263        -17.696001   1.000000
    264        -17.695089   1.000000
    265        -17.692445   1.000000
    266        -17.689935   1.000000
    267        -17.685457   1.000000
    268        -17.684267   1.000000
    269        -17.684147   1.000000
    270        -17.682761   1.000000
    271        -17.676788   1.000000
    272        -17.675887   1.000000
    273        -17.674724   1.000000
    274        -17.674206   1.000000
    275        -17.673381   1.000000
    276        -17.671879   1.000000
    277        -17.669558   1.000000
    278        -17.667450   1.000000
    279        -17.666990   1.000000
    280        -17.663744   1.000000
    281        -17.659604   1.000000
    282        -17.656880   1.000000
    283        -17.655408   1.000000
    284        -17.653918   1.000000
    285        -17.653351   1.000000
    286        -17.649069   1.000000
    287        -17.647891   1.000000
    288        -17.646361   1.000000
    289        -17.645245   1.000000
    290        -17.644530   1.000000
    291        -17.641878   1.000000
    292        -17.640403   1.000000
    293        -17.639958   1.000000
    294        -17.637825   1.000000
    295        -17.637606   1.000000
    296        -17.633179   1.000000
    297        -17.630205   1.000000
    298        -17.629182   1.000000
    299        -17.628651   1.000000
    300        -17.627848   1.000000
    301        -17.626965   1.000000
    302        -17.621800   1.000000
    303        -17.620585   1.000000
    304        -17.614853   1.000000
    305        -17.612185   1.000000
    306        -17.611545   1.000000
    307        -17.608441   1.000000
    308        -17.604966   1.000000
    309        -17.603742   1.000000
    310        -17.602504   1.000000
    311        -17.601099   1.000000
    312        -17.599518   1.000000
    313        -17.590590   1.000000
    314        -17.590146   1.000000
    315        -17.589709   1.000000
    316        -17.588905   1.000000
    317        -17.587345   1.000000
    318        -17.585259   1.000000
    319        -17.585137   1.000000
    320        -17.583271   1.000000
    321        -17.581915   1.000000
    322        -17.581556   1.000000
    323        -17.581326   1.000000
    324        -17.580568   1.000000
    325        -17.579585   1.000000
    326        -17.577750   1.000000
    327        -17.576850   1.000000
    328        -17.575934   1.000000
    329        -17.574075   1.000000
    330        -17.573198   1.000000
    331        -17.571896   1.000000
    332        -17.571655   1.000000
    333        -17.569494   1.000000
    334        -17.567390   1.000000
    335        -17.566824   1.000000
    336        -17.565542   1.000000
    337        -17.564813   1.000000
    338        -17.564207   1.000000
    339        -17.563919   1.000000
    340        -17.563522   1.000000
    341        -17.562214   1.000000
    342        -17.561257   1.000000
    343        -17.560311   1.000000
    344        -17.559107   1.000000
    345        -17.558359   1.000000
    346        -17.556729   1.000000
    347        -17.554577   1.000000
    348        -17.554308   1.000000
    349        -17.552278   1.000000
    350        -17.548886   1.000000
    351        -17.547729   1.000000
    352        -17.546673   1.000000
    353        -17.544835   1.000000
    354        -17.537484   1.000000
    355        -17.537042   1.000000
    356        -17.536243   1.000000
    357        -17.535344   1.000000
    358        -17.533083   1.000000
    359        -17.531511   1.000000
    360        -17.526847   1.000000
    361        -17.525191   1.000000
    362        -17.522349   1.000000
    363        -17.520471   1.000000
    364        -17.517352   1.000000
    365        -17.516120   1.000000
    366        -17.514939   1.000000
    367        -17.513147   1.000000
    368        -17.512274   1.000000
    369        -17.509739   1.000000
    370        -17.494258   1.000000
    371        -17.491693   1.000000
    372        -17.491281   1.000000
    373        -17.489906   1.000000
    374        -17.488808   1.000000
    375        -17.485782   1.000000
    376        -17.482383   1.000000
    377        -17.470583   1.000000
    378        -17.467582   1.000000
    379        -17.466653   1.000000
    380        -17.461573   1.000000
    381        -17.449134   1.000000
    382        -17.447431   1.000000
    383        -17.443316   1.000000
    384        -17.430791   1.000000
    385          2.450812   1.000000
    386          3.670740   1.000000
    387          4.025311   1.000000
    388          4.104682   1.000000
    389          4.442556   1.000000
    390          4.506271   1.000000
    391          4.791239   1.000000
    392          4.793460   1.000000
    393          4.794191   1.000000
    394          4.900033   1.000000
    395          5.089221   1.000000
    396          5.154850   1.000000
    397          5.621528   1.000000
    398          5.623066   1.000000
    399          5.625660   1.000000
    400          5.656098   1.000000
    401          5.712069   1.000000
    402          5.789643   1.000000
    403          5.813314   1.000000
    404          5.914383   1.000000
    405          5.916758   1.000000
    406          5.920789   1.000000
    407          5.931231   1.000000
    408          5.961949   1.000000
    409          5.975201   1.000000
    410          5.985815   1.000000
    411          5.989940   1.000000
    412          5.993429   1.000000
    413          6.019765   1.000000
    414          6.049249   1.000000
    415          6.077696   1.000000
    416          6.173522   1.000000
    417          6.177434   1.000000
    418          6.179335   1.000000
    419          6.180607   1.000000
    420          6.181769   1.000000
    421          6.188596   1.000000
    422          6.214670   1.000000
    423          6.216681   1.000000
    424          6.234780   1.000000
    425          6.253484   1.000000
    426          6.282725   1.000000
    427          6.310686   1.000000
    428          6.312859   1.000000
    429          6.314892   1.000000
    430          6.422921   1.000000
    431          6.484890   1.000000
    432          6.489511   1.000000
    433          6.492179   1.000000
    434          6.508588   1.000000
    435          6.554281   1.000000
    436          6.570559   1.000000
    437          6.583077   1.000000
    438          6.585574   1.000000
    439          6.588856   1.000000
    440          6.625443   1.000000
    441          6.692837   1.000000
    442          6.693621   1.000000
    443          6.699012   1.000000
    444          6.704066   1.000000
    445          6.706584   1.000000
    446          6.712421   1.000000
    447          6.726726   1.000000
    448          6.746383   1.000000
    449          6.749784   1.000000
    450          6.782912   1.000000
    451          6.804688   1.000000
    452          6.810905   1.000000
    453          6.814447   1.000000
    454          6.826385   1.000000
    455          6.844566   1.000000
    456          6.872407   1.000000
    457          6.877646   1.000000
    458          6.881912   1.000000
    459          6.884757   1.000000
    460          6.898289   1.000000
    461          6.915492   1.000000
    462          6.918804   1.000000
    463          6.920646   1.000000
    464          6.945386   1.000000
    465          6.955385   1.000000
    466          6.963784   1.000000
    467          6.996999   1.000000
    468          6.997569   1.000000
    469          6.998328   1.000000
    470          7.000471   1.000000
    471          7.002004   1.000000
    472          7.061868   1.000000
    473          7.080763   1.000000
    474          7.084379   1.000000
    475          7.085729   1.000000
    476          7.087691   1.000000
    477          7.090172   1.000000
    478          7.127181   1.000000
    479          7.132451   1.000000
    480          7.153474   1.000000
    481          7.206885   1.000000
    482          7.208497   1.000000
    483          7.218620   1.000000
    484          7.288256   1.000000
    485          7.311749   1.000000
    486          7.318548   1.000000
    487          7.405092   1.000000
    488          7.419035   1.000000
    489          7.491018   1.000000
    490          7.520287   1.000000
    491          7.543009   1.000000
    492          7.612389   1.000000
    493          7.616533   1.000000
    494          7.623164   1.000000
    495          7.625135   1.000000
    496          7.628788   1.000000
    497          7.630708   1.000000
    498          7.634147   1.000000
    499          7.636980   1.000000
    500          7.639897   1.000000
    501          7.644067   1.000000
    502          7.645694   1.000000
    503          7.661300   1.000000
    504          7.699526   1.000000
    505          7.716844   1.000000
    506          7.732754   1.000000
    507          7.739366   1.000000
    508          7.742137   1.000000
    509          7.744427   1.000000
    510          7.748018   1.000000
    511          7.750597   1.000000
    512          7.752967   1.000000
    513          7.754325   1.000000
    514          7.774350   1.000000
    515          7.776541   1.000000
    516          7.779340   1.000000
    517          7.800071   1.000000
    518          7.824429   1.000000
    519          7.824632   1.000000
    520          7.900386   1.000000
    521          7.913012   1.000000
    522          7.913563   1.000000
    523          7.941603   1.000000
    524          8.042260   1.000000
    525          8.082688   1.000000
    526          8.092095   1.000000
    527          8.118205   1.000000
    528          8.132403   1.000000
    529          8.170501   1.000000
    530          8.183694   1.000000
    531          8.185612   1.000000
    532          8.196540   1.000001
    533          8.211015   1.000001
    534          8.212053   1.000001
    535          8.213106   1.000001
    536          8.220929   1.000001
    537          8.228316   1.000002
    538          8.231088   1.000002
    539          8.236156   1.000002
    540          8.239109   1.000002
    541          8.239798   1.000002
    542          8.289097   1.000012
    543          8.337920   1.000054
    544          8.341576   1.000060
    545          8.343143   1.000062
    546          8.351705   1.000079
    547          8.363637   1.000111
    548          8.370431   1.000134
    549          8.373499   1.000145
    550          8.376457   1.000157
    551          8.379027   1.000169
    552          8.384305   1.000194
    553          8.384644   1.000196
    554          8.388098   1.000214
    555          8.391609   1.000235
    556          8.396177   1.000265
    557          8.398826   1.000283
    558          8.404932   1.000331
    559          8.405921   1.000339
    560          8.494392   1.002539
    561          8.503367   1.003035
    562          8.507384   1.003283
    563          8.566593   1.009242
    564          8.582428   1.011717
    565          8.739715   1.032049
    566          8.750742   1.028263
    567          8.757378   1.025160
    568          8.760488   1.023473
    569          8.764967   1.020769
    570          8.772571   1.015391
    571          8.865914   0.845951
    572          8.896522   0.744993
    573          8.903377   0.719762
    574          8.907281   0.705026
    575          8.927349   0.625749
    576          8.932271   0.605575
    577          8.941805   0.565939
    578          8.950948   0.527460
    579          9.009874   0.286369
    580          9.027934   0.221270
    581          9.058843   0.126079
    582          9.065971   0.107383
    583          9.070962   0.095054
    584          9.077979   0.078784
    585          9.082039   0.069936
    586          9.084553   0.064669
    587          9.088354   0.057001
    588          9.091778   0.050404
    589          9.125428   0.000431
    590          9.174807  -0.031950
    591          9.180129  -0.033248
    592          9.185272  -0.034193
    593          9.195895  -0.035288
    594          9.199415  -0.035423
    595          9.208479  -0.035321
    596          9.213305  -0.035032
    597          9.219111  -0.034499
    598          9.223317  -0.034000
    599          9.225934  -0.033648
    600          9.228209  -0.033317
    601          9.228845  -0.033221
    602          9.239734  -0.031345
    603          9.292283  -0.019685
    604          9.313154  -0.015269
    605          9.316180  -0.014675
    606          9.329441  -0.012234
    607          9.334650  -0.011350
    608          9.342532  -0.010096
    609          9.355498  -0.008249
    610          9.359653  -0.007713
    611          9.373728  -0.006091
    612          9.378480  -0.005608
    613          9.379989  -0.005461
    614          9.443537  -0.001571
    615          9.447869  -0.001430
    616          9.468212  -0.000907
    617          9.483367  -0.000636
    618          9.491130  -0.000528
    619          9.513598  -0.000302
    620          9.539613  -0.000152
    621          9.547966  -0.000121
    622          9.558561  -0.000091
    623          9.559956  -0.000087
    624          9.565227  -0.000075
    625          9.575020  -0.000057
    626          9.581670  -0.000047
    627          9.587324  -0.000040
    628          9.597489  -0.000029
    629          9.598811  -0.000028
    630          9.607105  -0.000022
    631          9.611636  -0.000019
    632          9.613586  -0.000018
    633          9.624490  -0.000013
    634          9.625990  -0.000012
    635          9.629522  -0.000011
    636          9.634882  -0.000009
    637          9.637509  -0.000008
    638          9.640841  -0.000008
    639          9.643874  -0.000007
    640          9.645679  -0.000006
    641          9.650057  -0.000006
    642          9.656923  -0.000004
    643          9.666241  -0.000003
    644          9.671850  -0.000003
    645          9.809298  -0.000000
    646          9.816363  -0.000000
    647          9.838233  -0.000000
    648          9.841617  -0.000000
    649          9.847775  -0.000000
    650          9.853610  -0.000000
    651          9.883248  -0.000000
    652          9.891659  -0.000000
    653          9.902162  -0.000000
    654          9.907759  -0.000000
    655          9.909405  -0.000000
    656          9.920820  -0.000000
    657          9.921028  -0.000000
    658          9.929354  -0.000000
    659          9.936485  -0.000000
    660          9.941727  -0.000000
    661          9.950117  -0.000000
    662          9.951467  -0.000000
    663         10.010684  -0.000000
    664         10.020125  -0.000000
    665         10.022111  -0.000000
    666         10.030972  -0.000000
    667         10.037013  -0.000000
    668         10.039150  -0.000000
    669         10.095627  -0.000000
    670         10.111511  -0.000000
    671         10.117894  -0.000000
    672         10.123956  -0.000000
    673         10.126806  -0.000000
    674         10.128796  -0.000000
    675         10.132355  -0.000000
    676         10.154956  -0.000000
    677         10.170034  -0.000000
    678         10.176835  -0.000000
    679         10.182145  -0.000000
    680         10.192747  -0.000000
    681         10.205560  -0.000000
    682         10.211469  -0.000000
    683         10.214332  -0.000000
    684         10.226263  -0.000000
    685         10.231259  -0.000000
    686         10.233269  -0.000000
    687         10.292311  -0.000000
    688         10.317441  -0.000000
    689         10.322426  -0.000000
    690         10.327006  -0.000000
    691         10.335281  -0.000000
 
  0.5000000E+00  0.2500000E+00  0.0000000E+00  0.4166667E-01
      1        -39.908341   1.000000
      2        -39.884163   1.000000
      3        -39.875241   1.000000
      4        -39.873633   1.000000
      5        -39.861558   1.000000
      6        -39.850684   1.000000
      7        -39.849571   1.000000
      8        -39.848633   1.000000
      9        -39.841364   1.000000
     10        -39.840364   1.000000
     11        -39.836227   1.000000
     12        -39.829181   1.000000
     13        -39.822338   1.000000
     14        -39.820464   1.000000
     15        -39.815765   1.000000
     16        -39.811616   1.000000
     17        -39.807704   1.000000
     18        -39.806900   1.000000
     19        -39.802259   1.000000
     20        -39.798779   1.000000
     21        -39.797824   1.000000
     22        -39.795197   1.000000
     23        -39.788875   1.000000
     24        -39.786603   1.000000
     25        -39.785487   1.000000
     26        -39.782946   1.000000
     27        -39.782435   1.000000
     28        -39.782095   1.000000
     29        -39.780873   1.000000
     30        -39.779948   1.000000
     31        -39.778676   1.000000
     32        -39.777936   1.000000
     33        -39.776708   1.000000
     34        -39.774317   1.000000
     35        -39.773113   1.000000
     36        -39.772708   1.000000
     37        -39.770100   1.000000
     38        -39.769103   1.000000
     39        -39.768361   1.000000
     40        -39.767073   1.000000
     41        -39.766794   1.000000
     42        -39.766371   1.000000
     43        -39.762753   1.000000
     44        -39.759358   1.000000
     45        -39.758844   1.000000
     46        -39.757635   1.000000
     47        -39.756139   1.000000
     48        -39.755881   1.000000
     49        -39.754070   1.000000
     50        -39.753635   1.000000
     51        -39.752571   1.000000
     52        -39.750853   1.000000
     53        -39.750306   1.000000
     54        -39.749766   1.000000
     55        -39.747642   1.000000
     56        -39.746847   1.000000
     57        -39.746119   1.000000
     58        -39.744408   1.000000
     59        -39.743287   1.000000
     60        -39.742828   1.000000
     61        -39.742005   1.000000
     62        -39.741397   1.000000
     63        -39.739809   1.000000
     64        -39.739537   1.000000
     65        -39.738721   1.000000
     66        -39.737913   1.000000
     67        -39.736830   1.000000
     68        -39.736053   1.000000
     69        -39.735215   1.000000
     70        -39.735018   1.000000
     71        -39.734409   1.000000
     72        -39.733882   1.000000
     73        -39.733757   1.000000
     74        -39.732519   1.000000
     75        -39.731915   1.000000
     76        -39.730760   1.000000
     77        -39.730063   1.000000
     78        -39.729914   1.000000
     79        -39.729477   1.000000
     80        -39.727499   1.000000
     81        -39.726890   1.000000
     82        -39.726059   1.000000
     83        -39.725852   1.000000
     84        -39.724621   1.000000
     85        -39.723734   1.000000
     86        -39.722181   1.000000
     87        -39.721020   1.000000
     88        -39.720642   1.000000
     89        -39.719089   1.000000
     90        -39.717442   1.000000
     91        -39.714390   1.000000
     92        -39.713900   1.000000
     93        -39.708822   1.000000
     94        -39.708548   1.000000
     95        -39.706619   1.000000
     96        -39.704546   1.000000
     97        -18.383682   1.000000
     98        -18.343233   1.000000
     99        -18.334789   1.000000
    100        -18.320687   1.000000
    101        -18.299227   1.000000
    102        -18.293290   1.000000
    103        -18.286074   1.000000
    104        -18.284646   1.000000
    105        -18.284603   1.000000
    106        -18.267998   1.000000
    107        -18.256907   1.000000
    108        -18.255306   1.000000
    109        -18.253897   1.000000
    110        -18.249219   1.000000
    111        -18.244310   1.000000
    112        -18.241125   1.000000
    113        -18.238317   1.000000
    114        -18.234747   1.000000
    115        -18.231147   1.000000
    116        -18.227367   1.000000
    117        -18.225952   1.000000
    118        -18.220295   1.000000
    119        -18.217364   1.000000
    120        -18.216680   1.000000
    121        -18.214702   1.000000
    122        -18.210517   1.000000
    123        -18.199558   1.000000
    124        -18.189525   1.000000
    125        -18.188785   1.000000
    126        -18.187704   1.000000
    127        -18.186081   1.000000
    128        -18.183912   1.000000
    129        -18.183341   1.000000
    130        -18.181196   1.000000
    131        -18.181009   1.000000
    132        -18.180757   1.000000
    133        -18.179460   1.000000
    134        -18.177869   1.000000
    135        -18.176594   1.000000
    136        -18.175431   1.000000
    137        -18.173903   1.000000
    138        -18.171000   1.000000
    139        -18.166760   1.000000
    140        -18.166149   1.000000
    141        -18.165417   1.000000
    142        -18.164445   1.000000
    143        -18.163552   1.000000
    144        -18.161436   1.000000
    145        -18.160670   1.000000
    146        -18.158483   1.000000
    147        -18.158011   1.000000
    148        -18.155532   1.000000
    149        -18.154873   1.000000
    150        -18.152329   1.000000
    151        -18.149902   1.000000
    152        -18.148208   1.000000
    153        -18.146072   1.000000
    154        -18.144898   1.000000
    155        -18.143764   1.000000
    156        -18.129109   1.000000
    157        -18.124407   1.000000
    158        -18.122798   1.000000
    159        -18.119527   1.000000
    160        -18.115927   1.000000
    161        -18.112292   1.000000
    162        -18.108222   1.000000
    163        -18.105562   1.000000
    164        -18.103987   1.000000
    165        -18.092276   1.000000
    166        -18.089646   1.000000
    167        -18.065747   1.000000
    168        -18.059259   1.000000
    169        -18.058700   1.000000
    170        -18.054380   1.000000
    171        -18.052533   1.000000
    172        -18.044231   1.000000
    173        -18.042226   1.000000
    174        -18.029684   1.000000
    175        -18.026956   1.000000
    176        -18.023020   1.000000
    177        -18.020006   1.000000
    178        -18.019434   1.000000
    179        -18.017036   1.000000
    180        -17.999085   1.000000
    181        -17.994681   1.000000
    182        -17.983147   1.000000
    183        -17.978223   1.000000
    184        -17.973709   1.000000
    185        -17.971879   1.000000
    186        -17.971007   1.000000
    187        -17.966426   1.000000
    188        -17.964680   1.000000
    189        -17.961287   1.000000
    190        -17.953085   1.000000
    191        -17.946937   1.000000
    192        -17.942637   1.000000
    193        -17.942086   1.000000
    194        -17.939735   1.000000
    195        -17.916484   1.000000
    196        -17.909109   1.000000
    197        -17.906870   1.000000
    198        -17.904382   1.000000
    199        -17.902945   1.000000
    200        -17.901522   1.000000
    201        -17.881728   1.000000
    202        -17.873786   1.000000
    203        -17.872846   1.000000
    204        -17.870718   1.000000
    205        -17.861962   1.000000
    206        -17.856168   1.000000
    207        -17.852039   1.000000
    208        -17.846280   1.000000
    209        -17.843923   1.000000
    210        -17.833697   1.000000
    211        -17.823885   1.000000
    212        -17.821118   1.000000
    213        -17.816528   1.000000
    214        -17.813562   1.000000
    215        -17.812644   1.000000
    216        -17.812100   1.000000
    217        -17.805041   1.000000
    218        -17.804770   1.000000
    219        -17.803452   1.000000
    220        -17.799340   1.000000
    221        -17.798024   1.000000
    222        -17.797379   1.000000
    223        -17.795393   1.000000
    224        -17.795301   1.000000
    225        -17.793497   1.000000
    226        -17.789932   1.000000
    227        -17.788690   1.000000
    228        -17.783300   1.000000
    229        -17.782413   1.000000
    230        -17.778223   1.000000
    231        -17.776830   1.000000
    232        -17.774478   1.000000
    233        -17.773391   1.000000
    234        -17.771885   1.000000
    235        -17.770688   1.000000
    236        -17.767518   1.000000
    237        -17.764669   1.000000
    238        -17.762522   1.000000
    239        -17.759616   1.000000
    240        -17.757750   1.000000
    241        -17.756973   1.000000
    242        -17.756133   1.000000
    243        -17.743410   1.000000
    244        -17.741712   1.000000
    245        -17.738500   1.000000
    246        -17.733660   1.000000
    247        -17.730229   1.000000
    248        -17.728458   1.000000
    249        -17.727279   1.000000
    250        -17.726933   1.000000
    251        -17.725705   1.000000
    252        -17.724618   1.000000
    253        -17.719650   1.000000
    254        -17.717859   1.000000
    255        -17.716754   1.000000
    256        -17.712609   1.000000
    257        -17.709335   1.000000
    258        -17.705920   1.000000
    259        -17.703811   1.000000
    260        -17.702006   1.000000
    261        -17.699282   1.000000
    262        -17.697642   1.000000
    263        -17.696114   1.000000
    264        -17.695163   1.000000
    265        -17.692455   1.000000
    266        -17.689935   1.000000
    267        -17.685245   1.000000
    268        -17.684320   1.000000
    269        -17.684260   1.000000
    270        -17.682797   1.000000
    271        -17.676749   1.000000
    272        -17.675891   1.000000
    273        -17.674762   1.000000
    274        -17.674131   1.000000
    275        -17.673360   1.000000
    276        -17.672023   1.000000
    277        -17.669571   1.000000
    278        -17.667472   1.000000
    279        -17.666895   1.000000
    280        -17.663729   1.000000
    281        -17.659574   1.000000
    282        -17.657088   1.000000
    283        -17.655450   1.000000
    284        -17.653976   1.000000
    285        -17.653334   1.000000
    286        -17.649148   1.000000
    287        -17.647789   1.000000
    288        -17.646257   1.000000
    289        -17.645261   1.000000
    290        -17.644518   1.000000
    291        -17.641979   1.000000
    292        -17.640303   1.000000
    293        -17.639937   1.000000
    294        -17.637890   1.000000
    295        -17.637619   1.000000
    296        -17.633045   1.000000
    297        -17.630201   1.000000
    298        -17.629263   1.000000
    299        -17.628700   1.000000
    300        -17.627866   1.000000
    301        -17.626891   1.000000
    302        -17.621925   1.000000
    303        -17.620686   1.000000
    304        -17.614748   1.000000
    305        -17.612165   1.000000
    306        -17.611499   1.000000
    307        -17.608229   1.000000
    308        -17.604995   1.000000
    309        -17.603773   1.000000
    310        -17.602719   1.000000
    311        -17.601141   1.000000
    312        -17.599393   1.000000
    313        -17.590508   1.000000
    314        -17.590024   1.000000
    315        -17.589600   1.000000
    316        -17.588869   1.000000
    317        -17.587298   1.000000
    318        -17.585263   1.000000
    319        -17.585092   1.000000
    320        -17.583267   1.000000
    321        -17.582107   1.000000
    322        -17.581712   1.000000
    323        -17.581286   1.000000
    324        -17.580363   1.000000
    325        -17.579648   1.000000
    326        -17.577708   1.000000
    327        -17.576888   1.000000
    328        -17.575928   1.000000
    329        -17.574129   1.000000
    330        -17.573079   1.000000
    331        -17.571790   1.000000
    332        -17.571655   1.000000
    333        -17.569537   1.000000
    334        -17.567440   1.000000
    335        -17.566740   1.000000
    336        -17.565554   1.000000
    337        -17.564667   1.000000
    338        -17.564284   1.000000
    339        -17.564010   1.000000
    340        -17.563610   1.000000
    341        -17.562318   1.000000
    342        -17.561293   1.000000
    343        -17.560335   1.000000
    344        -17.559052   1.000000
    345        -17.558355   1.000000
    346        -17.556757   1.000000
    347        -17.554539   1.000000
    348        -17.554320   1.000000
    349        -17.552247   1.000000
    350        -17.548910   1.000000
    351        -17.547639   1.000000
    352        -17.546666   1.000000
    353        -17.544863   1.000000
    354        -17.537536   1.000000
    355        -17.537068   1.000000
    356        -17.536232   1.000000
    357        -17.535365   1.000000
    358        -17.533042   1.000000
    359        -17.531471   1.000000
    360        -17.526943   1.000000
    361        -17.525161   1.000000
    362        -17.522423   1.000000
    363        -17.520518   1.000000
    364        -17.517445   1.000000
    365        -17.516104   1.000000
    366        -17.514954   1.000000
    367        -17.513069   1.000000
    368        -17.512332   1.000000
    369        -17.509700   1.000000
    370        -17.494243   1.000000
    371        -17.491609   1.000000
    372        -17.491272   1.000000
    373        -17.489867   1.000000
    374        -17.488947   1.000000
    375        -17.485684   1.000000
    376        -17.482432   1.000000
    377        -17.470562   1.000000
    378        -17.467673   1.000000
    379        -17.466676   1.000000
    380        -17.461457   1.000000
    381        -17.449150   1.000000
    382        -17.447416   1.000000
    383        -17.443333   1.000000
    384        -17.430787   1.000000
    385          2.450810   1.000000
    386          3.670761   1.000000
    387          4.025221   1.000000
    388          4.104747   1.000000
    389          4.442556   1.000000
    390          4.506296   1.000000
    391          4.791307   1.000000
    392          4.793386   1.000000
    393          4.794124   1.000000
    394          4.900078   1.000000
    395          5.089229   1.000000
    396          5.154875   1.000000
    397          5.621480   1.000000
    398          5.623013   1.000000
    399          5.625672   1.000000
    400          5.656066   1.000000
    401          5.712231   1.000000
    402          5.789558   1.000000
    403          5.813272   1.000000
    404          5.914387   1.000000
    405          5.916804   1.000000
    406          5.920769   1.000000
    407          5.931369   1.000000
    408          5.961952   1.000000
    409          5.975172   1.000000
    410          5.985914   1.000000
    411          5.990007   1.000000
    412          5.993361   1.000000
    413          6.019578   1.000000
    414          6.049265   1.000000
    415          6.077583   1.000000
    416          6.173301   1.000000
    417          6.177501   1.000000
    418          6.179511   1.000000
    419          6.180541   1.000000
    420          6.181846   1.000000
    421          6.188572   1.000000
    422          6.214597   1.000000
    423          6.216587   1.000000
    424          6.234781   1.000000
    425          6.253582   1.000000
    426          6.282750   1.000000
    427          6.310802   1.000000
    428          6.312869   1.000000
    429          6.314753   1.000000
    430          6.423061   1.000000
    431          6.484890   1.000000
    432          6.489518   1.000000
    433          6.492274   1.000000
    434          6.508566   1.000000
    435          6.554132   1.000000
    436          6.570641   1.000000
    437          6.583176   1.000000
    438          6.585593   1.000000
    439          6.588955   1.000000
    440          6.625363   1.000000
    441          6.692906   1.000000
    442          6.693721   1.000000
    443          6.699133   1.000000
    444          6.703886   1.000000
    445          6.706641   1.000000
    446          6.712356   1.000000
    447          6.726834   1.000000
    448          6.746217   1.000000
    449          6.749527   1.000000
    450          6.783064   1.000000
    451          6.804602   1.000000
    452          6.810887   1.000000
    453          6.814371   1.000000
    454          6.826338   1.000000
    455          6.844728   1.000000
    456          6.872623   1.000000
    457          6.877351   1.000000
    458          6.881866   1.000000
    459          6.884689   1.000000
    460          6.898263   1.000000
    461          6.915633   1.000000
    462          6.918839   1.000000
    463          6.920703   1.000000
    464          6.945337   1.000000
    465          6.955411   1.000000
    466          6.963561   1.000000
    467          6.996640   1.000000
    468          6.997858   1.000000
    469          6.998328   1.000000
    470          7.000265   1.000000
    471          7.001974   1.000000
    472          7.061926   1.000000
    473          7.080978   1.000000
    474          7.084378   1.000000
    475          7.085817   1.000000
    476          7.087743   1.000000
    477          7.090043   1.000000
    478          7.127277   1.000000
    479          7.132830   1.000000
    480          7.153492   1.000000
    481          7.206880   1.000000
    482          7.208415   1.000000
    483          7.218792   1.000000
    484          7.288410   1.000000
    485          7.311631   1.000000
    486          7.318373   1.000000
    487          7.405117   1.000000
    488          7.419011   1.000000
    489          7.490992   1.000000
    490          7.520174   1.000000
    491          7.542821   1.000000
    492          7.612334   1.000000
    493          7.616860   1.000000
    494          7.623590   1.000000
    495          7.625000   1.000000
    496          7.628734   1.000000
    497          7.630286   1.000000
    498          7.634194   1.000000
    499          7.636956   1.000000
    500          7.639695   1.000000
    501          7.644325   1.000000
    502          7.645680   1.000000
    503          7.661338   1.000000
    504          7.699755   1.000000
    505          7.716727   1.000000
    506          7.732483   1.000000
    507          7.739427   1.000000
    508          7.741774   1.000000
    509          7.744339   1.000000
    510          7.747761   1.000000
    511          7.750612   1.000000
    512          7.753433   1.000000
    513          7.754576   1.000000
    514          7.774004   1.000000
    515          7.776535   1.000000
    516          7.779353   1.000000
    517          7.800098   1.000000
    518          7.824463   1.000000
    519          7.824678   1.000000
    520          7.900392   1.000000
    521          7.913108   1.000000
    522          7.913683   1.000000
    523          7.941576   1.000000
    524          8.042191   1.000000
    525          8.082587   1.000000
    526          8.092025   1.000000
    527          8.118283   1.000000
    528          8.132648   1.000000
    529          8.170359   1.000000
    530          8.183667   1.000000
    531          8.185385   1.000000
    532          8.196914   1.000001
    533          8.210951   1.000001
    534          8.212171   1.000001
    535          8.212820   1.000001
    536          8.220647   1.000001
    537          8.228357   1.000002
    538          8.231093   1.000002
    539          8.236267   1.000002
    540          8.239422   1.000002
    541          8.240228   1.000002
    542          8.288890   1.000012
    543          8.337966   1.000054
    544          8.341536   1.000059
    545          8.343024   1.000062
    546          8.351642   1.000079
    547          8.363519   1.000111
    548          8.370459   1.000134
    549          8.373510   1.000145
    550          8.376570   1.000158
    551          8.378998   1.000168
    552          8.384091   1.000193
    553          8.384489   1.000195
    554          8.387980   1.000214
    555          8.391363   1.000234
    556          8.396546   1.000267
    557          8.399104   1.000285
    558          8.405259   1.000334
    559          8.406248   1.000342
    560          8.494326   1.002536
    561          8.503274   1.003030
    562          8.507428   1.003285
    563          8.566650   1.009250
    564          8.582381   1.011709
    565          8.739637   1.032070
    566          8.750725   1.028271
    567          8.757207   1.025249
    568          8.760592   1.023414
    569          8.764658   1.020966
    570          8.772888   1.015145
    571          8.866148   0.845261
    572          8.896627   0.744611
    573          8.903522   0.719220
    574          8.907159   0.705488
    575          8.927271   0.626065
    576          8.932084   0.606346
    577          8.941393   0.567665
    578          8.951484   0.525196
    579          9.009811   0.286605
    580          9.027725   0.221986
    581          9.058186   0.127864
    582          9.065410   0.108810
    583          9.071203   0.094475
    584          9.078656   0.077278
    585          9.082037   0.069941
    586          9.084377   0.065032
    587          9.088291   0.057126
    588          9.091665   0.050618
    589          9.125273   0.000602
    590          9.175086  -0.032026
    591          9.179745  -0.033165
    592          9.185408  -0.034214
    593          9.195752  -0.035280
    594          9.199501  -0.035425
    595          9.208416  -0.035324
    596          9.213466  -0.035020
    597          9.219026  -0.034508
    598          9.223433  -0.033985
    599          9.226015  -0.033636
    600          9.228103  -0.033333
    601          9.228612  -0.033256
    602          9.239711  -0.031350
    603          9.293697  -0.019370
    604          9.312864  -0.015327
    605          9.316478  -0.014617
    606          9.329377  -0.012245
    607          9.333795  -0.011492
    608          9.342474  -0.010105
    609          9.355540  -0.008243
    610          9.359611  -0.007718
    611          9.373712  -0.006093
    612          9.378385  -0.005617
    613          9.380120  -0.005449
    614          9.444155  -0.001550
    615          9.448013  -0.001426
    616          9.467902  -0.000914
    617          9.483570  -0.000633
    618          9.490896  -0.000531
    619          9.513649  -0.000301
    620          9.540337  -0.000149
    621          9.547918  -0.000122
    622          9.558509  -0.000091
    623          9.559751  -0.000088
    624          9.565003  -0.000075
    625          9.575062  -0.000057
    626          9.581968  -0.000046
    627          9.587096  -0.000040
    628          9.598264  -0.000029
    629          9.598864  -0.000028
    630          9.606817  -0.000022
    631          9.611624  -0.000019
    632          9.613405  -0.000018
    633          9.624430  -0.000013
    634          9.625822  -0.000012
    635          9.629321  -0.000011
    636          9.634545  -0.000009
    637          9.637143  -0.000008
    638          9.640796  -0.000008
    639          9.643819  -0.000007
    640          9.645378  -0.000006
    641          9.650030  -0.000006
    642          9.656705  -0.000004
    643          9.666317  -0.000003
    644          9.671858  -0.000003
    645          9.809564  -0.000000
    646          9.816580  -0.000000
    647          9.838268  -0.000000
    648          9.841344  -0.000000
    649          9.847893  -0.000000
    650          9.853521  -0.000000
    651          9.883410  -0.000000
    652          9.891677  -0.000000
    653          9.902249  -0.000000
    654          9.908021  -0.000000
    655          9.909689  -0.000000
    656          9.920210  -0.000000
    657          9.921188  -0.000000
    658          9.929860  -0.000000
    659          9.936464  -0.000000
    660          9.941293  -0.000000
    661          9.950302  -0.000000
    662          9.951290  -0.000000
    663         10.010652  -0.000000
    664         10.019954  -0.000000
    665         10.022147  -0.000000
    666         10.030968  -0.000000
    667         10.036881  -0.000000
    668         10.039050  -0.000000
    669         10.095371  -0.000000
    670         10.111280  -0.000000
    671         10.118238  -0.000000
    672         10.123608  -0.000000
    673         10.126994  -0.000000
    674         10.128805  -0.000000
    675         10.132712  -0.000000
    676         10.154861  -0.000000
    677         10.169859  -0.000000
    678         10.176762  -0.000000
    679         10.182140  -0.000000
    680         10.193038  -0.000000
    681         10.205714  -0.000000
    682         10.211370  -0.000000
    683         10.214408  -0.000000
    684         10.226402  -0.000000
    685         10.230956  -0.000000
    686         10.233379  -0.000000
    687         10.292237  -0.000000
    688         10.317295  -0.000000
    689         10.322874  -0.000000
    690         10.327266  -0.000000
    691         10.337392  -0.000000
 
  0.0000000E+00  0.0000000E+00  0.3333333E+00  0.4166667E-01
      1        -39.911786   1.000000
      2        -39.893138   1.000000
      3        -39.874201   1.000000
      4        -39.856004   1.000000
      5        -39.854198   1.000000
      6        -39.854015   1.000000
      7        -39.842337   1.000000
      8        -39.837234   1.000000
      9        -39.837199   1.000000
     10        -39.837017   1.000000
     11        -39.833226   1.000000
     12        -39.832981   1.000000
     13        -39.828790   1.000000
     14        -39.827553   1.000000
     15        -39.827536   1.000000
     16        -39.826007   1.000000
     17        -39.814715   1.000000
     18        -39.809187   1.000000
     19        -39.808964   1.000000
     20        -39.803957   1.000000
     21        -39.796932   1.000000
     22        -39.796775   1.000000
     23        -39.794673   1.000000
     24        -39.789209   1.000000
     25        -39.789144   1.000000
     26        -39.788640   1.000000
     27        -39.779760   1.000000
     28        -39.779563   1.000000
     29        -39.776203   1.000000
     30        -39.774302   1.000000
     31        -39.770358   1.000000
     32        -39.770209   1.000000
     33        -39.767314   1.000000
     34        -39.767137   1.000000
     35        -39.766737   1.000000
     36        -39.766622   1.000000
     37        -39.765883   1.000000
     38        -39.765848   1.000000
     39        -39.765786   1.000000
     40        -39.764272   1.000000
     41        -39.764169   1.000000
     42        -39.763480   1.000000
     43        -39.762315   1.000000
     44        -39.762275   1.000000
     45        -39.760753   1.000000
     46        -39.760572   1.000000
     47        -39.760422   1.000000
     48        -39.758910   1.000000
     49        -39.756627   1.000000
     50        -39.754057   1.000000
     51        -39.753836   1.000000
     52        -39.753614   1.000000
     53        -39.749523   1.000000
     54        -39.749458   1.000000
     55        -39.748175   1.000000
     56        -39.747908   1.000000
     57        -39.747838   1.000000
     58        -39.745905   1.000000
     59        -39.745746   1.000000
     60        -39.745263   1.000000
     61        -39.742687   1.000000
     62        -39.742661   1.000000
     63        -39.742346   1.000000
     64        -39.740136   1.000000
     65        -39.739495   1.000000
     66        -39.739438   1.000000
     67        -39.737363   1.000000
     68        -39.737280   1.000000
     69        -39.736697   1.000000
     70        -39.736618   1.000000
     71        -39.736413   1.000000
     72        -39.734334   1.000000
     73        -39.733943   1.000000
     74        -39.733585   1.000000
     75        -39.733564   1.000000
     76        -39.730399   1.000000
     77        -39.730266   1.000000
     78        -39.729700   1.000000
     79        -39.727601   1.000000
     80        -39.725243   1.000000
     81        -39.725085   1.000000
     82        -39.723222   1.000000
     83        -39.722774   1.000000
     84        -39.722589   1.000000
     85        -39.722551   1.000000
     86        -39.721326   1.000000
     87        -39.721256   1.000000
     88        -39.720845   1.000000
     89        -39.718570   1.000000
     90        -39.718447   1.000000
     91        -39.715812   1.000000
     92        -39.715588   1.000000
     93        -39.709036   1.000000
     94        -39.709011   1.000000
     95        -39.706061   1.000000
     96        -39.704290   1.000000
     97        -18.390525   1.000000
     98        -18.350469   1.000000
     99        -18.328486   1.000000
    100        -18.328448   1.000000
    101        -18.318492   1.000000
    102        -18.310470   1.000000
    103        -18.310464   1.000000
    104        -18.308997   1.000000
    105        -18.300035   1.000000
    106        -18.294652   1.000000
    107        -18.294594   1.000000
    108        -18.275708   1.000000
    109        -18.270387   1.000000
    110        -18.270349   1.000000
    111        -18.249105   1.000000
    112        -18.240280   1.000000
    113        -18.240271   1.000000
    114        -18.234618   1.000000
    115        -18.234537   1.000000
    116        -18.233343   1.000000
    117        -18.229570   1.000000
    118        -18.217093   1.000000
    119        -18.216954   1.000000
    120        -18.216326   1.000000
    121        -18.213920   1.000000
    122        -18.213897   1.000000
    123        -18.212979   1.000000
    124        -18.211261   1.000000
    125        -18.211224   1.000000
    126        -18.207918   1.000000
    127        -18.207874   1.000000
    128        -18.206323   1.000000
    129        -18.198792   1.000000
    130        -18.197012   1.000000
    131        -18.196977   1.000000
    132        -18.196171   1.000000
    133        -18.193856   1.000000
    134        -18.193789   1.000000
    135        -18.177513   1.000000
    136        -18.170357   1.000000
    137        -18.170193   1.000000
    138        -18.166628   1.000000
    139        -18.166619   1.000000
    140        -18.165381   1.000000
    141        -18.163397   1.000000
    142        -18.160123   1.000000
    143        -18.160021   1.000000
    144        -18.130427   1.000000
    145        -18.129995   1.000000
    146        -18.129964   1.000000
    147        -18.125498   1.000000
    148        -18.125483   1.000000
    149        -18.124456   1.000000
    150        -18.117629   1.000000
    151        -18.112074   1.000000
    152        -18.112001   1.000000
    153        -18.108214   1.000000
    154        -18.108160   1.000000
    155        -18.107658   1.000000
    156        -18.104825   1.000000
    157        -18.104720   1.000000
    158        -18.104551   1.000000
    159        -18.102883   1.000000
    160        -18.101593   1.000000
    161        -18.101579   1.000000
    162        -18.099886   1.000000
    163        -18.099877   1.000000
    164        -18.099017   1.000000
    165        -18.098445   1.000000
    166        -18.096408   1.000000
    167        -18.096398   1.000000
    168        -18.095802   1.000000
    169        -18.093990   1.000000
    170        -18.093950   1.000000
    171        -18.030323   1.000000
    172        -18.027449   1.000000
    173        -18.027403   1.000000
    174        -18.025472   1.000000
    175        -18.019375   1.000000
    176        -18.019266   1.000000
    177        -18.017249   1.000000
    178        -17.960265   1.000000
    179        -17.951782   1.000000
    180        -17.951626   1.000000
    181        -17.924883   1.000000
    182        -17.924610   1.000000
    183        -17.923230   1.000000
    184        -17.914337   1.000000
    185        -17.914308   1.000000
    186        -17.912023   1.000000
    187        -17.910031   1.000000
    188        -17.910026   1.000000
    189        -17.894690   1.000000
    190        -17.891480   1.000000
    191        -17.891413   1.000000
    192        -17.885445   1.000000
    193        -17.885427   1.000000
    194        -17.884899   1.000000
    195        -17.884876   1.000000
    196        -17.882247   1.000000
    197        -17.881257   1.000000
    198        -17.881215   1.000000
    199        -17.877785   1.000000
    200        -17.877474   1.000000
    201        -17.877390   1.000000
    202        -17.874466   1.000000
    203        -17.873797   1.000000
    204        -17.873475   1.000000
    205        -17.869013   1.000000
    206        -17.866701   1.000000
    207        -17.866633   1.000000
    208        -17.863907   1.000000
    209        -17.863897   1.000000
    210        -17.857992   1.000000
    211        -17.856875   1.000000
    212        -17.853536   1.000000
    213        -17.853526   1.000000
    214        -17.853284   1.000000
    215        -17.851993   1.000000
    216        -17.851864   1.000000
    217        -17.851733   1.000000
    218        -17.850206   1.000000
    219        -17.847197   1.000000
    220        -17.847123   1.000000
    221        -17.837433   1.000000
    222        -17.837371   1.000000
    223        -17.833985   1.000000
    224        -17.829137   1.000000
    225        -17.829039   1.000000
    226        -17.826364   1.000000
    227        -17.826271   1.000000
    228        -17.825584   1.000000
    229        -17.820827   1.000000
    230        -17.820766   1.000000
    231        -17.817423   1.000000
    232        -17.817323   1.000000
    233        -17.814260   1.000000
    234        -17.814186   1.000000
    235        -17.810375   1.000000
    236        -17.810320   1.000000
    237        -17.810230   1.000000
    238        -17.806800   1.000000
    239        -17.788910   1.000000
    240        -17.788829   1.000000
    241        -17.784328   1.000000
    242        -17.784208   1.000000
    243        -17.784122   1.000000
    244        -17.779572   1.000000
    245        -17.756846   1.000000
    246        -17.756799   1.000000
    247        -17.753759   1.000000
    248        -17.737322   1.000000
    249        -17.737253   1.000000
    250        -17.734020   1.000000
    251        -17.717221   1.000000
    252        -17.717209   1.000000
    253        -17.714798   1.000000
    254        -17.701343   1.000000
    255        -17.701218   1.000000
    256        -17.697473   1.000000
    257        -17.693672   1.000000
    258        -17.691578   1.000000
    259        -17.691574   1.000000
    260        -17.690607   1.000000
    261        -17.690603   1.000000
    262        -17.690410   1.000000
    263        -17.687332   1.000000
    264        -17.687196   1.000000
    265        -17.686231   1.000000
    266        -17.685968   1.000000
    267        -17.685727   1.000000
    268        -17.685670   1.000000
    269        -17.684263   1.000000
    270        -17.680683   1.000000
    271        -17.680682   1.000000
    272        -17.680459   1.000000
    273        -17.667793   1.000000
    274        -17.667718   1.000000
    275        -17.666051   1.000000
    276        -17.661410   1.000000
    277        -17.661274   1.000000
    278        -17.660667   1.000000
    279        -17.659380   1.000000
    280        -17.659204   1.000000
    281        -17.656287   1.000000
    282        -17.656157   1.000000
    283        -17.653661   1.000000
    284        -17.652863   1.000000
    285        -17.651970   1.000000
    286        -17.651904   1.000000
    287        -17.646617   1.000000
    288        -17.645592   1.000000
    289        -17.645544   1.000000
    290        -17.644768   1.000000
    291        -17.642105   1.000000
    292        -17.641960   1.000000
    293        -17.639974   1.000000
    294        -17.639577   1.000000
    295        -17.639550   1.000000
    296        -17.639227   1.000000
    297        -17.639038   1.000000
    298        -17.638519   1.000000
    299        -17.634548   1.000000
    300        -17.634213   1.000000
    301        -17.634157   1.000000
    302        -17.626632   1.000000
    303        -17.626607   1.000000
    304        -17.622773   1.000000
    305        -17.620545   1.000000
    306        -17.620541   1.000000
    307        -17.620426   1.000000
    308        -17.616941   1.000000
    309        -17.616550   1.000000
    310        -17.616481   1.000000
    311        -17.615528   1.000000
    312        -17.615487   1.000000
    313        -17.613461   1.000000
    314        -17.612302   1.000000
    315        -17.612178   1.000000
    316        -17.612139   1.000000
    317        -17.601507   1.000000
    318        -17.598494   1.000000
    319        -17.598441   1.000000
    320        -17.596518   1.000000
    321        -17.596433   1.000000
    322        -17.596353   1.000000
    323        -17.587804   1.000000
    324        -17.587481   1.000000
    325        -17.587431   1.000000
    326        -17.584082   1.000000
    327        -17.583966   1.000000
    328        -17.579927   1.000000
    329        -17.579884   1.000000
    330        -17.579598   1.000000
    331        -17.578113   1.000000
    332        -17.576808   1.000000
    333        -17.576448   1.000000
    334        -17.576438   1.000000
    335        -17.558417   1.000000
    336        -17.558338   1.000000
    337        -17.556495   1.000000
    338        -17.555735   1.000000
    339        -17.555284   1.000000
    340        -17.555203   1.000000
    341        -17.551318   1.000000
    342        -17.551265   1.000000
    343        -17.550200   1.000000
    344        -17.547995   1.000000
    345        -17.547907   1.000000
    346        -17.542953   1.000000
    347        -17.539550   1.000000
    348        -17.539520   1.000000
    349        -17.537234   1.000000
    350        -17.534383   1.000000
    351        -17.534353   1.000000
    352        -17.531006   1.000000
    353        -17.530863   1.000000
    354        -17.530754   1.000000
    355        -17.526192   1.000000
    356        -17.525220   1.000000
    357        -17.525138   1.000000
    358        -17.518822   1.000000
    359        -17.515180   1.000000
    360        -17.515022   1.000000
    361        -17.510697   1.000000
    362        -17.508202   1.000000
    363        -17.508195   1.000000
    364        -17.501751   1.000000
    365        -17.501711   1.000000
    366        -17.495763   1.000000
    367        -17.494773   1.000000
    368        -17.494713   1.000000
    369        -17.491230   1.000000
    370        -17.491098   1.000000
    371        -17.486007   1.000000
    372        -17.479265   1.000000
    373        -17.479181   1.000000
    374        -17.477931   1.000000
    375        -17.475308   1.000000
    376        -17.475196   1.000000
    377        -17.471241   1.000000
    378        -17.471185   1.000000
    379        -17.466654   1.000000
    380        -17.460273   1.000000
    381        -17.433974   1.000000
    382        -17.433964   1.000000
    383        -17.422177   1.000000
    384        -17.422170   1.000000
    385          2.435953   1.000000
    386          3.465738   1.000000
    387          3.772083   1.000000
    388          4.723762   1.000000
    389          4.878801   1.000000
    390          4.878946   1.000000
    391          4.883056   1.000000
    392          4.883058   1.000000
    393          4.886033   1.000000
    394          4.958577   1.000000
    395          5.075792   1.000000
    396          5.075946   1.000000
    397          5.080008   1.000000
    398          5.080014   1.000000
    399          5.083094   1.000000
    400          5.208705   1.000000
    401          5.347639   1.000000
    402          5.799432   1.000000
    403          5.799563   1.000000
    404          5.804654   1.000000
    405          5.804687   1.000000
    406          5.807711   1.000000
    407          5.835566   1.000000
    408          5.879757   1.000000
    409          5.935456   1.000000
    410          5.977072   1.000000
    411          5.977126   1.000000
    412          5.982258   1.000000
    413          5.998137   1.000000
    414          5.998165   1.000000
    415          6.045742   1.000000
    416          6.196266   1.000000
    417          6.199768   1.000000
    418          6.199825   1.000000
    419          6.208254   1.000000
    420          6.208273   1.000000
    421          6.228811   1.000000
    422          6.266974   1.000000
    423          6.267054   1.000000
    424          6.272930   1.000000
    425          6.272979   1.000000
    426          6.276088   1.000000
    427          6.352794   1.000000
    428          6.426820   1.000000
    429          6.426824   1.000000
    430          6.448862   1.000000
    431          6.480330   1.000000
    432          6.480363   1.000000
    433          6.519168   1.000000
    434          6.794220   1.000000
    435          6.795214   1.000000
    436          6.795331   1.000000
    437          6.798532   1.000000
    438          6.801520   1.000000
    439          6.801821   1.000000
    440          6.814386   1.000000
    441          6.815846   1.000000
    442          6.815929   1.000000
    443          6.818970   1.000000
    444          6.819119   1.000000
    445          6.828380   1.000000
    446          6.838869   1.000000
    447          6.839095   1.000000
    448          6.841407   1.000000
    449          6.843261   1.000000
    450          6.845822   1.000000
    451          6.845927   1.000000
    452          6.851381   1.000000
    453          6.851476   1.000000
    454          6.852961   1.000000
    455          6.853322   1.000000
    456          6.853528   1.000000
    457          6.904630   1.000000
    458          6.953345   1.000000
    459          6.953364   1.000000
    460          6.954999   1.000000
    461          6.956329   1.000000
    462          6.956507   1.000000
    463          6.957421   1.000000
    464          6.957556   1.000000
    465          6.962273   1.000000
    466          6.962624   1.000000
    467          6.963418   1.000000
    468          6.964027   1.000000
    469          6.965698   1.000000
    470          6.965887   1.000000
    471          6.966971   1.000000
    472          6.970691   1.000000
    473          6.970838   1.000000
    474          6.978615   1.000000
    475          7.008380   1.000000
    476          7.008659   1.000000
    477          7.009551   1.000000
    478          7.016690   1.000000
    479          7.017515   1.000000
    480          7.017547   1.000000
    481          7.144497   1.000000
    482          7.169110   1.000000
    483          7.169353   1.000000
    484          7.361518   1.000000
    485          7.588359   1.000000
    486          7.588597   1.000000
    487          7.591014   1.000000
    488          7.591061   1.000000
    489          7.596641   1.000000
    490          7.605125   1.000000
    491          7.668950   1.000000
    492          7.669643   1.000000
    493          7.679653   1.000000
    494          7.680015   1.000000
    495          7.680288   1.000000
    496          7.683861   1.000000
    497          7.684261   1.000000
    498          7.686445   1.000000
    499          7.702509   1.000000
    500          7.725948   1.000000
    501          7.732963   1.000000
    502          7.733042   1.000000
    503          7.739568   1.000000
    504          7.739748   1.000000
    505          7.742105   1.000000
    506          7.778320   1.000000
    507          7.780861   1.000000
    508          7.780866   1.000000
    509          7.787187   1.000000
    510          7.787722   1.000000
    511          7.792604   1.000000
    512          7.793527   1.000000
    513          7.793980   1.000000
    514          7.871925   1.000000
    515          7.906248   1.000000
    516          7.906335   1.000000
    517          7.912634   1.000000
    518          7.932229   1.000000
    519          7.932534   1.000000
    520          7.935680   1.000000
    521          7.939798   1.000000
    522          7.939916   1.000000
    523          7.946067   1.000000
    524          7.993822   1.000000
    525          7.993973   1.000000
    526          8.000709   1.000000
    527          8.031177   1.000000
    528          8.031427   1.000000
    529          8.032200   1.000000
    530          8.034057   1.000000
    531          8.034272   1.000000
    532          8.040110   1.000000
    533          8.040381   1.000000
    534          8.040587   1.000000
    535          8.045337   1.000000
    536          8.045470   1.000000
    537          8.046821   1.000000
    538          8.120181   1.000000
    539          8.135121   1.000000
    540          8.135179   1.000000
    541          8.138923   1.000000
    542          8.142909   1.000000
    543          8.143267   1.000000
    544          8.291047   1.000013
    545          8.364271   1.000113
    546          8.364359   1.000113
    547          8.371838   1.000139
    548          8.372078   1.000140
    549          8.381072   1.000178
    550          8.384534   1.000195
    551          8.388326   1.000216
    552          8.388505   1.000217
    553          8.424154   1.000533
    554          8.444739   1.000868
    555          8.445008   1.000873
    556          8.456847   1.001143
    557          8.456986   1.001146
    558          8.460129   1.001229
    559          8.464965   1.001368
    560          8.466044   1.001400
    561          8.466458   1.001413
    562          8.471877   1.001589
    563          8.475798   1.001728
    564          8.476117   1.001740
    565          8.536608   1.005628
    566          8.537042   1.005671
    567          8.537275   1.005694
    568          8.549591   1.007028
    569          8.549823   1.007055
    570          8.562086   1.008611
    571          8.711328   1.035453
    572          8.734916   1.033213
    573          8.735301   1.033130
    574          8.735623   1.033059
    575          8.741564   1.031525
    576          8.741632   1.031505
    577          8.924167   0.638659
    578          8.953837   0.515248
    579          9.002873   0.313155
    580          9.003126   0.312173
    581          9.003499   0.310726
    582          9.007937   0.293701
    583          9.007943   0.293679
    584          9.059554   0.124158
    585          9.110783   0.018968
    586          9.112821   0.016101
    587          9.113200   0.015579
    588          9.114800   0.013408
    589          9.117083   0.010413
    590          9.118093   0.009124
    591          9.181104  -0.033449
    592          9.190160  -0.034832
    593          9.191038  -0.034922
    594          9.191307  -0.034948
    595          9.193389  -0.035126
    596          9.194254  -0.035188
    597          9.219782  -0.034425
    598          9.220247  -0.034373
    599          9.234193  -0.032350
    600          9.237384  -0.031783
    601          9.237603  -0.031743
    602          9.249048  -0.029476
    603          9.272595  -0.024188
    604          9.277551  -0.023041
    605          9.282866  -0.021816
    606          9.283238  -0.021731
    607          9.296221  -0.018814
    608          9.296574  -0.018737
    609          9.300749  -0.017832
    610          9.300946  -0.017790
    611          9.305026  -0.016927
    612          9.309082  -0.016088
    613          9.309568  -0.015989
    614          9.318856  -0.014161
    615          9.439902  -0.001698
    616          9.496929  -0.000458
    617          9.497398  -0.000453
    618          9.520256  -0.000254
    619          9.529257  -0.000201
    620          9.529730  -0.000198
    621          9.535884  -0.000168
    622          9.537821  -0.000160
    623          9.537824  -0.000160
    624          9.542597  -0.000141
    625          9.543461  -0.000137
    626          9.544332  -0.000134
    627          9.559282  -0.000089
    628          9.579615  -0.000050
    629          9.579942  -0.000049
    630          9.583357  -0.000044
    631          9.612724  -0.000018
    632          9.620285  -0.000014
    633          9.625301  -0.000012
    634          9.625761  -0.000012
    635          9.631230  -0.000010
    636          9.647612  -0.000006
    637          9.647658  -0.000006
    638          9.659998  -0.000004
    639          9.660249  -0.000004
    640          9.665777  -0.000003
    641          9.665939  -0.000003
    642          9.752303  -0.000000
    643          9.752407  -0.000000
    644          9.794159  -0.000000
    645          9.794419  -0.000000
    646          9.835146  -0.000000
    647          9.835281  -0.000000
    648          9.842364  -0.000000
    649          9.846901  -0.000000
    650          9.876577  -0.000000
    651         10.019923  -0.000000
    652         10.039014  -0.000000
    653         10.039712  -0.000000
    654         10.062803  -0.000000
    655         10.063192  -0.000000
    656         10.072930  -0.000000
    657         10.085482  -0.000000
    658         10.086265  -0.000000
    659         10.095904  -0.000000
    660         10.105846  -0.000000
    661         10.107052  -0.000000
    662         10.107277  -0.000000
    663         10.142839  -0.000000
    664         10.143953  -0.000000
    665         10.146837  -0.000000
    666         10.157127  -0.000000
    667         10.157556  -0.000000
    668         10.163062  -0.000000
    669         10.163377  -0.000000
    670         10.163600  -0.000000
    671         10.179465  -0.000000
    672         10.179968  -0.000000
    673         10.182733  -0.000000
    674         10.183248  -0.000000
    675         10.185737  -0.000000
    676         10.185957  -0.000000
    677         10.192606  -0.000000
    678         10.192608  -0.000000
    679         10.193328  -0.000000
    680         10.194327  -0.000000
    681         10.194635  -0.000000
    682         10.195372  -0.000000
    683         10.199515  -0.000000
    684         10.201414  -0.000000
    685         10.201542  -0.000000
    686         10.213555  -0.000000
    687         10.223621  -0.000000
    688         10.223655  -0.000000
    689         10.225086  -0.000000
    690         10.239315  -0.000000
    691         10.241395  -0.000000
 
  0.2500000E+00 -0.8988716E-17  0.3333333E+00  0.4166667E-01
      1        -39.909664   1.000000
      2        -39.889888   1.000000
      3        -39.875395   1.000000
      4        -39.864817   1.000000
      5        -39.856691   1.000000
      6        -39.855644   1.000000
      7        -39.849033   1.000000
      8        -39.844112   1.000000
      9        -39.841760   1.000000
     10        -39.837887   1.000000
     11        -39.832274   1.000000
     12        -39.828339   1.000000
     13        -39.824180   1.000000
     14        -39.818429   1.000000
     15        -39.818206   1.000000
     16        -39.815940   1.000000
     17        -39.810704   1.000000
     18        -39.808335   1.000000
     19        -39.806965   1.000000
     20        -39.802991   1.000000
     21        -39.801412   1.000000
     22        -39.798061   1.000000
     23        -39.793886   1.000000
     24        -39.789243   1.000000
     25        -39.787197   1.000000
     26        -39.784484   1.000000
     27        -39.783607   1.000000
     28        -39.783107   1.000000
     29        -39.779807   1.000000
     30        -39.778512   1.000000
     31        -39.776818   1.000000
     32        -39.773710   1.000000
     33        -39.773644   1.000000
     34        -39.772480   1.000000
     35        -39.769255   1.000000
     36        -39.766884   1.000000
     37        -39.766272   1.000000
     38        -39.766213   1.000000
     39        -39.765494   1.000000
     40        -39.764681   1.000000
     41        -39.764287   1.000000
     42        -39.762011   1.000000
     43        -39.761731   1.000000
     44        -39.760915   1.000000
     45        -39.759621   1.000000
     46        -39.758516   1.000000
     47        -39.757769   1.000000
     48        -39.754052   1.000000
     49        -39.753697   1.000000
     50        -39.753444   1.000000
     51        -39.751903   1.000000
     52        -39.751124   1.000000
     53        -39.750146   1.000000
     54        -39.749825   1.000000
     55        -39.748655   1.000000
     56        -39.748185   1.000000
     57        -39.747168   1.000000
     58        -39.746987   1.000000
     59        -39.745818   1.000000
     60        -39.745336   1.000000
     61        -39.744166   1.000000
     62        -39.743006   1.000000
     63        -39.742141   1.000000
     64        -39.742001   1.000000
     65        -39.739501   1.000000
     66        -39.738761   1.000000
     67        -39.738711   1.000000
     68        -39.737452   1.000000
     69        -39.736357   1.000000
     70        -39.735979   1.000000
     71        -39.734930   1.000000
     72        -39.733021   1.000000
     73        -39.732838   1.000000
     74        -39.732347   1.000000
     75        -39.731823   1.000000
     76        -39.730549   1.000000
     77        -39.729895   1.000000
     78        -39.728344   1.000000
     79        -39.726849   1.000000
     80        -39.725801   1.000000
     81        -39.725222   1.000000
     82        -39.723814   1.000000
     83        -39.723711   1.000000
     84        -39.722890   1.000000
     85        -39.722592   1.000000
     86        -39.722000   1.000000
     87        -39.721500   1.000000
     88        -39.721045   1.000000
     89        -39.718686   1.000000
     90        -39.718654   1.000000
     91        -39.715712   1.000000
     92        -39.715666   1.000000
     93        -39.709207   1.000000
     94        -39.709007   1.000000
     95        -39.706411   1.000000
     96        -39.704522   1.000000
     97        -18.379765   1.000000
     98        -18.338026   1.000000
     99        -18.315529   1.000000
    100        -18.311065   1.000000
    101        -18.304938   1.000000
    102        -18.299942   1.000000
    103        -18.297270   1.000000
    104        -18.296900   1.000000
    105        -18.292673   1.000000
    106        -18.286033   1.000000
    107        -18.282387   1.000000
    108        -18.275092   1.000000
    109        -18.264356   1.000000
    110        -18.261668   1.000000
    111        -18.259040   1.000000
    112        -18.256092   1.000000
    113        -18.250194   1.000000
    114        -18.245249   1.000000
    115        -18.238936   1.000000
    116        -18.236878   1.000000
    117        -18.227660   1.000000
    118        -18.223050   1.000000
    119        -18.219275   1.000000
    120        -18.218900   1.000000
    121        -18.214026   1.000000
    122        -18.211124   1.000000
    123        -18.210921   1.000000
    124        -18.206027   1.000000
    125        -18.205937   1.000000
    126        -18.204975   1.000000
    127        -18.204518   1.000000
    128        -18.202194   1.000000
    129        -18.201993   1.000000
    130        -18.199519   1.000000
    131        -18.199211   1.000000
    132        -18.197676   1.000000
    133        -18.196392   1.000000
    134        -18.184668   1.000000
    135        -18.182806   1.000000
    136        -18.180628   1.000000
    137        -18.176150   1.000000
    138        -18.172099   1.000000
    139        -18.171011   1.000000
    140        -18.169080   1.000000
    141        -18.168980   1.000000
    142        -18.164970   1.000000
    143        -18.161790   1.000000
    144        -18.156808   1.000000
    145        -18.154218   1.000000
    146        -18.147419   1.000000
    147        -18.141220   1.000000
    148        -18.139287   1.000000
    149        -18.137180   1.000000
    150        -18.136463   1.000000
    151        -18.129967   1.000000
    152        -18.129618   1.000000
    153        -18.123004   1.000000
    154        -18.118564   1.000000
    155        -18.118136   1.000000
    156        -18.114505   1.000000
    157        -18.112536   1.000000
    158        -18.096691   1.000000
    159        -18.093351   1.000000
    160        -18.086043   1.000000
    161        -18.082182   1.000000
    162        -18.081530   1.000000
    163        -18.077426   1.000000
    164        -18.075443   1.000000
    165        -18.074575   1.000000
    166        -18.074348   1.000000
    167        -18.065915   1.000000
    168        -18.065100   1.000000
    169        -18.061457   1.000000
    170        -18.059874   1.000000
    171        -18.055010   1.000000
    172        -18.054721   1.000000
    173        -18.051955   1.000000
    174        -18.026529   1.000000
    175        -18.005212   1.000000
    176        -17.991915   1.000000
    177        -17.986192   1.000000
    178        -17.985826   1.000000
    179        -17.974279   1.000000
    180        -17.965226   1.000000
    181        -17.961518   1.000000
    182        -17.956255   1.000000
    183        -17.954962   1.000000
    184        -17.950969   1.000000
    185        -17.950410   1.000000
    186        -17.946513   1.000000
    187        -17.945377   1.000000
    188        -17.943495   1.000000
    189        -17.943167   1.000000
    190        -17.938273   1.000000
    191        -17.935341   1.000000
    192        -17.934959   1.000000
    193        -17.929996   1.000000
    194        -17.929629   1.000000
    195        -17.918370   1.000000
    196        -17.915226   1.000000
    197        -17.907320   1.000000
    198        -17.900295   1.000000
    199        -17.894352   1.000000
    200        -17.891115   1.000000
    201        -17.885401   1.000000
    202        -17.882403   1.000000
    203        -17.877070   1.000000
    204        -17.872776   1.000000
    205        -17.869760   1.000000
    206        -17.866158   1.000000
    207        -17.864253   1.000000
    208        -17.861988   1.000000
    209        -17.861237   1.000000
    210        -17.859151   1.000000
    211        -17.856719   1.000000
    212        -17.856018   1.000000
    213        -17.853851   1.000000
    214        -17.852741   1.000000
    215        -17.843544   1.000000
    216        -17.837637   1.000000
    217        -17.833030   1.000000
    218        -17.832672   1.000000
    219        -17.829560   1.000000
    220        -17.825685   1.000000
    221        -17.822329   1.000000
    222        -17.819814   1.000000
    223        -17.810884   1.000000
    224        -17.808503   1.000000
    225        -17.805729   1.000000
    226        -17.803173   1.000000
    227        -17.798214   1.000000
    228        -17.796870   1.000000
    229        -17.794878   1.000000
    230        -17.792997   1.000000
    231        -17.789709   1.000000
    232        -17.787465   1.000000
    233        -17.783694   1.000000
    234        -17.782233   1.000000
    235        -17.775481   1.000000
    236        -17.771244   1.000000
    237        -17.768352   1.000000
    238        -17.766117   1.000000
    239        -17.763602   1.000000
    240        -17.762883   1.000000
    241        -17.761825   1.000000
    242        -17.753812   1.000000
    243        -17.751432   1.000000
    244        -17.748099   1.000000
    245        -17.745875   1.000000
    246        -17.743251   1.000000
    247        -17.742471   1.000000
    248        -17.739475   1.000000
    249        -17.737486   1.000000
    250        -17.734485   1.000000
    251        -17.732240   1.000000
    252        -17.727877   1.000000
    253        -17.727767   1.000000
    254        -17.725087   1.000000
    255        -17.716036   1.000000
    256        -17.711360   1.000000
    257        -17.708903   1.000000
    258        -17.705156   1.000000
    259        -17.702963   1.000000
    260        -17.697490   1.000000
    261        -17.697139   1.000000
    262        -17.694203   1.000000
    263        -17.690183   1.000000
    264        -17.685673   1.000000
    265        -17.684730   1.000000
    266        -17.683007   1.000000
    267        -17.682577   1.000000
    268        -17.680484   1.000000
    269        -17.678648   1.000000
    270        -17.677489   1.000000
    271        -17.674296   1.000000
    272        -17.672046   1.000000
    273        -17.671592   1.000000
    274        -17.669699   1.000000
    275        -17.669348   1.000000
    276        -17.664101   1.000000
    277        -17.661942   1.000000
    278        -17.661197   1.000000
    279        -17.659195   1.000000
    280        -17.653114   1.000000
    281        -17.650662   1.000000
    282        -17.650638   1.000000
    283        -17.649979   1.000000
    284        -17.647603   1.000000
    285        -17.646741   1.000000
    286        -17.642345   1.000000
    287        -17.642124   1.000000
    288        -17.641033   1.000000
    289        -17.641016   1.000000
    290        -17.637711   1.000000
    291        -17.636198   1.000000
    292        -17.634930   1.000000
    293        -17.633723   1.000000
    294        -17.632589   1.000000
    295        -17.632459   1.000000
    296        -17.631193   1.000000
    297        -17.629770   1.000000
    298        -17.627822   1.000000
    299        -17.627619   1.000000
    300        -17.625666   1.000000
    301        -17.623477   1.000000
    302        -17.622627   1.000000
    303        -17.622545   1.000000
    304        -17.620188   1.000000
    305        -17.620062   1.000000
    306        -17.617838   1.000000
    307        -17.617109   1.000000
    308        -17.616129   1.000000
    309        -17.615687   1.000000
    310        -17.615539   1.000000
    311        -17.613971   1.000000
    312        -17.608556   1.000000
    313        -17.606301   1.000000
    314        -17.604636   1.000000
    315        -17.603302   1.000000
    316        -17.602780   1.000000
    317        -17.597655   1.000000
    318        -17.597358   1.000000
    319        -17.596075   1.000000
    320        -17.593947   1.000000
    321        -17.593678   1.000000
    322        -17.591226   1.000000
    323        -17.586242   1.000000
    324        -17.583303   1.000000
    325        -17.582694   1.000000
    326        -17.581527   1.000000
    327        -17.580316   1.000000
    328        -17.578524   1.000000
    329        -17.578271   1.000000
    330        -17.577192   1.000000
    331        -17.576722   1.000000
    332        -17.574277   1.000000
    333        -17.570477   1.000000
    334        -17.569887   1.000000
    335        -17.568105   1.000000
    336        -17.566405   1.000000
    337        -17.566036   1.000000
    338        -17.565311   1.000000
    339        -17.563008   1.000000
    340        -17.561528   1.000000
    341        -17.561333   1.000000
    342        -17.559986   1.000000
    343        -17.558938   1.000000
    344        -17.554927   1.000000
    345        -17.554260   1.000000
    346        -17.549861   1.000000
    347        -17.549754   1.000000
    348        -17.548218   1.000000
    349        -17.547003   1.000000
    350        -17.545202   1.000000
    351        -17.545164   1.000000
    352        -17.542288   1.000000
    353        -17.541012   1.000000
    354        -17.535980   1.000000
    355        -17.535068   1.000000
    356        -17.528838   1.000000
    357        -17.522439   1.000000
    358        -17.521009   1.000000
    359        -17.518329   1.000000
    360        -17.517081   1.000000
    361        -17.513301   1.000000
    362        -17.512683   1.000000
    363        -17.511010   1.000000
    364        -17.505677   1.000000
    365        -17.503430   1.000000
    366        -17.501982   1.000000
    367        -17.500633   1.000000
    368        -17.497917   1.000000
    369        -17.496703   1.000000
    370        -17.494747   1.000000
    371        -17.492890   1.000000
    372        -17.489193   1.000000
    373        -17.488313   1.000000
    374        -17.481695   1.000000
    375        -17.480374   1.000000
    376        -17.476787   1.000000
    377        -17.475117   1.000000
    378        -17.474700   1.000000
    379        -17.466898   1.000000
    380        -17.453658   1.000000
    381        -17.447112   1.000000
    382        -17.437772   1.000000
    383        -17.435212   1.000000
    384        -17.425709   1.000000
    385          2.444018   1.000000
    386          3.565054   1.000000
    387          3.860688   1.000000
    388          4.329277   1.000000
    389          4.568300   1.000000
    390          4.652667   1.000000
    391          4.700598   1.000000
    392          4.824439   1.000000
    393          4.877672   1.000000
    394          4.952170   1.000000
    395          5.252397   1.000000
    396          5.280765   1.000000
    397          5.367125   1.000000
    398          5.403620   1.000000
    399          5.422389   1.000000
    400          5.456000   1.000000
    401          5.509707   1.000000
    402          5.588058   1.000000
    403          5.690790   1.000000
    404          5.728091   1.000000
    405          5.960417   1.000000
    406          5.971017   1.000000
    407          5.982696   1.000000
    408          5.990670   1.000000
    409          6.004241   1.000000
    410          6.011680   1.000000
    411          6.017481   1.000000
    412          6.033137   1.000000
    413          6.043065   1.000000
    414          6.061223   1.000000
    415          6.075732   1.000000
    416          6.098206   1.000000
    417          6.147062   1.000000
    418          6.202950   1.000000
    419          6.220026   1.000000
    420          6.234178   1.000000
    421          6.250675   1.000000
    422          6.265660   1.000000
    423          6.290566   1.000000
    424          6.292232   1.000000
    425          6.308678   1.000000
    426          6.319840   1.000000
    427          6.329124   1.000000
    428          6.346368   1.000000
    429          6.378988   1.000000
    430          6.391196   1.000000
    431          6.428846   1.000000
    432          6.516099   1.000000
    433          6.520669   1.000000
    434          6.523917   1.000000
    435          6.527706   1.000000
    436          6.531840   1.000000
    437          6.535970   1.000000
    438          6.540727   1.000000
    439          6.565540   1.000000
    440          6.584435   1.000000
    441          6.587075   1.000000
    442          6.592261   1.000000
    443          6.606553   1.000000
    444          6.649865   1.000000
    445          6.656797   1.000000
    446          6.676237   1.000000
    447          6.700233   1.000000
    448          6.704032   1.000000
    449          6.746428   1.000000
    450          6.769270   1.000000
    451          6.784044   1.000000
    452          6.857466   1.000000
    453          6.861580   1.000000
    454          6.889065   1.000000
    455          6.892129   1.000000
    456          6.922058   1.000000
    457          6.923813   1.000000
    458          6.927192   1.000000
    459          6.928410   1.000000
    460          6.929288   1.000000
    461          6.931109   1.000000
    462          6.935582   1.000000
    463          7.011549   1.000000
    464          7.052632   1.000000
    465          7.058604   1.000000
    466          7.063120   1.000000
    467          7.072218   1.000000
    468          7.072582   1.000000
    469          7.074578   1.000000
    470          7.079379   1.000000
    471          7.118678   1.000000
    472          7.136362   1.000000
    473          7.153689   1.000000
    474          7.164164   1.000000
    475          7.168151   1.000000
    476          7.181050   1.000000
    477          7.183476   1.000000
    478          7.185764   1.000000
    479          7.192852   1.000000
    480          7.211986   1.000000
    481          7.257464   1.000000
    482          7.263623   1.000000
    483          7.264536   1.000000
    484          7.287138   1.000000
    485          7.297149   1.000000
    486          7.372700   1.000000
    487          7.438461   1.000000
    488          7.448560   1.000000
    489          7.462052   1.000000
    490          7.474063   1.000000
    491          7.497289   1.000000
    492          7.507130   1.000000
    493          7.523429   1.000000
    494          7.534416   1.000000
    495          7.547394   1.000000
    496          7.557019   1.000000
    497          7.576471   1.000000
    498          7.603744   1.000000
    499          7.610023   1.000000
    500          7.616206   1.000000
    501          7.630688   1.000000
    502          7.661647   1.000000
    503          7.670533   1.000000
    504          7.672242   1.000000
    505          7.729596   1.000000
    506          7.809104   1.000000
    507          7.823127   1.000000
    508          7.834264   1.000000
    509          7.876355   1.000000
    510          7.878608   1.000000
    511          7.887556   1.000000
    512          7.893267   1.000000
    513          7.913508   1.000000
    514          7.925702   1.000000
    515          7.944685   1.000000
    516          7.945723   1.000000
    517          7.954701   1.000000
    518          7.968696   1.000000
    519          7.979558   1.000000
    520          8.000248   1.000000
    521          8.010299   1.000000
    522          8.029129   1.000000
    523          8.037113   1.000000
    524          8.038625   1.000000
    525          8.043921   1.000000
    526          8.046111   1.000000
    527          8.050609   1.000000
    528          8.057233   1.000000
    529          8.057734   1.000000
    530          8.062404   1.000000
    531          8.081173   1.000000
    532          8.091919   1.000000
    533          8.097075   1.000000
    534          8.101551   1.000000
    535          8.129293   1.000000
    536          8.141736   1.000000
    537          8.144820   1.000000
    538          8.150624   1.000000
    539          8.152672   1.000000
    540          8.157356   1.000000
    541          8.179100   1.000000
    542          8.211054   1.000001
    543          8.242411   1.000003
    544          8.278583   1.000009
    545          8.279300   1.000009
    546          8.298151   1.000016
    547          8.320135   1.000032
    548          8.333131   1.000047
    549          8.334027   1.000048
    550          8.348189   1.000072
    551          8.353633   1.000084
    552          8.366441   1.000120
    553          8.380728   1.000176
    554          8.398055   1.000278
    555          8.408870   1.000366
    556          8.424832   1.000542
    557          8.425116   1.000546
    558          8.436772   1.000721
    559          8.437835   1.000739
    560          8.439957   1.000777
    561          8.442517   1.000824
    562          8.448442   1.000945
    563          8.449837   1.000975
    564          8.461996   1.001281
    565          8.489445   1.002297
    566          8.542375   1.006220
    567          8.546381   1.006659
    568          8.555428   1.007738
    569          8.684476   1.032977
    570          8.732985   1.033606
    571          8.769821   1.017454
    572          8.770659   1.016840
    573          8.796231   0.991580
    574          8.899435   0.734376
    575          8.913173   0.682322
    576          8.936348   0.588707
    577          8.938296   0.580601
    578          8.961840   0.481395
    579          8.986129   0.379985
    580          9.002163   0.315912
    581          9.042388   0.173995
    582          9.052289   0.144380
    583          9.065526   0.108513
    584          9.075487   0.084419
    585          9.105301   0.027152
    586          9.109772   0.020425
    587          9.149190  -0.020299
    588          9.152267  -0.022230
    589          9.156882  -0.024834
    590          9.171104  -0.030841
    591          9.177196  -0.032574
    592          9.178861  -0.032969
    593          9.183093  -0.033828
    594          9.188489  -0.034641
    595          9.194488  -0.035204
    596          9.198497  -0.035398
    597          9.199548  -0.035426
    598          9.200680  -0.035446
    599          9.205188  -0.035428
    600          9.208308  -0.035328
    601          9.212307  -0.035104
    602          9.236613  -0.031923
    603          9.236812  -0.031887
    604          9.247597  -0.029779
    605          9.254019  -0.028408
    606          9.304271  -0.017085
    607          9.349581  -0.009058
    608          9.393957  -0.004242
    609          9.397231  -0.003991
    610          9.407022  -0.003313
    611          9.412349  -0.002986
    612          9.431926  -0.002009
    613          9.450604  -0.001347
    614          9.457652  -0.001153
    615          9.467757  -0.000917
    616          9.471836  -0.000835
    617          9.476181  -0.000754
    618          9.481849  -0.000660
    619          9.482365  -0.000652
    620          9.487414  -0.000578
    621          9.495404  -0.000476
    622          9.500273  -0.000422
    623          9.502574  -0.000399
    624          9.506868  -0.000358
    625          9.510065  -0.000330
    626          9.550848  -0.000112
    627          9.566643  -0.000072
    628          9.572120  -0.000062
    629          9.598769  -0.000028
    630          9.600287  -0.000027
    631          9.611957  -0.000019
    632          9.617973  -0.000016
    633          9.623154  -0.000013
    634          9.629893  -0.000011
    635          9.636290  -0.000009
    636          9.646193  -0.000006
    637          9.661390  -0.000004
    638          9.673781  -0.000003
    639          9.681313  -0.000002
    640          9.689391  -0.000001
    641          9.738126  -0.000000
    642          9.745340  -0.000000
    643          9.781186  -0.000000
    644          9.798721  -0.000000
    645          9.842855  -0.000000
    646          9.869154  -0.000000
    647          9.871763  -0.000000
    648          9.877383  -0.000000
    649          9.886296  -0.000000
    650          9.902453  -0.000000
    651          9.904295  -0.000000
    652          9.915881  -0.000000
    653          9.925398  -0.000000
    654          9.927217  -0.000000
    655          9.946361  -0.000000
    656          9.949449  -0.000000
    657          9.963912  -0.000000
    658          9.968431  -0.000000
    659          9.980271  -0.000000
    660          9.984437  -0.000000
    661          9.994956  -0.000000
    662         10.006465  -0.000000
    663         10.006656  -0.000000
    664         10.011799  -0.000000
    665         10.012612  -0.000000
    666         10.023102  -0.000000
    667         10.024511  -0.000000
    668         10.031917  -0.000000
    669         10.035811  -0.000000
    670         10.093349  -0.000000
    671         10.109569  -0.000000
    672         10.112719  -0.000000
    673         10.125343  -0.000000
    674         10.163566  -0.000000
    675         10.168861  -0.000000
    676         10.197859  -0.000000
    677         10.210268  -0.000000
    678         10.221957  -0.000000
    679         10.223125  -0.000000
    680         10.231259  -0.000000
    681         10.251166  -0.000000
    682         10.256866  -0.000000
    683         10.258513  -0.000000
    684         10.270278  -0.000000
    685         10.271083  -0.000000
    686         10.275050  -0.000000
    687         10.282326  -0.000000
    688         10.295217  -0.000000
    689         10.298827  -0.000000
    690         10.308579  -0.000000
    691         10.311975  -0.000000
 
  0.1345275E-16  0.2500000E+00  0.3333333E+00  0.4166667E-01
      1        -39.909667   1.000000
      2        -39.889889   1.000000
      3        -39.875265   1.000000
      4        -39.865206   1.000000
      5        -39.856794   1.000000
      6        -39.855099   1.000000
      7        -39.848545   1.000000
      8        -39.844313   1.000000
      9        -39.841974   1.000000
     10        -39.839448   1.000000
     11        -39.831166   1.000000
     12        -39.827921   1.000000
     13        -39.823461   1.000000
     14        -39.819272   1.000000
     15        -39.818895   1.000000
     16        -39.814216   1.000000
     17        -39.811217   1.000000
     18        -39.808968   1.000000
     19        -39.805843   1.000000
     20        -39.805390   1.000000
     21        -39.801335   1.000000
     22        -39.797417   1.000000
     23        -39.793056   1.000000
     24        -39.788764   1.000000
     25        -39.787371   1.000000
     26        -39.785281   1.000000
     27        -39.783529   1.000000
     28        -39.782786   1.000000
     29        -39.779661   1.000000
     30        -39.778351   1.000000
     31        -39.776617   1.000000
     32        -39.774686   1.000000
     33        -39.773738   1.000000
     34        -39.771732   1.000000
     35        -39.770272   1.000000
     36        -39.766932   1.000000
     37        -39.766745   1.000000
     38        -39.766205   1.000000
     39        -39.765175   1.000000
     40        -39.764289   1.000000
     41        -39.764237   1.000000
     42        -39.761689   1.000000
     43        -39.761470   1.000000
     44        -39.760949   1.000000
     45        -39.759299   1.000000
     46        -39.758351   1.000000
     47        -39.757523   1.000000
     48        -39.754891   1.000000
     49        -39.754333   1.000000
     50        -39.752870   1.000000
     51        -39.751738   1.000000
     52        -39.751579   1.000000
     53        -39.750172   1.000000
     54        -39.749866   1.000000
     55        -39.748555   1.000000
     56        -39.748040   1.000000
     57        -39.747414   1.000000
     58        -39.746763   1.000000
     59        -39.745512   1.000000
     60        -39.745178   1.000000
     61        -39.744862   1.000000
     62        -39.743313   1.000000
     63        -39.742703   1.000000
     64        -39.740129   1.000000
     65        -39.739306   1.000000
     66        -39.738517   1.000000
     67        -39.738202   1.000000
     68        -39.737737   1.000000
     69        -39.736526   1.000000
     70        -39.736232   1.000000
     71        -39.735107   1.000000
     72        -39.734092   1.000000
     73        -39.733746   1.000000
     74        -39.732228   1.000000
     75        -39.731788   1.000000
     76        -39.730129   1.000000
     77        -39.729153   1.000000
     78        -39.728112   1.000000
     79        -39.727053   1.000000
     80        -39.725658   1.000000
     81        -39.725227   1.000000
     82        -39.723926   1.000000
     83        -39.723881   1.000000
     84        -39.722733   1.000000
     85        -39.722562   1.000000
     86        -39.721816   1.000000
     87        -39.721717   1.000000
     88        -39.720940   1.000000
     89        -39.718975   1.000000
     90        -39.718512   1.000000
     91        -39.715839   1.000000
     92        -39.715536   1.000000
     93        -39.709176   1.000000
     94        -39.709043   1.000000
     95        -39.706407   1.000000
     96        -39.704516   1.000000
     97        -18.379767   1.000000
     98        -18.337986   1.000000
     99        -18.315487   1.000000
    100        -18.311470   1.000000
    101        -18.304327   1.000000
    102        -18.299921   1.000000
    103        -18.297366   1.000000
    104        -18.296983   1.000000
    105        -18.292884   1.000000
    106        -18.285992   1.000000
    107        -18.282225   1.000000
    108        -18.275165   1.000000
    109        -18.264139   1.000000
    110        -18.261900   1.000000
    111        -18.259317   1.000000
    112        -18.255685   1.000000
    113        -18.250622   1.000000
    114        -18.244541   1.000000
    115        -18.239005   1.000000
    116        -18.236906   1.000000
    117        -18.227356   1.000000
    118        -18.223271   1.000000
    119        -18.219594   1.000000
    120        -18.218859   1.000000
    121        -18.213950   1.000000
    122        -18.212167   1.000000
    123        -18.211166   1.000000
    124        -18.206536   1.000000
    125        -18.205526   1.000000
    126        -18.204898   1.000000
    127        -18.204084   1.000000
    128        -18.202370   1.000000
    129        -18.201838   1.000000
    130        -18.199636   1.000000
    131        -18.198783   1.000000
    132        -18.197335   1.000000
    133        -18.197139   1.000000
    134        -18.185327   1.000000
    135        -18.182289   1.000000
    136        -18.180437   1.000000
    137        -18.176043   1.000000
    138        -18.172191   1.000000
    139        -18.170945   1.000000
    140        -18.168920   1.000000
    141        -18.168463   1.000000
    142        -18.164920   1.000000
    143        -18.160931   1.000000
    144        -18.156742   1.000000
    145        -18.154828   1.000000
    146        -18.147074   1.000000
    147        -18.141339   1.000000
    148        -18.139926   1.000000
    149        -18.136535   1.000000
    150        -18.136113   1.000000
    151        -18.130276   1.000000
    152        -18.129681   1.000000
    153        -18.122458   1.000000
    154        -18.119304   1.000000
    155        -18.119090   1.000000
    156        -18.113833   1.000000
    157        -18.111730   1.000000
    158        -18.096589   1.000000
    159        -18.093656   1.000000
    160        -18.085783   1.000000
    161        -18.082427   1.000000
    162        -18.082151   1.000000
    163        -18.078198   1.000000
    164        -18.076465   1.000000
    165        -18.074344   1.000000
    166        -18.074160   1.000000
    167        -18.067430   1.000000
    168        -18.065441   1.000000
    169        -18.060717   1.000000
    170        -18.060010   1.000000
    171        -18.053960   1.000000
    172        -18.053711   1.000000
    173        -18.051913   1.000000
    174        -18.026535   1.000000
    175        -18.003676   1.000000
    176        -17.994012   1.000000
    177        -17.985642   1.000000
    178        -17.985318   1.000000
    179        -17.973440   1.000000
    180        -17.965284   1.000000
    181        -17.960160   1.000000
    182        -17.957150   1.000000
    183        -17.956302   1.000000
    184        -17.951634   1.000000
    185        -17.951165   1.000000
    186        -17.946058   1.000000
    187        -17.944477   1.000000
    188        -17.942733   1.000000
    189        -17.942686   1.000000
    190        -17.938258   1.000000
    191        -17.935405   1.000000
    192        -17.933413   1.000000
    193        -17.931050   1.000000
    194        -17.930961   1.000000
    195        -17.918146   1.000000
    196        -17.915530   1.000000
    197        -17.906215   1.000000
    198        -17.902133   1.000000
    199        -17.896906   1.000000
    200        -17.890425   1.000000
    201        -17.884645   1.000000
    202        -17.882074   1.000000
    203        -17.877294   1.000000
    204        -17.871998   1.000000
    205        -17.869897   1.000000
    206        -17.864671   1.000000
    207        -17.863863   1.000000
    208        -17.861784   1.000000
    209        -17.860239   1.000000
    210        -17.859490   1.000000
    211        -17.856647   1.000000
    212        -17.856236   1.000000
    213        -17.853117   1.000000
    214        -17.852533   1.000000
    215        -17.843988   1.000000
    216        -17.838208   1.000000
    217        -17.833893   1.000000
    218        -17.831738   1.000000
    219        -17.830013   1.000000
    220        -17.825031   1.000000
    221        -17.824325   1.000000
    222        -17.821394   1.000000
    223        -17.810217   1.000000
    224        -17.810073   1.000000
    225        -17.806060   1.000000
    226        -17.802288   1.000000
    227        -17.798019   1.000000
    228        -17.796707   1.000000
    229        -17.795384   1.000000
    230        -17.793493   1.000000
    231        -17.789758   1.000000
    232        -17.788037   1.000000
    233        -17.782486   1.000000
    234        -17.782375   1.000000
    235        -17.773834   1.000000
    236        -17.770862   1.000000
    237        -17.767167   1.000000
    238        -17.765163   1.000000
    239        -17.763768   1.000000
    240        -17.763331   1.000000
    241        -17.761889   1.000000
    242        -17.752913   1.000000
    243        -17.751848   1.000000
    244        -17.747567   1.000000
    245        -17.746982   1.000000
    246        -17.743221   1.000000
    247        -17.743091   1.000000
    248        -17.738670   1.000000
    249        -17.738534   1.000000
    250        -17.732868   1.000000
    251        -17.732705   1.000000
    252        -17.727862   1.000000
    253        -17.727791   1.000000
    254        -17.724447   1.000000
    255        -17.718703   1.000000
    256        -17.712365   1.000000
    257        -17.708651   1.000000
    258        -17.704674   1.000000
    259        -17.703363   1.000000
    260        -17.697653   1.000000
    261        -17.696611   1.000000
    262        -17.693934   1.000000
    263        -17.690168   1.000000
    264        -17.685456   1.000000
    265        -17.684983   1.000000
    266        -17.682334   1.000000
    267        -17.681291   1.000000
    268        -17.681202   1.000000
    269        -17.677666   1.000000
    270        -17.677535   1.000000
    271        -17.673554   1.000000
    272        -17.672756   1.000000
    273        -17.670631   1.000000
    274        -17.669914   1.000000
    275        -17.669570   1.000000
    276        -17.664524   1.000000
    277        -17.661439   1.000000
    278        -17.661120   1.000000
    279        -17.659805   1.000000
    280        -17.653340   1.000000
    281        -17.652616   1.000000
    282        -17.651743   1.000000
    283        -17.649783   1.000000
    284        -17.648216   1.000000
    285        -17.646357   1.000000
    286        -17.643068   1.000000
    287        -17.642117   1.000000
    288        -17.641328   1.000000
    289        -17.640925   1.000000
    290        -17.638277   1.000000
    291        -17.634972   1.000000
    292        -17.633784   1.000000
    293        -17.633606   1.000000
    294        -17.632825   1.000000
    295        -17.632200   1.000000
    296        -17.630824   1.000000
    297        -17.629478   1.000000
    298        -17.628928   1.000000
    299        -17.627714   1.000000
    300        -17.626781   1.000000
    301        -17.623623   1.000000
    302        -17.622428   1.000000
    303        -17.621053   1.000000
    304        -17.620316   1.000000
    305        -17.619024   1.000000
    306        -17.617941   1.000000
    307        -17.617241   1.000000
    308        -17.616200   1.000000
    309        -17.615477   1.000000
    310        -17.615287   1.000000
    311        -17.614601   1.000000
    312        -17.608613   1.000000
    313        -17.605781   1.000000
    314        -17.604438   1.000000
    315        -17.603395   1.000000
    316        -17.602515   1.000000
    317        -17.597735   1.000000
    318        -17.596650   1.000000
    319        -17.596005   1.000000
    320        -17.593931   1.000000
    321        -17.593375   1.000000
    322        -17.591367   1.000000
    323        -17.587148   1.000000
    324        -17.583250   1.000000
    325        -17.582865   1.000000
    326        -17.581492   1.000000
    327        -17.580282   1.000000
    328        -17.578299   1.000000
    329        -17.578178   1.000000
    330        -17.577078   1.000000
    331        -17.576990   1.000000
    332        -17.575454   1.000000
    333        -17.570307   1.000000
    334        -17.570058   1.000000
    335        -17.569075   1.000000
    336        -17.566192   1.000000
    337        -17.565949   1.000000
    338        -17.564889   1.000000
    339        -17.563120   1.000000
    340        -17.562173   1.000000
    341        -17.561195   1.000000
    342        -17.559859   1.000000
    343        -17.558712   1.000000
    344        -17.553965   1.000000
    345        -17.553858   1.000000
    346        -17.550647   1.000000
    347        -17.549026   1.000000
    348        -17.547439   1.000000
    349        -17.546836   1.000000
    350        -17.545496   1.000000
    351        -17.545390   1.000000
    352        -17.542504   1.000000
    353        -17.540921   1.000000
    354        -17.536128   1.000000
    355        -17.535298   1.000000
    356        -17.529147   1.000000
    357        -17.522483   1.000000
    358        -17.521399   1.000000
    359        -17.517889   1.000000
    360        -17.516879   1.000000
    361        -17.513202   1.000000
    362        -17.512991   1.000000
    363        -17.511023   1.000000
    364        -17.505621   1.000000
    365        -17.503513   1.000000
    366        -17.502010   1.000000
    367        -17.500643   1.000000
    368        -17.497943   1.000000
    369        -17.496397   1.000000
    370        -17.494942   1.000000
    371        -17.493479   1.000000
    372        -17.488361   1.000000
    373        -17.488191   1.000000
    374        -17.481617   1.000000
    375        -17.480339   1.000000
    376        -17.476935   1.000000
    377        -17.475244   1.000000
    378        -17.474284   1.000000
    379        -17.467600   1.000000
    380        -17.453431   1.000000
    381        -17.447095   1.000000
    382        -17.437844   1.000000
    383        -17.435185   1.000000
    384        -17.425699   1.000000
    385          2.444021   1.000000
    386          3.565070   1.000000
    387          3.860651   1.000000
    388          4.328948   1.000000
    389          4.568641   1.000000
    390          4.652873   1.000000
    391          4.701466   1.000000
    392          4.824434   1.000000
    393          4.877485   1.000000
    394          4.951019   1.000000
    395          5.252049   1.000000
    396          5.279849   1.000000
    397          5.367014   1.000000
    398          5.404385   1.000000
    399          5.423436   1.000000
    400          5.455702   1.000000
    401          5.510588   1.000000
    402          5.586069   1.000000
    403          5.691080   1.000000
    404          5.729959   1.000000
    405          5.962242   1.000000
    406          5.971223   1.000000
    407          5.983014   1.000000
    408          5.989807   1.000000
    409          6.003640   1.000000
    410          6.011546   1.000000
    411          6.017262   1.000000
    412          6.031985   1.000000
    413          6.042494   1.000000
    414          6.061869   1.000000
    415          6.076273   1.000000
    416          6.098219   1.000000
    417          6.146033   1.000000
    418          6.202950   1.000000
    419          6.219066   1.000000
    420          6.233973   1.000000
    421          6.251200   1.000000
    422          6.266073   1.000000
    423          6.290489   1.000000
    424          6.292791   1.000000
    425          6.309068   1.000000
    426          6.319542   1.000000
    427          6.328311   1.000000
    428          6.346313   1.000000
    429          6.377158   1.000000
    430          6.391728   1.000000
    431          6.430930   1.000000
    432          6.517311   1.000000
    433          6.522696   1.000000
    434          6.524415   1.000000
    435          6.528948   1.000000
    436          6.532576   1.000000
    437          6.535695   1.000000
    438          6.539911   1.000000
    439          6.560430   1.000000
    440          6.584838   1.000000
    441          6.586185   1.000000
    442          6.590346   1.000000
    443          6.607440   1.000000
    444          6.648068   1.000000
    445          6.657010   1.000000
    446          6.676091   1.000000
    447          6.700604   1.000000
    448          6.702799   1.000000
    449          6.753789   1.000000
    450          6.770845   1.000000
    451          6.779214   1.000000
    452          6.856901   1.000000
    453          6.863212   1.000000
    454          6.889640   1.000000
    455          6.891112   1.000000
    456          6.921839   1.000000
    457          6.923438   1.000000
    458          6.927120   1.000000
    459          6.929106   1.000000
    460          6.929258   1.000000
    461          6.931335   1.000000
    462          6.936257   1.000000
    463          7.011300   1.000000
    464          7.052549   1.000000
    465          7.057758   1.000000
    466          7.063058   1.000000
    467          7.073773   1.000000
    468          7.074233   1.000000
    469          7.075951   1.000000
    470          7.079547   1.000000
    471          7.122776   1.000000
    472          7.137730   1.000000
    473          7.138398   1.000000
    474          7.166315   1.000000
    475          7.169490   1.000000
    476          7.178671   1.000000
    477          7.182870   1.000000
    478          7.185870   1.000000
    479          7.192344   1.000000
    480          7.217028   1.000000
    481          7.256968   1.000000
    482          7.262894   1.000000
    483          7.265088   1.000000
    484          7.292277   1.000000
    485          7.296997   1.000000
    486          7.366629   1.000000
    487          7.438368   1.000000
    488          7.448791   1.000000
    489          7.462611   1.000000
    490          7.476256   1.000000
    491          7.486916   1.000000
    492          7.509079   1.000000
    493          7.523684   1.000000
    494          7.529758   1.000000
    495          7.545749   1.000000
    496          7.558275   1.000000
    497          7.588331   1.000000
    498          7.603077   1.000000
    499          7.611546   1.000000
    500          7.616418   1.000000
    501          7.644587   1.000000
    502          7.661012   1.000000
    503          7.668985   1.000000
    504          7.672828   1.000000
    505          7.714027   1.000000
    506          7.808670   1.000000
    507          7.822860   1.000000
    508          7.835160   1.000000
    509          7.875248   1.000000
    510          7.880381   1.000000
    511          7.888285   1.000000
    512          7.890304   1.000000
    513          7.913256   1.000000
    514          7.920953   1.000000
    515          7.944255   1.000000
    516          7.947270   1.000000
    517          7.961012   1.000000
    518          7.969986   1.000000
    519          7.983113   1.000000
    520          8.000934   1.000000
    521          8.013288   1.000000
    522          8.025696   1.000000
    523          8.033586   1.000000
    524          8.037977   1.000000
    525          8.042573   1.000000
    526          8.043163   1.000000
    527          8.051724   1.000000
    528          8.058247   1.000000
    529          8.058864   1.000000
    530          8.063082   1.000000
    531          8.079638   1.000000
    532          8.093534   1.000000
    533          8.094965   1.000000
    534          8.100950   1.000000
    535          8.132550   1.000000
    536          8.141910   1.000000
    537          8.146245   1.000000
    538          8.148797   1.000000
    539          8.152534   1.000000
    540          8.158952   1.000000
    541          8.178052   1.000000
    542          8.212363   1.000001
    543          8.243168   1.000003
    544          8.277567   1.000008
    545          8.279414   1.000009
    546          8.297364   1.000016
    547          8.319149   1.000031
    548          8.332420   1.000046
    549          8.335568   1.000050
    550          8.351098   1.000078
    551          8.353346   1.000083
    552          8.360269   1.000101
    553          8.386937   1.000208
    554          8.397647   1.000275
    555          8.410590   1.000382
    556          8.423440   1.000524
    557          8.425451   1.000550
    558          8.436036   1.000708
    559          8.437536   1.000734
    560          8.440299   1.000783
    561          8.441896   1.000813
    562          8.448987   1.000957
    563          8.449859   1.000976
    564          8.460720   1.001246
    565          8.488366   1.002247
    566          8.542417   1.006225
    567          8.544183   1.006415
    568          8.557389   1.007988
    569          8.685257   1.033100
    570          8.733026   1.033598
    571          8.768910   1.018107
    572          8.770773   1.016755
    573          8.796468   0.991282
    574          8.891584   0.762625
    575          8.913000   0.682996
    576          8.936043   0.589974
    577          8.937184   0.585232
    578          8.968621   0.452779
    579          8.987226   0.375506
    580          9.002887   0.313100
    581          9.049608   0.152166
    582          9.051896   0.145509
    583          9.065506   0.108564
    584          9.069561   0.098453
    585          9.106146   0.025844
    586          9.107756   0.023400
    587          9.142052  -0.015189
    588          9.152972  -0.022650
    589          9.165127  -0.028669
    590          9.168478  -0.029947
    591          9.176731  -0.032458
    592          9.177776  -0.032715
    593          9.183485  -0.033897
    594          9.189517  -0.034762
    595          9.195629  -0.035273
    596          9.198196  -0.035388
    597          9.199827  -0.035432
    598          9.200821  -0.035448
    599          9.206489  -0.035395
    600          9.208617  -0.035315
    601          9.214911  -0.034904
    602          9.236546  -0.031935
    603          9.238489  -0.031579
    604          9.243317  -0.030650
    605          9.252150  -0.028814
    606          9.306095  -0.016704
    607          9.354318  -0.008406
    608          9.396337  -0.004059
    609          9.398314  -0.003911
    610          9.404874  -0.003453
    611          9.407334  -0.003293
    612          9.433337  -0.001951
    613          9.450580  -0.001348
    614          9.454466  -0.001237
    615          9.466489  -0.000944
    616          9.472871  -0.000815
    617          9.474112  -0.000792
    618          9.483797  -0.000630
    619          9.484382  -0.000621
    620          9.491327  -0.000526
    621          9.496027  -0.000469
    622          9.497063  -0.000457
    623          9.502049  -0.000404
    624          9.506523  -0.000361
    625          9.510318  -0.000328
    626          9.546031  -0.000128
    627          9.567219  -0.000071
    628          9.571459  -0.000063
    629          9.598563  -0.000028
    630          9.599507  -0.000027
    631          9.612021  -0.000019
    632          9.619246  -0.000015
    633          9.623573  -0.000013
    634          9.631175  -0.000010
    635          9.634338  -0.000009
    636          9.645676  -0.000006
    637          9.661271  -0.000004
    638          9.674341  -0.000002
    639          9.681395  -0.000002
    640          9.692395  -0.000001
    641          9.737985  -0.000000
    642          9.745370  -0.000000
    643          9.781018  -0.000000
    644          9.798942  -0.000000
    645          9.842391  -0.000000
    646          9.867910  -0.000000
    647          9.872720  -0.000000
    648          9.879032  -0.000000
    649          9.881282  -0.000000
    650          9.900172  -0.000000
    651          9.903836  -0.000000
    652          9.922132  -0.000000
    653          9.928721  -0.000000
    654          9.931574  -0.000000
    655          9.939117  -0.000000
    656          9.950462  -0.000000
    657          9.961068  -0.000000
    658          9.968796  -0.000000
    659          9.981713  -0.000000
    660          9.981863  -0.000000
    661          9.996063  -0.000000
    662         10.006298  -0.000000
    663         10.006695  -0.000000
    664         10.013023  -0.000000
    665         10.015036  -0.000000
    666         10.022147  -0.000000
    667         10.026851  -0.000000
    668         10.031122  -0.000000
    669         10.035706  -0.000000
    670         10.096523  -0.000000
    671         10.107805  -0.000000
    672         10.109869  -0.000000
    673         10.125560  -0.000000
    674         10.164298  -0.000000
    675         10.168959  -0.000000
    676         10.199239  -0.000000
    677         10.204332  -0.000000
    678         10.222494  -0.000000
    679         10.222855  -0.000000
    680         10.232610  -0.000000
    681         10.249051  -0.000000
    682         10.257113  -0.000000
    683         10.257697  -0.000000
    684         10.270998  -0.000000
    685         10.271726  -0.000000
    686         10.277130  -0.000000
    687         10.281439  -0.000000
    688         10.297941  -0.000000
    689         10.298047  -0.000000
    690         10.308321  -0.000000
    691         10.312060  -0.000000
 
 -0.2500000E+00  0.2500000E+00  0.3333333E+00  0.4166667E-01
      1        -39.909667   1.000000
      2        -39.889886   1.000000
      3        -39.875345   1.000000
      4        -39.864805   1.000000
      5        -39.856814   1.000000
      6        -39.855698   1.000000
      7        -39.848991   1.000000
      8        -39.844069   1.000000
      9        -39.841817   1.000000
     10        -39.837759   1.000000
     11        -39.832245   1.000000
     12        -39.828463   1.000000
     13        -39.824138   1.000000
     14        -39.818482   1.000000
     15        -39.818077   1.000000
     16        -39.815862   1.000000
     17        -39.810697   1.000000
     18        -39.808465   1.000000
     19        -39.807034   1.000000
     20        -39.802963   1.000000
     21        -39.801352   1.000000
     22        -39.798202   1.000000
     23        -39.793673   1.000000
     24        -39.789345   1.000000
     25        -39.787271   1.000000
     26        -39.784372   1.000000
     27        -39.783624   1.000000
     28        -39.783030   1.000000
     29        -39.779956   1.000000
     30        -39.778504   1.000000
     31        -39.776773   1.000000
     32        -39.773768   1.000000
     33        -39.773692   1.000000
     34        -39.772451   1.000000
     35        -39.769354   1.000000
     36        -39.766725   1.000000
     37        -39.766320   1.000000
     38        -39.766197   1.000000
     39        -39.765446   1.000000
     40        -39.764659   1.000000
     41        -39.764386   1.000000
     42        -39.761933   1.000000
     43        -39.761702   1.000000
     44        -39.760966   1.000000
     45        -39.759493   1.000000
     46        -39.758520   1.000000
     47        -39.757795   1.000000
     48        -39.754170   1.000000
     49        -39.753663   1.000000
     50        -39.753484   1.000000
     51        -39.751846   1.000000
     52        -39.751191   1.000000
     53        -39.750193   1.000000
     54        -39.749776   1.000000
     55        -39.748656   1.000000
     56        -39.748096   1.000000
     57        -39.747241   1.000000
     58        -39.747012   1.000000
     59        -39.745945   1.000000
     60        -39.745266   1.000000
     61        -39.744071   1.000000
     62        -39.742970   1.000000
     63        -39.742028   1.000000
     64        -39.741998   1.000000
     65        -39.739484   1.000000
     66        -39.738860   1.000000
     67        -39.738508   1.000000
     68        -39.737594   1.000000
     69        -39.736344   1.000000
     70        -39.736002   1.000000
     71        -39.734961   1.000000
     72        -39.733027   1.000000
     73        -39.732943   1.000000
     74        -39.732312   1.000000
     75        -39.731807   1.000000
     76        -39.730669   1.000000
     77        -39.729998   1.000000
     78        -39.728226   1.000000
     79        -39.726808   1.000000
     80        -39.725729   1.000000
     81        -39.725246   1.000000
     82        -39.723882   1.000000
     83        -39.723756   1.000000
     84        -39.722783   1.000000
     85        -39.722592   1.000000
     86        -39.721864   1.000000
     87        -39.721489   1.000000
     88        -39.721111   1.000000
     89        -39.718797   1.000000
     90        -39.718575   1.000000
     91        -39.715865   1.000000
     92        -39.715554   1.000000
     93        -39.709186   1.000000
     94        -39.709032   1.000000
     95        -39.706407   1.000000
     96        -39.704516   1.000000
     97        -18.379763   1.000000
     98        -18.338009   1.000000
     99        -18.315504   1.000000
    100        -18.311109   1.000000
    101        -18.304856   1.000000
    102        -18.299959   1.000000
    103        -18.297318   1.000000
    104        -18.296882   1.000000
    105        -18.292682   1.000000
    106        -18.286050   1.000000
    107        -18.282341   1.000000
    108        -18.275140   1.000000
    109        -18.264393   1.000000
    110        -18.261624   1.000000
    111        -18.259091   1.000000
    112        -18.256101   1.000000
    113        -18.250179   1.000000
    114        -18.245213   1.000000
    115        -18.238942   1.000000
    116        -18.236824   1.000000
    117        -18.227781   1.000000
    118        -18.222922   1.000000
    119        -18.219230   1.000000
    120        -18.218897   1.000000
    121        -18.214002   1.000000
    122        -18.211170   1.000000
    123        -18.210913   1.000000
    124        -18.206168   1.000000
    125        -18.205905   1.000000
    126        -18.204903   1.000000
    127        -18.204456   1.000000
    128        -18.202158   1.000000
    129        -18.202052   1.000000
    130        -18.199524   1.000000
    131        -18.199228   1.000000
    132        -18.197734   1.000000
    133        -18.196537   1.000000
    134        -18.184622   1.000000
    135        -18.182803   1.000000
    136        -18.180595   1.000000
    137        -18.176149   1.000000
    138        -18.172061   1.000000
    139        -18.171013   1.000000
    140        -18.169038   1.000000
    141        -18.168959   1.000000
    142        -18.164997   1.000000
    143        -18.161802   1.000000
    144        -18.156810   1.000000
    145        -18.154271   1.000000
    146        -18.147419   1.000000
    147        -18.141219   1.000000
    148        -18.139306   1.000000
    149        -18.137203   1.000000
    150        -18.136445   1.000000
    151        -18.129979   1.000000
    152        -18.129535   1.000000
    153        -18.123079   1.000000
    154        -18.118573   1.000000
    155        -18.118185   1.000000
    156        -18.114413   1.000000
    157        -18.112572   1.000000
    158        -18.096665   1.000000
    159        -18.093316   1.000000
    160        -18.086086   1.000000
    161        -18.082145   1.000000
    162        -18.081584   1.000000
    163        -18.077414   1.000000
    164        -18.075450   1.000000
    165        -18.074630   1.000000
    166        -18.074352   1.000000
    167        -18.065925   1.000000
    168        -18.064974   1.000000
    169        -18.061399   1.000000
    170        -18.059934   1.000000
    171        -18.054981   1.000000
    172        -18.054711   1.000000
    173        -18.052006   1.000000
    174        -18.026535   1.000000
    175        -18.005208   1.000000
    176        -17.991982   1.000000
    177        -17.986172   1.000000
    178        -17.985744   1.000000
    179        -17.974119   1.000000
    180        -17.965216   1.000000
    181        -17.961602   1.000000
    182        -17.956279   1.000000
    183        -17.954985   1.000000
    184        -17.951089   1.000000
    185        -17.950366   1.000000
    186        -17.946474   1.000000
    187        -17.945337   1.000000
    188        -17.943438   1.000000
    189        -17.943169   1.000000
    190        -17.938319   1.000000
    191        -17.935377   1.000000
    192        -17.934996   1.000000
    193        -17.929920   1.000000
    194        -17.929698   1.000000
    195        -17.918298   1.000000
    196        -17.915240   1.000000
    197        -17.907353   1.000000
    198        -17.900346   1.000000
    199        -17.894388   1.000000
    200        -17.891078   1.000000
    201        -17.885340   1.000000
    202        -17.882469   1.000000
    203        -17.876961   1.000000
    204        -17.872863   1.000000
    205        -17.869855   1.000000
    206        -17.866050   1.000000
    207        -17.864367   1.000000
    208        -17.861948   1.000000
    209        -17.861074   1.000000
    210        -17.859231   1.000000
    211        -17.856651   1.000000
    212        -17.856131   1.000000
    213        -17.853760   1.000000
    214        -17.852747   1.000000
    215        -17.843495   1.000000
    216        -17.837546   1.000000
    217        -17.833266   1.000000
    218        -17.832649   1.000000
    219        -17.829478   1.000000
    220        -17.825793   1.000000
    221        -17.822231   1.000000
    222        -17.819807   1.000000
    223        -17.811071   1.000000
    224        -17.808457   1.000000
    225        -17.805725   1.000000
    226        -17.803221   1.000000
    227        -17.798231   1.000000
    228        -17.796852   1.000000
    229        -17.794922   1.000000
    230        -17.793038   1.000000
    231        -17.789653   1.000000
    232        -17.787413   1.000000
    233        -17.783646   1.000000
    234        -17.782324   1.000000
    235        -17.775361   1.000000
    236        -17.771298   1.000000
    237        -17.768404   1.000000
    238        -17.766198   1.000000
    239        -17.763456   1.000000
    240        -17.762752   1.000000
    241        -17.761900   1.000000
    242        -17.753869   1.000000
    243        -17.751403   1.000000
    244        -17.748134   1.000000
    245        -17.745978   1.000000
    246        -17.743236   1.000000
    247        -17.742280   1.000000
    248        -17.739484   1.000000
    249        -17.737515   1.000000
    250        -17.734551   1.000000
    251        -17.732166   1.000000
    252        -17.727970   1.000000
    253        -17.727643   1.000000
    254        -17.725082   1.000000
    255        -17.716104   1.000000
    256        -17.711250   1.000000
    257        -17.708955   1.000000
    258        -17.705155   1.000000
    259        -17.702909   1.000000
    260        -17.697523   1.000000
    261        -17.697037   1.000000
    262        -17.694277   1.000000
    263        -17.690211   1.000000
    264        -17.685631   1.000000
    265        -17.684831   1.000000
    266        -17.682988   1.000000
    267        -17.682518   1.000000
    268        -17.680436   1.000000
    269        -17.678586   1.000000
    270        -17.677505   1.000000
    271        -17.674292   1.000000
    272        -17.672085   1.000000
    273        -17.671565   1.000000
    274        -17.669677   1.000000
    275        -17.669396   1.000000
    276        -17.664167   1.000000
    277        -17.661949   1.000000
    278        -17.661048   1.000000
    279        -17.659112   1.000000
    280        -17.653248   1.000000
    281        -17.650777   1.000000
    282        -17.650595   1.000000
    283        -17.649941   1.000000
    284        -17.647591   1.000000
    285        -17.646728   1.000000
    286        -17.642316   1.000000
    287        -17.642112   1.000000
    288        -17.641089   1.000000
    289        -17.640965   1.000000
    290        -17.637755   1.000000
    291        -17.636177   1.000000
    292        -17.635024   1.000000
    293        -17.633672   1.000000
    294        -17.632656   1.000000
    295        -17.632412   1.000000
    296        -17.631174   1.000000
    297        -17.629862   1.000000
    298        -17.627835   1.000000
    299        -17.627674   1.000000
    300        -17.625617   1.000000
    301        -17.623474   1.000000
    302        -17.622634   1.000000
    303        -17.622546   1.000000
    304        -17.620197   1.000000
    305        -17.620064   1.000000
    306        -17.618009   1.000000
    307        -17.617192   1.000000
    308        -17.616150   1.000000
    309        -17.615581   1.000000
    310        -17.615512   1.000000
    311        -17.613905   1.000000
    312        -17.608493   1.000000
    313        -17.606322   1.000000
    314        -17.604705   1.000000
    315        -17.603286   1.000000
    316        -17.602799   1.000000
    317        -17.597593   1.000000
    318        -17.597294   1.000000
    319        -17.595977   1.000000
    320        -17.594032   1.000000
    321        -17.593758   1.000000
    322        -17.591232   1.000000
    323        -17.586168   1.000000
    324        -17.583316   1.000000
    325        -17.582661   1.000000
    326        -17.581581   1.000000
    327        -17.580279   1.000000
    328        -17.578571   1.000000
    329        -17.578300   1.000000
    330        -17.577158   1.000000
    331        -17.576749   1.000000
    332        -17.574385   1.000000
    333        -17.570439   1.000000
    334        -17.569937   1.000000
    335        -17.568047   1.000000
    336        -17.566288   1.000000
    337        -17.566059   1.000000
    338        -17.565309   1.000000
    339        -17.562922   1.000000
    340        -17.561562   1.000000
    341        -17.561329   1.000000
    342        -17.559953   1.000000
    343        -17.558975   1.000000
    344        -17.554962   1.000000
    345        -17.554279   1.000000
    346        -17.549958   1.000000
    347        -17.549741   1.000000
    348        -17.548260   1.000000
    349        -17.547004   1.000000
    350        -17.545210   1.000000
    351        -17.545099   1.000000
    352        -17.542229   1.000000
    353        -17.540971   1.000000
    354        -17.535971   1.000000
    355        -17.535141   1.000000
    356        -17.528899   1.000000
    357        -17.522443   1.000000
    358        -17.521031   1.000000
    359        -17.518322   1.000000
    360        -17.517033   1.000000
    361        -17.513225   1.000000
    362        -17.512686   1.000000
    363        -17.511058   1.000000
    364        -17.505636   1.000000
    365        -17.503423   1.000000
    366        -17.501933   1.000000
    367        -17.500601   1.000000
    368        -17.497861   1.000000
    369        -17.496708   1.000000
    370        -17.494801   1.000000
    371        -17.492929   1.000000
    372        -17.489147   1.000000
    373        -17.488315   1.000000
    374        -17.481835   1.000000
    375        -17.480400   1.000000
    376        -17.476667   1.000000
    377        -17.475055   1.000000
    378        -17.474733   1.000000
    379        -17.466928   1.000000
    380        -17.453663   1.000000
    381        -17.447115   1.000000
    382        -17.437788   1.000000
    383        -17.435205   1.000000
    384        -17.425706   1.000000
    385          2.444019   1.000000
    386          3.565048   1.000000
    387          3.860682   1.000000
    388          4.329299   1.000000
    389          4.568306   1.000000
    390          4.652734   1.000000
    391          4.700527   1.000000
    392          4.824431   1.000000
    393          4.877738   1.000000
    394          4.952072   1.000000
    395          5.252438   1.000000
    396          5.280722   1.000000
    397          5.367101   1.000000
    398          5.403675   1.000000
    399          5.422292   1.000000
    400          5.456062   1.000000
    401          5.509693   1.000000
    402          5.588120   1.000000
    403          5.690838   1.000000
    404          5.728066   1.000000
    405          5.960432   1.000000
    406          5.971029   1.000000
    407          5.982624   1.000000
    408          5.990749   1.000000
    409          6.004199   1.000000
    410          6.011697   1.000000
    411          6.017343   1.000000
    412          6.033193   1.000000
    413          6.043014   1.000000
    414          6.061290   1.000000
    415          6.075766   1.000000
    416          6.098138   1.000000
    417          6.147152   1.000000
    418          6.202989   1.000000
    419          6.219993   1.000000
    420          6.233996   1.000000
    421          6.250597   1.000000
    422          6.265764   1.000000
    423          6.290612   1.000000
    424          6.292331   1.000000
    425          6.308708   1.000000
    426          6.319750   1.000000
    427          6.329178   1.000000
    428          6.346284   1.000000
    429          6.378990   1.000000
    430          6.391277   1.000000
    431          6.428809   1.000000
    432          6.515992   1.000000
    433          6.520819   1.000000
    434          6.523924   1.000000
    435          6.527710   1.000000
    436          6.531795   1.000000
    437          6.535980   1.000000
    438          6.540653   1.000000
    439          6.565641   1.000000
    440          6.584388   1.000000
    441          6.587093   1.000000
    442          6.592323   1.000000
    443          6.606506   1.000000
    444          6.649794   1.000000
    445          6.656798   1.000000
    446          6.676220   1.000000
    447          6.700194   1.000000
    448          6.704155   1.000000
    449          6.746340   1.000000
    450          6.769310   1.000000
    451          6.784041   1.000000
    452          6.857610   1.000000
    453          6.861620   1.000000
    454          6.889182   1.000000
    455          6.892239   1.000000
    456          6.922096   1.000000
    457          6.923881   1.000000
    458          6.927217   1.000000
    459          6.928464   1.000000
    460          6.929145   1.000000
    461          6.931245   1.000000
    462          6.935333   1.000000
    463          7.011424   1.000000
    464          7.052838   1.000000
    465          7.058368   1.000000
    466          7.063169   1.000000
    467          7.072090   1.000000
    468          7.072531   1.000000
    469          7.074636   1.000000
    470          7.079342   1.000000
    471          7.118788   1.000000
    472          7.136323   1.000000
    473          7.153777   1.000000
    474          7.164078   1.000000
    475          7.168116   1.000000
    476          7.180921   1.000000
    477          7.183649   1.000000
    478          7.185712   1.000000
    479          7.192550   1.000000
    480          7.211870   1.000000
    481          7.257454   1.000000
    482          7.263643   1.000000
    483          7.264638   1.000000
    484          7.287216   1.000000
    485          7.297303   1.000000
    486          7.372815   1.000000
    487          7.438488   1.000000
    488          7.448509   1.000000
    489          7.462098   1.000000
    490          7.474079   1.000000
    491          7.497460   1.000000
    492          7.506793   1.000000
    493          7.523489   1.000000
    494          7.534537   1.000000
    495          7.547434   1.000000
    496          7.557183   1.000000
    497          7.576224   1.000000
    498          7.603722   1.000000
    499          7.609912   1.000000
    500          7.616253   1.000000
    501          7.630601   1.000000
    502          7.661578   1.000000
    503          7.670490   1.000000
    504          7.672304   1.000000
    505          7.729539   1.000000
    506          7.809035   1.000000
    507          7.823105   1.000000
    508          7.834266   1.000000
    509          7.876272   1.000000
    510          7.878381   1.000000
    511          7.887786   1.000000
    512          7.893418   1.000000
    513          7.913454   1.000000
    514          7.925727   1.000000
    515          7.944779   1.000000
    516          7.945746   1.000000
    517          7.954950   1.000000
    518          7.968861   1.000000
    519          7.979486   1.000000
    520          8.000238   1.000000
    521          8.010206   1.000000
    522          8.029443   1.000000
    523          8.037092   1.000000
    524          8.038512   1.000000
    525          8.043857   1.000000
    526          8.045779   1.000000
    527          8.050617   1.000000
    528          8.057349   1.000000
    529          8.057913   1.000000
    530          8.062355   1.000000
    531          8.080908   1.000000
    532          8.092009   1.000000
    533          8.096901   1.000000
    534          8.101893   1.000000
    535          8.129237   1.000000
    536          8.141795   1.000000
    537          8.144484   1.000000
    538          8.150371   1.000000
    539          8.152619   1.000000
    540          8.157197   1.000000
    541          8.179185   1.000000
    542          8.210887   1.000001
    543          8.242416   1.000003
    544          8.278802   1.000009
    545          8.279385   1.000009
    546          8.297876   1.000016
    547          8.320065   1.000032
    548          8.333361   1.000047
    549          8.334320   1.000048
    550          8.347885   1.000071
    551          8.353796   1.000084
    552          8.366376   1.000120
    553          8.380501   1.000175
    554          8.397730   1.000275
    555          8.408939   1.000366
    556          8.424894   1.000543
    557          8.425146   1.000546
    558          8.437525   1.000734
    559          8.437611   1.000735
    560          8.439854   1.000775
    561          8.442417   1.000822
    562          8.448355   1.000943
    563          8.450199   1.000983
    564          8.461830   1.001277
    565          8.489550   1.002302
    566          8.542679   1.006253
    567          8.546353   1.006656
    568          8.555126   1.007700
    569          8.684409   1.032967
    570          8.733018   1.033599
    571          8.769875   1.017415
    572          8.770714   1.016799
    573          8.796248   0.991559
    574          8.899094   0.735624
    575          8.913245   0.682044
    576          8.936352   0.588692
    577          8.938333   0.580448
    578          8.961979   0.480805
    579          8.986259   0.379453
    580          9.002156   0.315939
    581          9.042176   0.174655
    582          9.052615   0.143444
    583          9.066131   0.106980
    584          9.075364   0.084702
    585          9.105654   0.026604
    586          9.109575   0.020711
    587          9.149150  -0.020272
    588          9.152515  -0.022379
    589          9.156977  -0.024885
    590          9.170972  -0.030798
    591          9.177666  -0.032689
    592          9.178849  -0.032966
    593          9.182728  -0.033762
    594          9.188723  -0.034669
    595          9.194323  -0.035193
    596          9.198783  -0.035407
    597          9.199629  -0.035428
    598          9.200554  -0.035445
    599          9.205121  -0.035430
    600          9.208077  -0.035338
    601          9.212255  -0.035108
    602          9.236186  -0.031999
    603          9.236896  -0.031871
    604          9.247944  -0.029707
    605          9.253558  -0.028508
    606          9.304163  -0.017108
    607          9.349258  -0.009104
    608          9.394364  -0.004211
    609          9.397094  -0.004002
    610          9.406959  -0.003317
    611          9.412214  -0.002994
    612          9.431795  -0.002014
    613          9.450945  -0.001337
    614          9.457447  -0.001158
    615          9.467489  -0.000922
    616          9.472157  -0.000828
    617          9.476165  -0.000754
    618          9.481786  -0.000661
    619          9.482492  -0.000650
    620          9.487368  -0.000578
    621          9.495547  -0.000474
    622          9.500227  -0.000422
    623          9.502571  -0.000399
    624          9.506922  -0.000357
    625          9.510400  -0.000327
    626          9.550311  -0.000114
    627          9.566486  -0.000072
    628          9.571974  -0.000062
    629          9.598744  -0.000028
    630          9.600720  -0.000026
    631          9.611674  -0.000019
    632          9.618011  -0.000016
    633          9.623482  -0.000013
    634          9.629975  -0.000011
    635          9.636703  -0.000009
    636          9.645652  -0.000006
    637          9.661763  -0.000004
    638          9.673766  -0.000003
    639          9.681444  -0.000002
    640          9.688950  -0.000001
    641          9.738140  -0.000000
    642          9.745315  -0.000000
    643          9.781276  -0.000000
    644          9.798775  -0.000000
    645          9.842885  -0.000000
    646          9.869138  -0.000000
    647          9.871844  -0.000000
    648          9.877772  -0.000000
    649          9.886182  -0.000000
    650          9.902126  -0.000000
    651          9.904341  -0.000000
    652          9.916134  -0.000000
    653          9.925495  -0.000000
    654          9.927586  -0.000000
    655          9.946315  -0.000000
    656          9.949621  -0.000000
    657          9.963483  -0.000000
    658          9.968465  -0.000000
    659          9.980065  -0.000000
    660          9.984400  -0.000000
    661          9.994507  -0.000000
    662         10.006525  -0.000000
    663         10.006834  -0.000000
    664         10.011994  -0.000000
    665         10.012818  -0.000000
    666         10.022913  -0.000000
    667         10.024915  -0.000000
    668         10.031926  -0.000000
    669         10.035396  -0.000000
    670         10.092827  -0.000000
    671         10.109725  -0.000000
    672         10.112268  -0.000000
    673         10.125537  -0.000000
    674         10.163769  -0.000000
    675         10.168723  -0.000000
    676         10.197845  -0.000000
    677         10.210113  -0.000000
    678         10.222357  -0.000000
    679         10.223043  -0.000000
    680         10.231405  -0.000000
    681         10.250936  -0.000000
    682         10.256539  -0.000000
    683         10.258681  -0.000000
    684         10.269896  -0.000000
    685         10.271192  -0.000000
    686         10.275320  -0.000000
    687         10.282216  -0.000000
    688         10.295160  -0.000000
    689         10.298633  -0.000000
    690         10.307486  -0.000000
    691         10.311277  -0.000000
 
 -0.2500000E+00  0.8988716E-17  0.3333333E+00  0.4166667E-01
      1        -39.909664   1.000000
      2        -39.889888   1.000000
      3        -39.875317   1.000000
      4        -39.865223   1.000000
      5        -39.856674   1.000000
      6        -39.855071   1.000000
      7        -39.848493   1.000000
      8        -39.844416   1.000000
      9        -39.841904   1.000000
     10        -39.839505   1.000000
     11        -39.831287   1.000000
     12        -39.827846   1.000000
     13        -39.823524   1.000000
     14        -39.819343   1.000000
     15        -39.818794   1.000000
     16        -39.814248   1.000000
     17        -39.811278   1.000000
     18        -39.808814   1.000000
     19        -39.805869   1.000000
     20        -39.805371   1.000000
     21        -39.801366   1.000000
     22        -39.797378   1.000000
     23        -39.793271   1.000000
     24        -39.788678   1.000000
     25        -39.787228   1.000000
     26        -39.785320   1.000000
     27        -39.783499   1.000000
     28        -39.782793   1.000000
     29        -39.779467   1.000000
     30        -39.778423   1.000000
     31        -39.776645   1.000000
     32        -39.774687   1.000000
     33        -39.773719   1.000000
     34        -39.771774   1.000000
     35        -39.770267   1.000000
     36        -39.767063   1.000000
     37        -39.766764   1.000000
     38        -39.766226   1.000000
     39        -39.765192   1.000000
     40        -39.764193   1.000000
     41        -39.764113   1.000000
     42        -39.761733   1.000000
     43        -39.761565   1.000000
     44        -39.760988   1.000000
     45        -39.759238   1.000000
     46        -39.758498   1.000000
     47        -39.757410   1.000000
     48        -39.754869   1.000000
     49        -39.754549   1.000000
     50        -39.752855   1.000000
     51        -39.751655   1.000000
     52        -39.751534   1.000000
     53        -39.750090   1.000000
     54        -39.749908   1.000000
     55        -39.748479   1.000000
     56        -39.748119   1.000000
     57        -39.747469   1.000000
     58        -39.746715   1.000000
     59        -39.745455   1.000000
     60        -39.745271   1.000000
     61        -39.744827   1.000000
     62        -39.743375   1.000000
     63        -39.742597   1.000000
     64        -39.740188   1.000000
     65        -39.739166   1.000000
     66        -39.738507   1.000000
     67        -39.738124   1.000000
     68        -39.737680   1.000000
     69        -39.736577   1.000000
     70        -39.736367   1.000000
     71        -39.735160   1.000000
     72        -39.733956   1.000000
     73        -39.733826   1.000000
     74        -39.732281   1.000000
     75        -39.731741   1.000000
     76        -39.730257   1.000000
     77        -39.729047   1.000000
     78        -39.728074   1.000000
     79        -39.727138   1.000000
     80        -39.725761   1.000000
     81        -39.725090   1.000000
     82        -39.723880   1.000000
     83        -39.723841   1.000000
     84        -39.722831   1.000000
     85        -39.722558   1.000000
     86        -39.721926   1.000000
     87        -39.721666   1.000000
     88        -39.720931   1.000000
     89        -39.718860   1.000000
     90        -39.718588   1.000000
     91        -39.715706   1.000000
     92        -39.715643   1.000000
     93        -39.709198   1.000000
     94        -39.709018   1.000000
     95        -39.706410   1.000000
     96        -39.704522   1.000000
     97        -18.379768   1.000000
     98        -18.338008   1.000000
     99        -18.315523   1.000000
    100        -18.311411   1.000000
    101        -18.304378   1.000000
    102        -18.299912   1.000000
    103        -18.297371   1.000000
    104        -18.296993   1.000000
    105        -18.292858   1.000000
    106        -18.285968   1.000000
    107        -18.282261   1.000000
    108        -18.275112   1.000000
    109        -18.264067   1.000000
    110        -18.261985   1.000000
    111        -18.259354   1.000000
    112        -18.255637   1.000000
    113        -18.250617   1.000000
    114        -18.244577   1.000000
    115        -18.238962   1.000000
    116        -18.236956   1.000000
    117        -18.227278   1.000000
    118        -18.223398   1.000000
    119        -18.219609   1.000000
    120        -18.218849   1.000000
    121        -18.213928   1.000000
    122        -18.212200   1.000000
    123        -18.211153   1.000000
    124        -18.206575   1.000000
    125        -18.205548   1.000000
    126        -18.204799   1.000000
    127        -18.204057   1.000000
    128        -18.202371   1.000000
    129        -18.201857   1.000000
    130        -18.199632   1.000000
    131        -18.198805   1.000000
    132        -18.197380   1.000000
    133        -18.197030   1.000000
    134        -18.185346   1.000000
    135        -18.182232   1.000000
    136        -18.180449   1.000000
    137        -18.176006   1.000000
    138        -18.172230   1.000000
    139        -18.170918   1.000000
    140        -18.168859   1.000000
    141        -18.168544   1.000000
    142        -18.164894   1.000000
    143        -18.160946   1.000000
    144        -18.156756   1.000000
    145        -18.154778   1.000000
    146        -18.147038   1.000000
    147        -18.141329   1.000000
    148        -18.139900   1.000000
    149        -18.136524   1.000000
    150        -18.136172   1.000000
    151        -18.130324   1.000000
    152        -18.129740   1.000000
    153        -18.122398   1.000000
    154        -18.119263   1.000000
    155        -18.119088   1.000000
    156        -18.113934   1.000000
    157        -18.111717   1.000000
    158        -18.096579   1.000000
    159        -18.093691   1.000000
    160        -18.085739   1.000000
    161        -18.082515   1.000000
    162        -18.082129   1.000000
    163        -18.078267   1.000000
    164        -18.076425   1.000000
    165        -18.074273   1.000000
    166        -18.074135   1.000000
    167        -18.067393   1.000000
    168        -18.065566   1.000000
    169        -18.060738   1.000000
    170        -18.059935   1.000000
    171        -18.053955   1.000000
    172        -18.053746   1.000000
    173        -18.051856   1.000000
    174        -18.026545   1.000000
    175        -18.003673   1.000000
    176        -17.993976   1.000000
    177        -17.985687   1.000000
    178        -17.985333   1.000000
    179        -17.973554   1.000000
    180        -17.965289   1.000000
    181        -17.960078   1.000000
    182        -17.957166   1.000000
    183        -17.956247   1.000000
    184        -17.951477   1.000000
    185        -17.951237   1.000000
    186        -17.946026   1.000000
    187        -17.944621   1.000000
    188        -17.942737   1.000000
    189        -17.942734   1.000000
    190        -17.938240   1.000000
    191        -17.935339   1.000000
    192        -17.933477   1.000000
    193        -17.931091   1.000000
    194        -17.930945   1.000000
    195        -17.918201   1.000000
    196        -17.915464   1.000000
    197        -17.906217   1.000000
    198        -17.902155   1.000000
    199        -17.896826   1.000000
    200        -17.890429   1.000000
    201        -17.884676   1.000000
    202        -17.882061   1.000000
    203        -17.877381   1.000000
    204        -17.871942   1.000000
    205        -17.869809   1.000000
    206        -17.864711   1.000000
    207        -17.863761   1.000000
    208        -17.861887   1.000000
    209        -17.860324   1.000000
    210        -17.859388   1.000000
    211        -17.856722   1.000000
    212        -17.856207   1.000000
    213        -17.853201   1.000000
    214        -17.852458   1.000000
    215        -17.843863   1.000000
    216        -17.838227   1.000000
    217        -17.833731   1.000000
    218        -17.831846   1.000000
    219        -17.830114   1.000000
    220        -17.824930   1.000000
    221        -17.824342   1.000000
    222        -17.821407   1.000000
    223        -17.810188   1.000000
    224        -17.810172   1.000000
    225        -17.806072   1.000000
    226        -17.802302   1.000000
    227        -17.797985   1.000000
    228        -17.796738   1.000000
    229        -17.795238   1.000000
    230        -17.793487   1.000000
    231        -17.789787   1.000000
    232        -17.788050   1.000000
    233        -17.782539   1.000000
    234        -17.782339   1.000000
    235        -17.773869   1.000000
    236        -17.770905   1.000000
    237        -17.767098   1.000000
    238        -17.765146   1.000000
    239        -17.763792   1.000000
    240        -17.763342   1.000000
    241        -17.761853   1.000000
    242        -17.752951   1.000000
    243        -17.751902   1.000000
    244        -17.747560   1.000000
    245        -17.746967   1.000000
    246        -17.743299   1.000000
    247        -17.743025   1.000000
    248        -17.738642   1.000000
    249        -17.738541   1.000000
    250        -17.732854   1.000000
    251        -17.732649   1.000000
    252        -17.727981   1.000000
    253        -17.727838   1.000000
    254        -17.724429   1.000000
    255        -17.718644   1.000000
    256        -17.712379   1.000000
    257        -17.708689   1.000000
    258        -17.704715   1.000000
    259        -17.703424   1.000000
    260        -17.697649   1.000000
    261        -17.696687   1.000000
    262        -17.693810   1.000000
    263        -17.690103   1.000000
    264        -17.685368   1.000000
    265        -17.684986   1.000000
    266        -17.682461   1.000000
    267        -17.681287   1.000000
    268        -17.681270   1.000000
    269        -17.677594   1.000000
    270        -17.677555   1.000000
    271        -17.673565   1.000000
    272        -17.672728   1.000000
    273        -17.670578   1.000000
    274        -17.669887   1.000000
    275        -17.669637   1.000000
    276        -17.664648   1.000000
    277        -17.661366   1.000000
    278        -17.661194   1.000000
    279        -17.659852   1.000000
    280        -17.653327   1.000000
    281        -17.652531   1.000000
    282        -17.651749   1.000000
    283        -17.649761   1.000000
    284        -17.648148   1.000000
    285        -17.646343   1.000000
    286        -17.643090   1.000000
    287        -17.642113   1.000000
    288        -17.641163   1.000000
    289        -17.641082   1.000000
    290        -17.638241   1.000000
    291        -17.635001   1.000000
    292        -17.633770   1.000000
    293        -17.633712   1.000000
    294        -17.632684   1.000000
    295        -17.632247   1.000000
    296        -17.630821   1.000000
    297        -17.629473   1.000000
    298        -17.628987   1.000000
    299        -17.627719   1.000000
    300        -17.626678   1.000000
    301        -17.623633   1.000000
    302        -17.622315   1.000000
    303        -17.621245   1.000000
    304        -17.620315   1.000000
    305        -17.618985   1.000000
    306        -17.617855   1.000000
    307        -17.617221   1.000000
    308        -17.616401   1.000000
    309        -17.615434   1.000000
    310        -17.615187   1.000000
    311        -17.614592   1.000000
    312        -17.608619   1.000000
    313        -17.605729   1.000000
    314        -17.604447   1.000000
    315        -17.603409   1.000000
    316        -17.602533   1.000000
    317        -17.597772   1.000000
    318        -17.596646   1.000000
    319        -17.596114   1.000000
    320        -17.593891   1.000000
    321        -17.593422   1.000000
    322        -17.591316   1.000000
    323        -17.587141   1.000000
    324        -17.583185   1.000000
    325        -17.582904   1.000000
    326        -17.581508   1.000000
    327        -17.580324   1.000000
    328        -17.578162   1.000000
    329        -17.578156   1.000000
    330        -17.577060   1.000000
    331        -17.576952   1.000000
    332        -17.575520   1.000000
    333        -17.570337   1.000000
    334        -17.569974   1.000000
    335        -17.569112   1.000000
    336        -17.566138   1.000000
    337        -17.565936   1.000000
    338        -17.564865   1.000000
    339        -17.563115   1.000000
    340        -17.562167   1.000000
    341        -17.561261   1.000000
    342        -17.559889   1.000000
    343        -17.558725   1.000000
    344        -17.554004   1.000000
    345        -17.553805   1.000000
    346        -17.550584   1.000000
    347        -17.548992   1.000000
    348        -17.547500   1.000000
    349        -17.546965   1.000000
    350        -17.545471   1.000000
    351        -17.545367   1.000000
    352        -17.542552   1.000000
    353        -17.540857   1.000000
    354        -17.536125   1.000000
    355        -17.535232   1.000000
    356        -17.529201   1.000000
    357        -17.522479   1.000000
    358        -17.521315   1.000000
    359        -17.517900   1.000000
    360        -17.516991   1.000000
    361        -17.513220   1.000000
    362        -17.512968   1.000000
    363        -17.511016   1.000000
    364        -17.505613   1.000000
    365        -17.503553   1.000000
    366        -17.502065   1.000000
    367        -17.500627   1.000000
    368        -17.497959   1.000000
    369        -17.496384   1.000000
    370        -17.494870   1.000000
    371        -17.493519   1.000000
    372        -17.488378   1.000000
    373        -17.488195   1.000000
    374        -17.481525   1.000000
    375        -17.480387   1.000000
    376        -17.477015   1.000000
    377        -17.475262   1.000000
    378        -17.474265   1.000000
    379        -17.467582   1.000000
    380        -17.453376   1.000000
    381        -17.447111   1.000000
    382        -17.437849   1.000000
    383        -17.435184   1.000000
    384        -17.425697   1.000000
    385          2.444020   1.000000
    386          3.565073   1.000000
    387          3.860663   1.000000
    388          4.328929   1.000000
    389          4.568619   1.000000
    390          4.652806   1.000000
    391          4.701544   1.000000
    392          4.824442   1.000000
    393          4.877419   1.000000
    394          4.951120   1.000000
    395          5.252008   1.000000
    396          5.279885   1.000000
    397          5.367020   1.000000
    398          5.404332   1.000000
    399          5.423477   1.000000
    400          5.455627   1.000000
    401          5.510655   1.000000
    402          5.586061   1.000000
    403          5.691031   1.000000
    404          5.730109   1.000000
    405          5.962114   1.000000
    406          5.971197   1.000000
    407          5.982940   1.000000
    408          5.989714   1.000000
    409          6.003690   1.000000
    410          6.011497   1.000000
    411          6.017432   1.000000
    412          6.031988   1.000000
    413          6.042526   1.000000
    414          6.061740   1.000000
    415          6.076259   1.000000
    416          6.098366   1.000000
    417          6.145931   1.000000
    418          6.202933   1.000000
    419          6.219054   1.000000
    420          6.234143   1.000000
    421          6.251287   1.000000
    422          6.266005   1.000000
    423          6.290415   1.000000
    424          6.292790   1.000000
    425          6.309038   1.000000
    426          6.319613   1.000000
    427          6.328255   1.000000
    428          6.346417   1.000000
    429          6.377186   1.000000
    430          6.391644   1.000000
    431          6.430932   1.000000
    432          6.517342   1.000000
    433          6.522580   1.000000
    434          6.524455   1.000000
    435          6.528985   1.000000
    436          6.532577   1.000000
    437          6.535702   1.000000
    438          6.539980   1.000000
    439          6.560420   1.000000
    440          6.584831   1.000000
    441          6.586012   1.000000
    442          6.590314   1.000000
    443          6.607680   1.000000
    444          6.648102   1.000000
    445          6.656999   1.000000
    446          6.676072   1.000000
    447          6.700667   1.000000
    448          6.702635   1.000000
    449          6.753683   1.000000
    450          6.770826   1.000000
    451          6.779337   1.000000
    452          6.856742   1.000000
    453          6.863224   1.000000
    454          6.889632   1.000000
    455          6.890911   1.000000
    456          6.921864   1.000000
    457          6.923413   1.000000
    458          6.927024   1.000000
    459          6.929147   1.000000
    460          6.929240   1.000000
    461          6.931229   1.000000
    462          6.936422   1.000000
    463          7.011721   1.000000
    464          7.052369   1.000000
    465          7.057984   1.000000
    466          7.062993   1.000000
    467          7.073859   1.000000
    468          7.073978   1.000000
    469          7.076054   1.000000
    470          7.079419   1.000000
    471          7.122936   1.000000
    472          7.137944   1.000000
    473          7.138426   1.000000
    474          7.166373   1.000000
    475          7.169602   1.000000
    476          7.178513   1.000000
    477          7.182717   1.000000
    478          7.185472   1.000000
    479          7.192535   1.000000
    480          7.217472   1.000000
    481          7.257101   1.000000
    482          7.262761   1.000000
    483          7.264904   1.000000
    484          7.292263   1.000000
    485          7.296847   1.000000
    486          7.366774   1.000000
    487          7.438287   1.000000
    488          7.448743   1.000000
    489          7.462577   1.000000
    490          7.476151   1.000000
    491          7.486671   1.000000
    492          7.509365   1.000000
    493          7.523636   1.000000
    494          7.529669   1.000000
    495          7.545726   1.000000
    496          7.558157   1.000000
    497          7.588538   1.000000
    498          7.603113   1.000000
    499          7.611667   1.000000
    500          7.616368   1.000000
    501          7.644623   1.000000
    502          7.661148   1.000000
    503          7.668985   1.000000
    504          7.672772   1.000000
    505          7.714027   1.000000
    506          7.808696   1.000000
    507          7.822898   1.000000
    508          7.835101   1.000000
    509          7.875226   1.000000
    510          7.880267   1.000000
    511          7.888256   1.000000
    512          7.890438   1.000000
    513          7.913170   1.000000
    514          7.920932   1.000000
    515          7.944231   1.000000
    516          7.947229   1.000000
    517          7.960948   1.000000
    518          7.969820   1.000000
    519          7.983320   1.000000
    520          8.000887   1.000000
    521          8.013347   1.000000
    522          8.025766   1.000000
    523          8.033528   1.000000
    524          8.038052   1.000000
    525          8.042564   1.000000
    526          8.043455   1.000000
    527          8.051718   1.000000
    528          8.058274   1.000000
    529          8.058701   1.000000
    530          8.063078   1.000000
    531          8.079666   1.000000
    532          8.093573   1.000000
    533          8.095011   1.000000
    534          8.100743   1.000000
    535          8.132511   1.000000
    536          8.141767   1.000000
    537          8.146556   1.000000
    538          8.148964   1.000000
    539          8.152598   1.000000
    540          8.159160   1.000000
    541          8.178170   1.000000
    542          8.212198   1.000001
    543          8.243238   1.000003
    544          8.277936   1.000009
    545          8.279240   1.000009
    546          8.297438   1.000016
    547          8.318933   1.000031
    548          8.332169   1.000045
    549          8.335474   1.000050
    550          8.351630   1.000079
    551          8.353348   1.000083
    552          8.360334   1.000101
    553          8.386995   1.000208
    554          8.397737   1.000276
    555          8.410404   1.000380
    556          8.423621   1.000526
    557          8.425181   1.000547
    558          8.435818   1.000705
    559          8.437478   1.000733
    560          8.440391   1.000785
    561          8.441816   1.000811
    562          8.449277   1.000963
    563          8.449413   1.000966
    564          8.460811   1.001248
    565          8.488217   1.002240
    566          8.542138   1.006195
    567          8.544291   1.006427
    568          8.557541   1.008007
    569          8.685358   1.033116
    570          8.732927   1.033617
    571          8.768835   1.018161
    572          8.770729   1.016788
    573          8.796324   0.991464
    574          8.891912   0.761469
    575          8.913075   0.682706
    576          8.936136   0.589586
    577          8.937117   0.585510
    578          8.968537   0.453130
    579          8.987076   0.376118
    580          9.002786   0.313491
    581          9.049727   0.151819
    582          9.051439   0.146828
    583          9.065056   0.109712
    584          9.069807   0.097851
    585          9.105874   0.026263
    586          9.107813   0.023315
    587          9.142088  -0.015217
    588          9.152952  -0.022638
    589          9.165239  -0.028715
    590          9.168488  -0.029950
    591          9.176412  -0.032377
    592          9.177685  -0.032693
    593          9.183806  -0.033953
    594          9.189201  -0.034726
    595          9.195894  -0.035288
    596          9.197950  -0.035380
    597          9.200053  -0.035437
    598          9.200568  -0.035445
    599          9.206468  -0.035396
    600          9.208636  -0.035314
    601          9.215157  -0.034883
    602          9.236798  -0.031889
    603          9.238795  -0.031522
    604          9.243011  -0.030711
    605          9.252114  -0.028822
    606          9.306265  -0.016668
    607          9.354391  -0.008396
    608          9.395975  -0.004086
    609          9.398700  -0.003883
    610          9.405607  -0.003405
    611          9.407155  -0.003304
    612          9.433609  -0.001939
    613          9.450230  -0.001358
    614          9.454930  -0.001225
    615          9.466317  -0.000948
    616          9.472790  -0.000816
    617          9.473752  -0.000798
    618          9.483691  -0.000632
    619          9.484475  -0.000620
    620          9.491281  -0.000526
    621          9.496233  -0.000466
    622          9.496820  -0.000460
    623          9.501978  -0.000404
    624          9.506440  -0.000362
    625          9.510164  -0.000329
    626          9.546447  -0.000127
    627          9.567098  -0.000071
    628          9.571519  -0.000063
    629          9.598644  -0.000028
    630          9.599285  -0.000028
    631          9.612294  -0.000019
    632          9.619289  -0.000015
    633          9.623487  -0.000013
    634          9.631142  -0.000010
    635          9.634093  -0.000009
    636          9.645912  -0.000006
    637          9.661101  -0.000004
    638          9.674194  -0.000002
    639          9.681391  -0.000002
    640          9.692454  -0.000001
    641          9.737949  -0.000000
    642          9.745414  -0.000000
    643          9.781018  -0.000000
    644          9.798845  -0.000000
    645          9.842311  -0.000000
    646          9.867789  -0.000000
    647          9.872846  -0.000000
    648          9.878838  -0.000000
    649          9.881205  -0.000000
    650          9.900230  -0.000000
    651          9.903585  -0.000000
    652          9.922222  -0.000000
    653          9.928268  -0.000000
    654          9.932076  -0.000000
    655          9.939119  -0.000000
    656          9.950375  -0.000000
    657          9.961364  -0.000000
    658          9.968575  -0.000000
    659          9.981458  -0.000000
    660          9.982271  -0.000000
    661          9.995914  -0.000000
    662         10.006447  -0.000000
    663         10.006616  -0.000000
    664         10.012395  -0.000000
    665         10.015318  -0.000000
    666         10.022435  -0.000000
    667         10.026482  -0.000000
    668         10.031285  -0.000000
    669         10.035769  -0.000000
    670         10.096727  -0.000000
    671         10.108284  -0.000000
    672         10.109751  -0.000000
    673         10.125501  -0.000000
    674         10.164230  -0.000000
    675         10.169025  -0.000000
    676         10.199407  -0.000000
    677         10.204749  -0.000000
    678         10.222144  -0.000000
    679         10.222812  -0.000000
    680         10.232491  -0.000000
    681         10.249133  -0.000000
    682         10.257144  -0.000000
    683         10.257805  -0.000000
    684         10.271275  -0.000000
    685         10.271423  -0.000000
    686         10.277214  -0.000000
    687         10.281264  -0.000000
    688         10.297950  -0.000000
    689         10.298397  -0.000000
    690         10.306856  -0.000000
    691         10.311997  -0.000000
 
 -0.1345275E-16 -0.2500000E+00  0.3333333E+00  0.4166667E-01
      1        -39.909667   1.000000
      2        -39.889886   1.000000
      3        -39.875346   1.000000
      4        -39.864805   1.000000
      5        -39.856814   1.000000
      6        -39.855698   1.000000
      7        -39.848991   1.000000
      8        -39.844069   1.000000
      9        -39.841817   1.000000
     10        -39.837758   1.000000
     11        -39.832245   1.000000
     12        -39.828463   1.000000
     13        -39.824138   1.000000
     14        -39.818482   1.000000
     15        -39.818077   1.000000
     16        -39.815862   1.000000
     17        -39.810697   1.000000
     18        -39.808465   1.000000
     19        -39.807034   1.000000
     20        -39.802963   1.000000
     21        -39.801352   1.000000
     22        -39.798202   1.000000
     23        -39.793673   1.000000
     24        -39.789345   1.000000
     25        -39.787271   1.000000
     26        -39.784372   1.000000
     27        -39.783624   1.000000
     28        -39.783030   1.000000
     29        -39.779956   1.000000
     30        -39.778504   1.000000
     31        -39.776773   1.000000
     32        -39.773768   1.000000
     33        -39.773692   1.000000
     34        -39.772451   1.000000
     35        -39.769354   1.000000
     36        -39.766725   1.000000
     37        -39.766320   1.000000
     38        -39.766197   1.000000
     39        -39.765446   1.000000
     40        -39.764659   1.000000
     41        -39.764386   1.000000
     42        -39.761933   1.000000
     43        -39.761702   1.000000
     44        -39.760966   1.000000
     45        -39.759493   1.000000
     46        -39.758520   1.000000
     47        -39.757795   1.000000
     48        -39.754169   1.000000
     49        -39.753663   1.000000
     50        -39.753484   1.000000
     51        -39.751846   1.000000
     52        -39.751191   1.000000
     53        -39.750193   1.000000
     54        -39.749776   1.000000
     55        -39.748656   1.000000
     56        -39.748096   1.000000
     57        -39.747241   1.000000
     58        -39.747012   1.000000
     59        -39.745945   1.000000
     60        -39.745266   1.000000
     61        -39.744071   1.000000
     62        -39.742970   1.000000
     63        -39.742028   1.000000
     64        -39.741998   1.000000
     65        -39.739484   1.000000
     66        -39.738860   1.000000
     67        -39.738508   1.000000
     68        -39.737594   1.000000
     69        -39.736344   1.000000
     70        -39.736002   1.000000
     71        -39.734961   1.000000
     72        -39.733027   1.000000
     73        -39.732943   1.000000
     74        -39.732312   1.000000
     75        -39.731807   1.000000
     76        -39.730669   1.000000
     77        -39.729998   1.000000
     78        -39.728226   1.000000
     79        -39.726808   1.000000
     80        -39.725729   1.000000
     81        -39.725246   1.000000
     82        -39.723882   1.000000
     83        -39.723756   1.000000
     84        -39.722783   1.000000
     85        -39.722592   1.000000
     86        -39.721864   1.000000
     87        -39.721489   1.000000
     88        -39.721111   1.000000
     89        -39.718797   1.000000
     90        -39.718575   1.000000
     91        -39.715865   1.000000
     92        -39.715554   1.000000
     93        -39.709186   1.000000
     94        -39.709032   1.000000
     95        -39.706407   1.000000
     96        -39.704516   1.000000
     97        -18.379763   1.000000
     98        -18.338009   1.000000
     99        -18.315504   1.000000
    100        -18.311109   1.000000
    101        -18.304856   1.000000
    102        -18.299959   1.000000
    103        -18.297318   1.000000
    104        -18.296882   1.000000
    105        -18.292682   1.000000
    106        -18.286050   1.000000
    107        -18.282341   1.000000
    108        -18.275140   1.000000
    109        -18.264393   1.000000
    110        -18.261624   1.000000
    111        -18.259091   1.000000
    112        -18.256101   1.000000
    113        -18.250179   1.000000
    114        -18.245213   1.000000
    115        -18.238942   1.000000
    116        -18.236824   1.000000
    117        -18.227780   1.000000
    118        -18.222922   1.000000
    119        -18.219230   1.000000
    120        -18.218897   1.000000
    121        -18.214002   1.000000
    122        -18.211170   1.000000
    123        -18.210913   1.000000
    124        -18.206168   1.000000
    125        -18.205905   1.000000
    126        -18.204903   1.000000
    127        -18.204456   1.000000
    128        -18.202158   1.000000
    129        -18.202052   1.000000
    130        -18.199525   1.000000
    131        -18.199228   1.000000
    132        -18.197733   1.000000
    133        -18.196537   1.000000
    134        -18.184622   1.000000
    135        -18.182802   1.000000
    136        -18.180595   1.000000
    137        -18.176149   1.000000
    138        -18.172061   1.000000
    139        -18.171013   1.000000
    140        -18.169038   1.000000
    141        -18.168959   1.000000
    142        -18.164997   1.000000
    143        -18.161802   1.000000
    144        -18.156810   1.000000
    145        -18.154271   1.000000
    146        -18.147419   1.000000
    147        -18.141219   1.000000
    148        -18.139306   1.000000
    149        -18.137203   1.000000
    150        -18.136445   1.000000
    151        -18.129979   1.000000
    152        -18.129535   1.000000
    153        -18.123079   1.000000
    154        -18.118573   1.000000
    155        -18.118185   1.000000
    156        -18.114413   1.000000
    157        -18.112572   1.000000
    158        -18.096665   1.000000
    159        -18.093316   1.000000
    160        -18.086086   1.000000
    161        -18.082145   1.000000
    162        -18.081584   1.000000
    163        -18.077414   1.000000
    164        -18.075450   1.000000
    165        -18.074630   1.000000
    166        -18.074352   1.000000
    167        -18.065925   1.000000
    168        -18.064974   1.000000
    169        -18.061399   1.000000
    170        -18.059934   1.000000
    171        -18.054981   1.000000
    172        -18.054711   1.000000
    173        -18.052006   1.000000
    174        -18.026535   1.000000
    175        -18.005208   1.000000
    176        -17.991982   1.000000
    177        -17.986172   1.000000
    178        -17.985744   1.000000
    179        -17.974119   1.000000
    180        -17.965216   1.000000
    181        -17.961602   1.000000
    182        -17.956279   1.000000
    183        -17.954985   1.000000
    184        -17.951089   1.000000
    185        -17.950366   1.000000
    186        -17.946474   1.000000
    187        -17.945337   1.000000
    188        -17.943438   1.000000
    189        -17.943169   1.000000
    190        -17.938319   1.000000
    191        -17.935377   1.000000
    192        -17.934996   1.000000
    193        -17.929920   1.000000
    194        -17.929698   1.000000
    195        -17.918298   1.000000
    196        -17.915240   1.000000
    197        -17.907353   1.000000
    198        -17.900346   1.000000
    199        -17.894388   1.000000
    200        -17.891078   1.000000
    201        -17.885340   1.000000
    202        -17.882469   1.000000
    203        -17.876961   1.000000
    204        -17.872863   1.000000
    205        -17.869855   1.000000
    206        -17.866050   1.000000
    207        -17.864367   1.000000
    208        -17.861948   1.000000
    209        -17.861074   1.000000
    210        -17.859231   1.000000
    211        -17.856651   1.000000
    212        -17.856131   1.000000
    213        -17.853760   1.000000
    214        -17.852747   1.000000
    215        -17.843495   1.000000
    216        -17.837546   1.000000
    217        -17.833266   1.000000
    218        -17.832649   1.000000
    219        -17.829478   1.000000
    220        -17.825793   1.000000
    221        -17.822231   1.000000
    222        -17.819807   1.000000
    223        -17.811071   1.000000
    224        -17.808457   1.000000
    225        -17.805725   1.000000
    226        -17.803221   1.000000
    227        -17.798231   1.000000
    228        -17.796852   1.000000
    229        -17.794922   1.000000
    230        -17.793038   1.000000
    231        -17.789653   1.000000
    232        -17.787413   1.000000
    233        -17.783646   1.000000
    234        -17.782324   1.000000
    235        -17.775361   1.000000
    236        -17.771298   1.000000
    237        -17.768404   1.000000
    238        -17.766198   1.000000
    239        -17.763456   1.000000
    240        -17.762752   1.000000
    241        -17.761900   1.000000
    242        -17.753869   1.000000
    243        -17.751403   1.000000
    244        -17.748134   1.000000
    245        -17.745978   1.000000
    246        -17.743236   1.000000
    247        -17.742280   1.000000
    248        -17.739484   1.000000
    249        -17.737515   1.000000
    250        -17.734552   1.000000
    251        -17.732166   1.000000
    252        -17.727970   1.000000
    253        -17.727643   1.000000
    254        -17.725082   1.000000
    255        -17.716104   1.000000
    256        -17.711250   1.000000
    257        -17.708955   1.000000
    258        -17.705155   1.000000
    259        -17.702909   1.000000
    260        -17.697523   1.000000
    261        -17.697037   1.000000
    262        -17.694277   1.000000
    263        -17.690211   1.000000
    264        -17.685631   1.000000
    265        -17.684831   1.000000
    266        -17.682988   1.000000
    267        -17.682518   1.000000
    268        -17.680436   1.000000
    269        -17.678586   1.000000
    270        -17.677505   1.000000
    271        -17.674292   1.000000
    272        -17.672085   1.000000
    273        -17.671565   1.000000
    274        -17.669677   1.000000
    275        -17.669396   1.000000
    276        -17.664167   1.000000
    277        -17.661949   1.000000
    278        -17.661048   1.000000
    279        -17.659112   1.000000
    280        -17.653248   1.000000
    281        -17.650777   1.000000
    282        -17.650595   1.000000
    283        -17.649941   1.000000
    284        -17.647591   1.000000
    285        -17.646728   1.000000
    286        -17.642316   1.000000
    287        -17.642112   1.000000
    288        -17.641089   1.000000
    289        -17.640965   1.000000
    290        -17.637755   1.000000
    291        -17.636177   1.000000
    292        -17.635024   1.000000
    293        -17.633672   1.000000
    294        -17.632656   1.000000
    295        -17.632412   1.000000
    296        -17.631174   1.000000
    297        -17.629862   1.000000
    298        -17.627835   1.000000
    299        -17.627674   1.000000
    300        -17.625617   1.000000
    301        -17.623473   1.000000
    302        -17.622634   1.000000
    303        -17.622546   1.000000
    304        -17.620197   1.000000
    305        -17.620064   1.000000
    306        -17.618009   1.000000
    307        -17.617192   1.000000
    308        -17.616150   1.000000
    309        -17.615581   1.000000
    310        -17.615512   1.000000
    311        -17.613905   1.000000
    312        -17.608493   1.000000
    313        -17.606322   1.000000
    314        -17.604705   1.000000
    315        -17.603286   1.000000
    316        -17.602799   1.000000
    317        -17.597593   1.000000
    318        -17.597294   1.000000
    319        -17.595977   1.000000
    320        -17.594032   1.000000
    321        -17.593758   1.000000
    322        -17.591232   1.000000
    323        -17.586168   1.000000
    324        -17.583316   1.000000
    325        -17.582661   1.000000
    326        -17.581581   1.000000
    327        -17.580279   1.000000
    328        -17.578571   1.000000
    329        -17.578300   1.000000
    330        -17.577158   1.000000
    331        -17.576749   1.000000
    332        -17.574385   1.000000
    333        -17.570439   1.000000
    334        -17.569937   1.000000
    335        -17.568047   1.000000
    336        -17.566288   1.000000
    337        -17.566059   1.000000
    338        -17.565309   1.000000
    339        -17.562922   1.000000
    340        -17.561562   1.000000
    341        -17.561329   1.000000
    342        -17.559953   1.000000
    343        -17.558975   1.000000
    344        -17.554962   1.000000
    345        -17.554279   1.000000
    346        -17.549958   1.000000
    347        -17.549741   1.000000
    348        -17.548260   1.000000
    349        -17.547004   1.000000
    350        -17.545210   1.000000
    351        -17.545099   1.000000
    352        -17.542229   1.000000
    353        -17.540971   1.000000
    354        -17.535971   1.000000
    355        -17.535141   1.000000
    356        -17.528899   1.000000
    357        -17.522443   1.000000
    358        -17.521031   1.000000
    359        -17.518322   1.000000
    360        -17.517033   1.000000
    361        -17.513225   1.000000
    362        -17.512686   1.000000
    363        -17.511058   1.000000
    364        -17.505636   1.000000
    365        -17.503423   1.000000
    366        -17.501933   1.000000
    367        -17.500601   1.000000
    368        -17.497861   1.000000
    369        -17.496708   1.000000
    370        -17.494801   1.000000
    371        -17.492929   1.000000
    372        -17.489147   1.000000
    373        -17.488315   1.000000
    374        -17.481835   1.000000
    375        -17.480400   1.000000
    376        -17.476667   1.000000
    377        -17.475055   1.000000
    378        -17.474733   1.000000
    379        -17.466928   1.000000
    380        -17.453663   1.000000
    381        -17.447115   1.000000
    382        -17.437788   1.000000
    383        -17.435205   1.000000
    384        -17.425706   1.000000
    385          2.444019   1.000000
    386          3.565048   1.000000
    387          3.860682   1.000000
    388          4.329299   1.000000
    389          4.568306   1.000000
    390          4.652734   1.000000
    391          4.700527   1.000000
    392          4.824431   1.000000
    393          4.877738   1.000000
    394          4.952072   1.000000
    395          5.252438   1.000000
    396          5.280722   1.000000
    397          5.367101   1.000000
    398          5.403675   1.000000
    399          5.422292   1.000000
    400          5.456062   1.000000
    401          5.509693   1.000000
    402          5.588120   1.000000
    403          5.690838   1.000000
    404          5.728066   1.000000
    405          5.960432   1.000000
    406          5.971029   1.000000
    407          5.982624   1.000000
    408          5.990749   1.000000
    409          6.004199   1.000000
    410          6.011697   1.000000
    411          6.017343   1.000000
    412          6.033193   1.000000
    413          6.043014   1.000000
    414          6.061290   1.000000
    415          6.075766   1.000000
    416          6.098138   1.000000
    417          6.147152   1.000000
    418          6.202989   1.000000
    419          6.219993   1.000000
    420          6.233996   1.000000
    421          6.250597   1.000000
    422          6.265764   1.000000
    423          6.290612   1.000000
    424          6.292331   1.000000
    425          6.308708   1.000000
    426          6.319750   1.000000
    427          6.329178   1.000000
    428          6.346284   1.000000
    429          6.378990   1.000000
    430          6.391277   1.000000
    431          6.428809   1.000000
    432          6.515992   1.000000
    433          6.520819   1.000000
    434          6.523924   1.000000
    435          6.527710   1.000000
    436          6.531795   1.000000
    437          6.535980   1.000000
    438          6.540653   1.000000
    439          6.565641   1.000000
    440          6.584388   1.000000
    441          6.587093   1.000000
    442          6.592323   1.000000
    443          6.606506   1.000000
    444          6.649794   1.000000
    445          6.656798   1.000000
    446          6.676220   1.000000
    447          6.700194   1.000000
    448          6.704155   1.000000
    449          6.746340   1.000000
    450          6.769310   1.000000
    451          6.784041   1.000000
    452          6.857610   1.000000
    453          6.861620   1.000000
    454          6.889182   1.000000
    455          6.892239   1.000000
    456          6.922096   1.000000
    457          6.923881   1.000000
    458          6.927217   1.000000
    459          6.928464   1.000000
    460          6.929145   1.000000
    461          6.931245   1.000000
    462          6.935333   1.000000
    463          7.011424   1.000000
    464          7.052838   1.000000
    465          7.058368   1.000000
    466          7.063169   1.000000
    467          7.072090   1.000000
    468          7.072531   1.000000
    469          7.074636   1.000000
    470          7.079342   1.000000
    471          7.118788   1.000000
    472          7.136323   1.000000
    473          7.153777   1.000000
    474          7.164078   1.000000
    475          7.168116   1.000000
    476          7.180921   1.000000
    477          7.183649   1.000000
    478          7.185712   1.000000
    479          7.192550   1.000000
    480          7.211870   1.000000
    481          7.257454   1.000000
    482          7.263643   1.000000
    483          7.264638   1.000000
    484          7.287216   1.000000
    485          7.297303   1.000000
    486          7.372815   1.000000
    487          7.438488   1.000000
    488          7.448509   1.000000
    489          7.462098   1.000000
    490          7.474079   1.000000
    491          7.497460   1.000000
    492          7.506793   1.000000
    493          7.523489   1.000000
    494          7.534537   1.000000
    495          7.547434   1.000000
    496          7.557183   1.000000
    497          7.576224   1.000000
    498          7.603722   1.000000
    499          7.609912   1.000000
    500          7.616253   1.000000
    501          7.630601   1.000000
    502          7.661578   1.000000
    503          7.670489   1.000000
    504          7.672304   1.000000
    505          7.729539   1.000000
    506          7.809035   1.000000
    507          7.823105   1.000000
    508          7.834266   1.000000
    509          7.876272   1.000000
    510          7.878381   1.000000
    511          7.887786   1.000000
    512          7.893418   1.000000
    513          7.913454   1.000000
    514          7.925727   1.000000
    515          7.944779   1.000000
    516          7.945746   1.000000
    517          7.954950   1.000000
    518          7.968861   1.000000
    519          7.979486   1.000000
    520          8.000238   1.000000
    521          8.010206   1.000000
    522          8.029443   1.000000
    523          8.037092   1.000000
    524          8.038512   1.000000
    525          8.043857   1.000000
    526          8.045779   1.000000
    527          8.050617   1.000000
    528          8.057349   1.000000
    529          8.057913   1.000000
    530          8.062355   1.000000
    531          8.080908   1.000000
    532          8.092009   1.000000
    533          8.096901   1.000000
    534          8.101893   1.000000
    535          8.129237   1.000000
    536          8.141795   1.000000
    537          8.144484   1.000000
    538          8.150371   1.000000
    539          8.152619   1.000000
    540          8.157197   1.000000
    541          8.179185   1.000000
    542          8.210887   1.000001
    543          8.242416   1.000003
    544          8.278802   1.000009
    545          8.279385   1.000009
    546          8.297876   1.000016
    547          8.320065   1.000032
    548          8.333361   1.000047
    549          8.334320   1.000048
    550          8.347885   1.000071
    551          8.353796   1.000084
    552          8.366376   1.000120
    553          8.380501   1.000175
    554          8.397730   1.000275
    555          8.408939   1.000366
    556          8.424894   1.000543
    557          8.425146   1.000546
    558          8.437525   1.000734
    559          8.437611   1.000735
    560          8.439854   1.000775
    561          8.442417   1.000822
    562          8.448355   1.000943
    563          8.450199   1.000983
    564          8.461830   1.001276
    565          8.489550   1.002302
    566          8.542679   1.006253
    567          8.546353   1.006656
    568          8.555126   1.007700
    569          8.684409   1.032967
    570          8.733018   1.033599
    571          8.769875   1.017415
    572          8.770714   1.016799
    573          8.796248   0.991559
    574          8.899094   0.735624
    575          8.913245   0.682044
    576          8.936352   0.588692
    577          8.938333   0.580448
    578          8.961979   0.480805
    579          8.986260   0.379453
    580          9.002156   0.315939
    581          9.042176   0.174655
    582          9.052615   0.143444
    583          9.066131   0.106980
    584          9.075364   0.084702
    585          9.105654   0.026604
    586          9.109575   0.020711
    587          9.149150  -0.020272
    588          9.152515  -0.022379
    589          9.156977  -0.024885
    590          9.170972  -0.030798
    591          9.177666  -0.032689
    592          9.178849  -0.032966
    593          9.182728  -0.033762
    594          9.188723  -0.034669
    595          9.194323  -0.035193
    596          9.198783  -0.035407
    597          9.199629  -0.035428
    598          9.200554  -0.035445
    599          9.205121  -0.035430
    600          9.208077  -0.035338
    601          9.212256  -0.035108
    602          9.236186  -0.031999
    603          9.236896  -0.031871
    604          9.247944  -0.029707
    605          9.253558  -0.028508
    606          9.304163  -0.017108
    607          9.349258  -0.009104
    608          9.394364  -0.004211
    609          9.397094  -0.004002
    610          9.406959  -0.003317
    611          9.412214  -0.002994
    612          9.431795  -0.002014
    613          9.450945  -0.001337
    614          9.457447  -0.001158
    615          9.467489  -0.000922
    616          9.472157  -0.000828
    617          9.476165  -0.000754
    618          9.481786  -0.000661
    619          9.482492  -0.000650
    620          9.487368  -0.000578
    621          9.495547  -0.000474
    622          9.500227  -0.000422
    623          9.502571  -0.000399
    624          9.506922  -0.000357
    625          9.510400  -0.000327
    626          9.550311  -0.000114
    627          9.566486  -0.000072
    628          9.571974  -0.000062
    629          9.598744  -0.000028
    630          9.600720  -0.000026
    631          9.611674  -0.000019
    632          9.618011  -0.000016
    633          9.623482  -0.000013
    634          9.629975  -0.000011
    635          9.636703  -0.000009
    636          9.645652  -0.000006
    637          9.661763  -0.000004
    638          9.673766  -0.000003
    639          9.681444  -0.000002
    640          9.688950  -0.000001
    641          9.738140  -0.000000
    642          9.745315  -0.000000
    643          9.781276  -0.000000
    644          9.798775  -0.000000
    645          9.842885  -0.000000
    646          9.869137  -0.000000
    647          9.871844  -0.000000
    648          9.877772  -0.000000
    649          9.886182  -0.000000
    650          9.902126  -0.000000
    651          9.904341  -0.000000
    652          9.916134  -0.000000
    653          9.925495  -0.000000
    654          9.927586  -0.000000
    655          9.946315  -0.000000
    656          9.949621  -0.000000
    657          9.963483  -0.000000
    658          9.968465  -0.000000
    659          9.980065  -0.000000
    660          9.984400  -0.000000
    661          9.994507  -0.000000
    662         10.006525  -0.000000
    663         10.006834  -0.000000
    664         10.011994  -0.000000
    665         10.012818  -0.000000
    666         10.022913  -0.000000
    667         10.024915  -0.000000
    668         10.031926  -0.000000
    669         10.035396  -0.000000
    670         10.092827  -0.000000
    671         10.109725  -0.000000
    672         10.112268  -0.000000
    673         10.125537  -0.000000
    674         10.163769  -0.000000
    675         10.168723  -0.000000
    676         10.197845  -0.000000
    677         10.210113  -0.000000
    678         10.222357  -0.000000
    679         10.223043  -0.000000
    680         10.231405  -0.000000
    681         10.250936  -0.000000
    682         10.256539  -0.000000
    683         10.258681  -0.000000
    684         10.269896  -0.000000
    685         10.271193  -0.000000
    686         10.275320  -0.000000
    687         10.282216  -0.000000
    688         10.295160  -0.000000
    689         10.298695  -0.000000
    690         10.308688  -0.000000
    691         10.310889  -0.000000
 
  0.2500000E+00 -0.2500000E+00  0.3333333E+00  0.4166667E-01
      1        -39.909667   1.000000
      2        -39.889889   1.000000
      3        -39.875265   1.000000
      4        -39.865206   1.000000
      5        -39.856794   1.000000
      6        -39.855099   1.000000
      7        -39.848545   1.000000
      8        -39.844313   1.000000
      9        -39.841974   1.000000
     10        -39.839448   1.000000
     11        -39.831166   1.000000
     12        -39.827921   1.000000
     13        -39.823461   1.000000
     14        -39.819272   1.000000
     15        -39.818895   1.000000
     16        -39.814216   1.000000
     17        -39.811217   1.000000
     18        -39.808968   1.000000
     19        -39.805843   1.000000
     20        -39.805390   1.000000
     21        -39.801335   1.000000
     22        -39.797417   1.000000
     23        -39.793056   1.000000
     24        -39.788764   1.000000
     25        -39.787371   1.000000
     26        -39.785281   1.000000
     27        -39.783529   1.000000
     28        -39.782786   1.000000
     29        -39.779661   1.000000
     30        -39.778351   1.000000
     31        -39.776617   1.000000
     32        -39.774686   1.000000
     33        -39.773738   1.000000
     34        -39.771732   1.000000
     35        -39.770272   1.000000
     36        -39.766932   1.000000
     37        -39.766745   1.000000
     38        -39.766205   1.000000
     39        -39.765175   1.000000
     40        -39.764289   1.000000
     41        -39.764237   1.000000
     42        -39.761689   1.000000
     43        -39.761470   1.000000
     44        -39.760949   1.000000
     45        -39.759299   1.000000
     46        -39.758351   1.000000
     47        -39.757523   1.000000
     48        -39.754891   1.000000
     49        -39.754333   1.000000
     50        -39.752870   1.000000
     51        -39.751738   1.000000
     52        -39.751579   1.000000
     53        -39.750172   1.000000
     54        -39.749866   1.000000
     55        -39.748555   1.000000
     56        -39.748040   1.000000
     57        -39.747414   1.000000
     58        -39.746763   1.000000
     59        -39.745512   1.000000
     60        -39.745178   1.000000
     61        -39.744862   1.000000
     62        -39.743312   1.000000
     63        -39.742703   1.000000
     64        -39.740129   1.000000
     65        -39.739306   1.000000
     66        -39.738517   1.000000
     67        -39.738202   1.000000
     68        -39.737737   1.000000
     69        -39.736526   1.000000
     70        -39.736232   1.000000
     71        -39.735107   1.000000
     72        -39.734092   1.000000
     73        -39.733746   1.000000
     74        -39.732228   1.000000
     75        -39.731788   1.000000
     76        -39.730129   1.000000
     77        -39.729153   1.000000
     78        -39.728112   1.000000
     79        -39.727053   1.000000
     80        -39.725658   1.000000
     81        -39.725227   1.000000
     82        -39.723926   1.000000
     83        -39.723881   1.000000
     84        -39.722733   1.000000
     85        -39.722562   1.000000
     86        -39.721816   1.000000
     87        -39.721717   1.000000
     88        -39.720940   1.000000
     89        -39.718975   1.000000
     90        -39.718512   1.000000
     91        -39.715839   1.000000
     92        -39.715536   1.000000
     93        -39.709176   1.000000
     94        -39.709043   1.000000
     95        -39.706407   1.000000
     96        -39.704516   1.000000
     97        -18.379767   1.000000
     98        -18.337986   1.000000
     99        -18.315487   1.000000
    100        -18.311470   1.000000
    101        -18.304327   1.000000
    102        -18.299921   1.000000
    103        -18.297366   1.000000
    104        -18.296983   1.000000
    105        -18.292884   1.000000
    106        -18.285992   1.000000
    107        -18.282225   1.000000
    108        -18.275165   1.000000
    109        -18.264139   1.000000
    110        -18.261900   1.000000
    111        -18.259317   1.000000
    112        -18.255685   1.000000
    113        -18.250622   1.000000
    114        -18.244541   1.000000
    115        -18.239005   1.000000
    116        -18.236906   1.000000
    117        -18.227356   1.000000
    118        -18.223271   1.000000
    119        -18.219594   1.000000
    120        -18.218859   1.000000
    121        -18.213950   1.000000
    122        -18.212167   1.000000
    123        -18.211166   1.000000
    124        -18.206536   1.000000
    125        -18.205526   1.000000
    126        -18.204898   1.000000
    127        -18.204084   1.000000
    128        -18.202370   1.000000
    129        -18.201838   1.000000
    130        -18.199636   1.000000
    131        -18.198783   1.000000
    132        -18.197335   1.000000
    133        -18.197139   1.000000
    134        -18.185328   1.000000
    135        -18.182289   1.000000
    136        -18.180437   1.000000
    137        -18.176043   1.000000
    138        -18.172191   1.000000
    139        -18.170945   1.000000
    140        -18.168920   1.000000
    141        -18.168463   1.000000
    142        -18.164920   1.000000
    143        -18.160931   1.000000
    144        -18.156742   1.000000
    145        -18.154828   1.000000
    146        -18.147073   1.000000
    147        -18.141339   1.000000
    148        -18.139926   1.000000
    149        -18.136535   1.000000
    150        -18.136113   1.000000
    151        -18.130276   1.000000
    152        -18.129681   1.000000
    153        -18.122458   1.000000
    154        -18.119304   1.000000
    155        -18.119090   1.000000
    156        -18.113833   1.000000
    157        -18.111730   1.000000
    158        -18.096589   1.000000
    159        -18.093656   1.000000
    160        -18.085783   1.000000
    161        -18.082427   1.000000
    162        -18.082151   1.000000
    163        -18.078198   1.000000
    164        -18.076465   1.000000
    165        -18.074344   1.000000
    166        -18.074160   1.000000
    167        -18.067430   1.000000
    168        -18.065441   1.000000
    169        -18.060717   1.000000
    170        -18.060010   1.000000
    171        -18.053960   1.000000
    172        -18.053711   1.000000
    173        -18.051913   1.000000
    174        -18.026535   1.000000
    175        -18.003676   1.000000
    176        -17.994012   1.000000
    177        -17.985642   1.000000
    178        -17.985318   1.000000
    179        -17.973440   1.000000
    180        -17.965284   1.000000
    181        -17.960160   1.000000
    182        -17.957150   1.000000
    183        -17.956302   1.000000
    184        -17.951634   1.000000
    185        -17.951165   1.000000
    186        -17.946058   1.000000
    187        -17.944477   1.000000
    188        -17.942733   1.000000
    189        -17.942686   1.000000
    190        -17.938258   1.000000
    191        -17.935405   1.000000
    192        -17.933413   1.000000
    193        -17.931050   1.000000
    194        -17.930961   1.000000
    195        -17.918146   1.000000
    196        -17.915530   1.000000
    197        -17.906215   1.000000
    198        -17.902133   1.000000
    199        -17.896906   1.000000
    200        -17.890425   1.000000
    201        -17.884645   1.000000
    202        -17.882074   1.000000
    203        -17.877294   1.000000
    204        -17.871998   1.000000
    205        -17.869897   1.000000
    206        -17.864671   1.000000
    207        -17.863863   1.000000
    208        -17.861784   1.000000
    209        -17.860239   1.000000
    210        -17.859490   1.000000
    211        -17.856647   1.000000
    212        -17.856236   1.000000
    213        -17.853117   1.000000
    214        -17.852533   1.000000
    215        -17.843988   1.000000
    216        -17.838208   1.000000
    217        -17.833893   1.000000
    218        -17.831738   1.000000
    219        -17.830013   1.000000
    220        -17.825031   1.000000
    221        -17.824325   1.000000
    222        -17.821394   1.000000
    223        -17.810217   1.000000
    224        -17.810073   1.000000
    225        -17.806060   1.000000
    226        -17.802288   1.000000
    227        -17.798019   1.000000
    228        -17.796707   1.000000
    229        -17.795384   1.000000
    230        -17.793493   1.000000
    231        -17.789758   1.000000
    232        -17.788037   1.000000
    233        -17.782486   1.000000
    234        -17.782375   1.000000
    235        -17.773834   1.000000
    236        -17.770862   1.000000
    237        -17.767167   1.000000
    238        -17.765163   1.000000
    239        -17.763768   1.000000
    240        -17.763331   1.000000
    241        -17.761889   1.000000
    242        -17.752913   1.000000
    243        -17.751848   1.000000
    244        -17.747567   1.000000
    245        -17.746982   1.000000
    246        -17.743221   1.000000
    247        -17.743091   1.000000
    248        -17.738670   1.000000
    249        -17.738534   1.000000
    250        -17.732868   1.000000
    251        -17.732705   1.000000
    252        -17.727862   1.000000
    253        -17.727791   1.000000
    254        -17.724447   1.000000
    255        -17.718703   1.000000
    256        -17.712365   1.000000
    257        -17.708651   1.000000
    258        -17.704674   1.000000
    259        -17.703363   1.000000
    260        -17.697653   1.000000
    261        -17.696611   1.000000
    262        -17.693934   1.000000
    263        -17.690168   1.000000
    264        -17.685456   1.000000
    265        -17.684983   1.000000
    266        -17.682334   1.000000
    267        -17.681291   1.000000
    268        -17.681202   1.000000
    269        -17.677666   1.000000
    270        -17.677535   1.000000
    271        -17.673554   1.000000
    272        -17.672756   1.000000
    273        -17.670631   1.000000
    274        -17.669914   1.000000
    275        -17.669570   1.000000
    276        -17.664524   1.000000
    277        -17.661439   1.000000
    278        -17.661120   1.000000
    279        -17.659805   1.000000
    280        -17.653340   1.000000
    281        -17.652616   1.000000
    282        -17.651743   1.000000
    283        -17.649783   1.000000
    284        -17.648216   1.000000
    285        -17.646357   1.000000
    286        -17.643068   1.000000
    287        -17.642117   1.000000
    288        -17.641328   1.000000
    289        -17.640925   1.000000
    290        -17.638277   1.000000
    291        -17.634972   1.000000
    292        -17.633784   1.000000
    293        -17.633606   1.000000
    294        -17.632825   1.000000
    295        -17.632200   1.000000
    296        -17.630824   1.000000
    297        -17.629478   1.000000
    298        -17.628928   1.000000
    299        -17.627714   1.000000
    300        -17.626781   1.000000
    301        -17.623623   1.000000
    302        -17.622428   1.000000
    303        -17.621053   1.000000
    304        -17.620316   1.000000
    305        -17.619024   1.000000
    306        -17.617941   1.000000
    307        -17.617242   1.000000
    308        -17.616200   1.000000
    309        -17.615477   1.000000
    310        -17.615287   1.000000
    311        -17.614601   1.000000
    312        -17.608613   1.000000
    313        -17.605781   1.000000
    314        -17.604438   1.000000
    315        -17.603395   1.000000
    316        -17.602515   1.000000
    317        -17.597735   1.000000
    318        -17.596650   1.000000
    319        -17.596005   1.000000
    320        -17.593931   1.000000
    321        -17.593375   1.000000
    322        -17.591367   1.000000
    323        -17.587148   1.000000
    324        -17.583250   1.000000
    325        -17.582865   1.000000
    326        -17.581492   1.000000
    327        -17.580282   1.000000
    328        -17.578299   1.000000
    329        -17.578178   1.000000
    330        -17.577078   1.000000
    331        -17.576990   1.000000
    332        -17.575454   1.000000
    333        -17.570307   1.000000
    334        -17.570058   1.000000
    335        -17.569075   1.000000
    336        -17.566192   1.000000
    337        -17.565949   1.000000
    338        -17.564889   1.000000
    339        -17.563120   1.000000
    340        -17.562173   1.000000
    341        -17.561195   1.000000
    342        -17.559859   1.000000
    343        -17.558712   1.000000
    344        -17.553965   1.000000
    345        -17.553858   1.000000
    346        -17.550647   1.000000
    347        -17.549026   1.000000
    348        -17.547439   1.000000
    349        -17.546836   1.000000
    350        -17.545496   1.000000
    351        -17.545390   1.000000
    352        -17.542504   1.000000
    353        -17.540921   1.000000
    354        -17.536128   1.000000
    355        -17.535298   1.000000
    356        -17.529147   1.000000
    357        -17.522483   1.000000
    358        -17.521399   1.000000
    359        -17.517889   1.000000
    360        -17.516879   1.000000
    361        -17.513202   1.000000
    362        -17.512991   1.000000
    363        -17.511023   1.000000
    364        -17.505621   1.000000
    365        -17.503514   1.000000
    366        -17.502010   1.000000
    367        -17.500643   1.000000
    368        -17.497943   1.000000
    369        -17.496397   1.000000
    370        -17.494942   1.000000
    371        -17.493479   1.000000
    372        -17.488361   1.000000
    373        -17.488191   1.000000
    374        -17.481617   1.000000
    375        -17.480339   1.000000
    376        -17.476935   1.000000
    377        -17.475244   1.000000
    378        -17.474284   1.000000
    379        -17.467600   1.000000
    380        -17.453431   1.000000
    381        -17.447095   1.000000
    382        -17.437844   1.000000
    383        -17.435185   1.000000
    384        -17.425699   1.000000
    385          2.444021   1.000000
    386          3.565070   1.000000
    387          3.860651   1.000000
    388          4.328948   1.000000
    389          4.568641   1.000000
    390          4.652873   1.000000
    391          4.701466   1.000000
    392          4.824434   1.000000
    393          4.877485   1.000000
    394          4.951019   1.000000
    395          5.252049   1.000000
    396          5.279849   1.000000
    397          5.367014   1.000000
    398          5.404385   1.000000
    399          5.423436   1.000000
    400          5.455702   1.000000
    401          5.510588   1.000000
    402          5.586069   1.000000
    403          5.691080   1.000000
    404          5.729959   1.000000
    405          5.962242   1.000000
    406          5.971223   1.000000
    407          5.983014   1.000000
    408          5.989807   1.000000
    409          6.003640   1.000000
    410          6.011546   1.000000
    411          6.017262   1.000000
    412          6.031985   1.000000
    413          6.042494   1.000000
    414          6.061869   1.000000
    415          6.076273   1.000000
    416          6.098219   1.000000
    417          6.146033   1.000000
    418          6.202950   1.000000
    419          6.219066   1.000000
    420          6.233973   1.000000
    421          6.251200   1.000000
    422          6.266073   1.000000
    423          6.290489   1.000000
    424          6.292791   1.000000
    425          6.309068   1.000000
    426          6.319542   1.000000
    427          6.328311   1.000000
    428          6.346313   1.000000
    429          6.377158   1.000000
    430          6.391728   1.000000
    431          6.430930   1.000000
    432          6.517311   1.000000
    433          6.522696   1.000000
    434          6.524415   1.000000
    435          6.528948   1.000000
    436          6.532576   1.000000
    437          6.535695   1.000000
    438          6.539911   1.000000
    439          6.560430   1.000000
    440          6.584838   1.000000
    441          6.586185   1.000000
    442          6.590346   1.000000
    443          6.607440   1.000000
    444          6.648068   1.000000
    445          6.657010   1.000000
    446          6.676091   1.000000
    447          6.700604   1.000000
    448          6.702799   1.000000
    449          6.753789   1.000000
    450          6.770845   1.000000
    451          6.779214   1.000000
    452          6.856901   1.000000
    453          6.863212   1.000000
    454          6.889640   1.000000
    455          6.891112   1.000000
    456          6.921839   1.000000
    457          6.923438   1.000000
    458          6.927120   1.000000
    459          6.929106   1.000000
    460          6.929258   1.000000
    461          6.931335   1.000000
    462          6.936257   1.000000
    463          7.011300   1.000000
    464          7.052549   1.000000
    465          7.057758   1.000000
    466          7.063058   1.000000
    467          7.073773   1.000000
    468          7.074233   1.000000
    469          7.075951   1.000000
    470          7.079547   1.000000
    471          7.122776   1.000000
    472          7.137730   1.000000
    473          7.138398   1.000000
    474          7.166315   1.000000
    475          7.169490   1.000000
    476          7.178671   1.000000
    477          7.182870   1.000000
    478          7.185870   1.000000
    479          7.192344   1.000000
    480          7.217028   1.000000
    481          7.256968   1.000000
    482          7.262895   1.000000
    483          7.265088   1.000000
    484          7.292277   1.000000
    485          7.296997   1.000000
    486          7.366629   1.000000
    487          7.438368   1.000000
    488          7.448791   1.000000
    489          7.462611   1.000000
    490          7.476256   1.000000
    491          7.486916   1.000000
    492          7.509079   1.000000
    493          7.523684   1.000000
    494          7.529758   1.000000
    495          7.545749   1.000000
    496          7.558275   1.000000
    497          7.588331   1.000000
    498          7.603077   1.000000
    499          7.611546   1.000000
    500          7.616418   1.000000
    501          7.644587   1.000000
    502          7.661012   1.000000
    503          7.668985   1.000000
    504          7.672828   1.000000
    505          7.714027   1.000000
    506          7.808670   1.000000
    507          7.822860   1.000000
    508          7.835160   1.000000
    509          7.875248   1.000000
    510          7.880381   1.000000
    511          7.888285   1.000000
    512          7.890304   1.000000
    513          7.913256   1.000000
    514          7.920953   1.000000
    515          7.944255   1.000000
    516          7.947270   1.000000
    517          7.961012   1.000000
    518          7.969986   1.000000
    519          7.983113   1.000000
    520          8.000934   1.000000
    521          8.013288   1.000000
    522          8.025696   1.000000
    523          8.033586   1.000000
    524          8.037978   1.000000
    525          8.042573   1.000000
    526          8.043163   1.000000
    527          8.051724   1.000000
    528          8.058247   1.000000
    529          8.058864   1.000000
    530          8.063082   1.000000
    531          8.079638   1.000000
    532          8.093534   1.000000
    533          8.094965   1.000000
    534          8.100950   1.000000
    535          8.132550   1.000000
    536          8.141910   1.000000
    537          8.146245   1.000000
    538          8.148797   1.000000
    539          8.152534   1.000000
    540          8.158952   1.000000
    541          8.178052   1.000000
    542          8.212363   1.000001
    543          8.243168   1.000003
    544          8.277567   1.000008
    545          8.279414   1.000009
    546          8.297364   1.000016
    547          8.319149   1.000031
    548          8.332420   1.000046
    549          8.335568   1.000050
    550          8.351098   1.000078
    551          8.353346   1.000083
    552          8.360269   1.000101
    553          8.386937   1.000208
    554          8.397647   1.000275
    555          8.410590   1.000382
    556          8.423440   1.000524
    557          8.425451   1.000550
    558          8.436036   1.000708
    559          8.437536   1.000734
    560          8.440299   1.000783
    561          8.441896   1.000813
    562          8.448987   1.000957
    563          8.449859   1.000976
    564          8.460720   1.001246
    565          8.488366   1.002247
    566          8.542417   1.006225
    567          8.544183   1.006415
    568          8.557389   1.007988
    569          8.685257   1.033100
    570          8.733026   1.033598
    571          8.768910   1.018107
    572          8.770773   1.016755
    573          8.796468   0.991282
    574          8.891584   0.762625
    575          8.913000   0.682996
    576          8.936043   0.589974
    577          8.937184   0.585232
    578          8.968621   0.452779
    579          8.987226   0.375506
    580          9.002887   0.313100
    581          9.049608   0.152166
    582          9.051896   0.145509
    583          9.065506   0.108564
    584          9.069561   0.098453
    585          9.106146   0.025844
    586          9.107756   0.023400
    587          9.142052  -0.015189
    588          9.152972  -0.022650
    589          9.165127  -0.028669
    590          9.168478  -0.029947
    591          9.176731  -0.032458
    592          9.177776  -0.032715
    593          9.183485  -0.033897
    594          9.189517  -0.034762
    595          9.195629  -0.035273
    596          9.198196  -0.035388
    597          9.199827  -0.035432
    598          9.200821  -0.035448
    599          9.206489  -0.035395
    600          9.208617  -0.035315
    601          9.214911  -0.034904
    602          9.236546  -0.031935
    603          9.238489  -0.031579
    604          9.243317  -0.030650
    605          9.252150  -0.028814
    606          9.306095  -0.016704
    607          9.354318  -0.008406
    608          9.396337  -0.004059
    609          9.398314  -0.003911
    610          9.404874  -0.003453
    611          9.407334  -0.003293
    612          9.433337  -0.001951
    613          9.450580  -0.001348
    614          9.454466  -0.001237
    615          9.466489  -0.000944
    616          9.472871  -0.000815
    617          9.474112  -0.000792
    618          9.483797  -0.000630
    619          9.484382  -0.000621
    620          9.491327  -0.000526
    621          9.496027  -0.000469
    622          9.497063  -0.000457
    623          9.502049  -0.000404
    624          9.506523  -0.000361
    625          9.510318  -0.000328
    626          9.546031  -0.000128
    627          9.567219  -0.000071
    628          9.571459  -0.000063
    629          9.598563  -0.000028
    630          9.599507  -0.000027
    631          9.612021  -0.000019
    632          9.619246  -0.000015
    633          9.623573  -0.000013
    634          9.631175  -0.000010
    635          9.634338  -0.000009
    636          9.645676  -0.000006
    637          9.661271  -0.000004
    638          9.674341  -0.000002
    639          9.681395  -0.000002
    640          9.692395  -0.000001
    641          9.737985  -0.000000
    642          9.745370  -0.000000
    643          9.781018  -0.000000
    644          9.798942  -0.000000
    645          9.842391  -0.000000
    646          9.867910  -0.000000
    647          9.872720  -0.000000
    648          9.879032  -0.000000
    649          9.881282  -0.000000
    650          9.900172  -0.000000
    651          9.903836  -0.000000
    652          9.922132  -0.000000
    653          9.928721  -0.000000
    654          9.931574  -0.000000
    655          9.939117  -0.000000
    656          9.950462  -0.000000
    657          9.961068  -0.000000
    658          9.968796  -0.000000
    659          9.981713  -0.000000
    660          9.981863  -0.000000
    661          9.996063  -0.000000
    662         10.006298  -0.000000
    663         10.006695  -0.000000
    664         10.013023  -0.000000
    665         10.015036  -0.000000
    666         10.022147  -0.000000
    667         10.026851  -0.000000
    668         10.031122  -0.000000
    669         10.035706  -0.000000
    670         10.096523  -0.000000
    671         10.107805  -0.000000
    672         10.109869  -0.000000
    673         10.125560  -0.000000
    674         10.164298  -0.000000
    675         10.168959  -0.000000
    676         10.199239  -0.000000
    677         10.204332  -0.000000
    678         10.222494  -0.000000
    679         10.222855  -0.000000
    680         10.232610  -0.000000
    681         10.249051  -0.000000
    682         10.257113  -0.000000
    683         10.257697  -0.000000
    684         10.270997  -0.000000
    685         10.271726  -0.000000
    686         10.277131  -0.000000
    687         10.281439  -0.000000
    688         10.297926  -0.000000
    689         10.298064  -0.000000
    690         10.306908  -0.000000
    691         10.312641  -0.000000
 
  0.5000000E+00 -0.1797743E-16  0.3333333E+00  0.4166667E-01
      1        -39.907097   1.000000
      2        -39.882361   1.000000
      3        -39.881253   1.000000
      4        -39.869619   1.000000
      5        -39.863607   1.000000
      6        -39.858685   1.000000
      7        -39.852326   1.000000
      8        -39.844487   1.000000
      9        -39.843148   1.000000
     10        -39.836745   1.000000
     11        -39.831334   1.000000
     12        -39.823848   1.000000
     13        -39.822864   1.000000
     14        -39.817268   1.000000
     15        -39.813072   1.000000
     16        -39.808282   1.000000
     17        -39.803549   1.000000
     18        -39.803165   1.000000
     19        -39.802887   1.000000
     20        -39.801188   1.000000
     21        -39.799401   1.000000
     22        -39.797449   1.000000
     23        -39.795969   1.000000
     24        -39.793207   1.000000
     25        -39.789427   1.000000
     26        -39.788005   1.000000
     27        -39.787931   1.000000
     28        -39.786162   1.000000
     29        -39.783051   1.000000
     30        -39.782765   1.000000
     31        -39.781732   1.000000
     32        -39.777329   1.000000
     33        -39.772128   1.000000
     34        -39.771211   1.000000
     35        -39.768471   1.000000
     36        -39.768251   1.000000
     37        -39.766715   1.000000
     38        -39.766464   1.000000
     39        -39.765327   1.000000
     40        -39.764710   1.000000
     41        -39.763380   1.000000
     42        -39.762186   1.000000
     43        -39.761778   1.000000
     44        -39.761310   1.000000
     45        -39.759667   1.000000
     46        -39.759071   1.000000
     47        -39.758365   1.000000
     48        -39.756125   1.000000
     49        -39.755587   1.000000
     50        -39.753408   1.000000
     51        -39.751209   1.000000
     52        -39.750991   1.000000
     53        -39.750105   1.000000
     54        -39.748303   1.000000
     55        -39.747808   1.000000
     56        -39.747013   1.000000
     57        -39.746968   1.000000
     58        -39.745085   1.000000
     59        -39.745059   1.000000
     60        -39.743931   1.000000
     61        -39.743577   1.000000
     62        -39.743353   1.000000
     63        -39.742642   1.000000
     64        -39.741546   1.000000
     65        -39.739745   1.000000
     66        -39.738252   1.000000
     67        -39.737625   1.000000
     68        -39.737040   1.000000
     69        -39.736518   1.000000
     70        -39.735640   1.000000
     71        -39.735251   1.000000
     72        -39.732572   1.000000
     73        -39.732281   1.000000
     74        -39.730765   1.000000
     75        -39.730552   1.000000
     76        -39.728801   1.000000
     77        -39.728541   1.000000
     78        -39.727566   1.000000
     79        -39.727300   1.000000
     80        -39.726819   1.000000
     81        -39.725704   1.000000
     82        -39.725469   1.000000
     83        -39.724114   1.000000
     84        -39.723494   1.000000
     85        -39.723327   1.000000
     86        -39.722256   1.000000
     87        -39.721890   1.000000
     88        -39.721237   1.000000
     89        -39.718873   1.000000
     90        -39.718853   1.000000
     91        -39.715731   1.000000
     92        -39.715131   1.000000
     93        -39.709384   1.000000
     94        -39.709066   1.000000
     95        -39.706768   1.000000
     96        -39.704768   1.000000
     97        -18.353083   1.000000
     98        -18.343809   1.000000
     99        -18.317081   1.000000
    100        -18.283114   1.000000
    101        -18.281418   1.000000
    102        -18.279184   1.000000
    103        -18.277840   1.000000
    104        -18.274423   1.000000
    105        -18.272875   1.000000
    106        -18.269111   1.000000
    107        -18.268551   1.000000
    108        -18.260902   1.000000
    109        -18.258585   1.000000
    110        -18.256379   1.000000
    111        -18.255466   1.000000
    112        -18.252660   1.000000
    113        -18.251103   1.000000
    114        -18.250529   1.000000
    115        -18.248527   1.000000
    116        -18.247991   1.000000
    117        -18.246301   1.000000
    118        -18.242372   1.000000
    119        -18.228966   1.000000
    120        -18.224752   1.000000
    121        -18.224716   1.000000
    122        -18.220350   1.000000
    123        -18.219955   1.000000
    124        -18.218525   1.000000
    125        -18.217071   1.000000
    126        -18.214624   1.000000
    127        -18.214191   1.000000
    128        -18.209712   1.000000
    129        -18.202236   1.000000
    130        -18.201348   1.000000
    131        -18.200618   1.000000
    132        -18.195185   1.000000
    133        -18.191138   1.000000
    134        -18.190869   1.000000
    135        -18.189960   1.000000
    136        -18.189259   1.000000
    137        -18.178418   1.000000
    138        -18.177452   1.000000
    139        -18.174042   1.000000
    140        -18.172789   1.000000
    141        -18.171827   1.000000
    142        -18.171639   1.000000
    143        -18.164653   1.000000
    144        -18.163037   1.000000
    145        -18.162918   1.000000
    146        -18.161137   1.000000
    147        -18.151496   1.000000
    148        -18.149926   1.000000
    149        -18.137562   1.000000
    150        -18.131056   1.000000
    151        -18.129686   1.000000
    152        -18.129173   1.000000
    153        -18.127746   1.000000
    154        -18.127179   1.000000
    155        -18.125874   1.000000
    156        -18.124895   1.000000
    157        -18.099169   1.000000
    158        -18.091236   1.000000
    159        -18.084660   1.000000
    160        -18.082485   1.000000
    161        -18.075840   1.000000
    162        -18.070764   1.000000
    163        -18.068914   1.000000
    164        -18.067008   1.000000
    165        -18.065608   1.000000
    166        -18.065254   1.000000
    167        -18.046003   1.000000
    168        -18.042367   1.000000
    169        -18.035462   1.000000
    170        -18.029354   1.000000
    171        -18.024817   1.000000
    172        -18.024120   1.000000
    173        -18.020657   1.000000
    174        -18.017506   1.000000
    175        -18.014206   1.000000
    176        -18.013783   1.000000
    177        -18.008682   1.000000
    178        -18.002504   1.000000
    179        -18.000971   1.000000
    180        -18.000351   1.000000
    181        -17.999060   1.000000
    182        -17.997750   1.000000
    183        -17.990166   1.000000
    184        -17.985937   1.000000
    185        -17.984424   1.000000
    186        -17.980401   1.000000
    187        -17.970678   1.000000
    188        -17.969053   1.000000
    189        -17.960173   1.000000
    190        -17.954566   1.000000
    191        -17.952298   1.000000
    192        -17.949666   1.000000
    193        -17.942575   1.000000
    194        -17.938359   1.000000
    195        -17.931363   1.000000
    196        -17.927152   1.000000
    197        -17.926450   1.000000
    198        -17.926289   1.000000
    199        -17.906811   1.000000
    200        -17.903566   1.000000
    201        -17.896997   1.000000
    202        -17.895694   1.000000
    203        -17.892250   1.000000
    204        -17.889766   1.000000
    205        -17.887999   1.000000
    206        -17.886494   1.000000
    207        -17.885888   1.000000
    208        -17.882398   1.000000
    209        -17.873416   1.000000
    210        -17.870562   1.000000
    211        -17.869937   1.000000
    212        -17.869884   1.000000
    213        -17.823684   1.000000
    214        -17.822653   1.000000
    215        -17.820385   1.000000
    216        -17.818102   1.000000
    217        -17.803491   1.000000
    218        -17.799856   1.000000
    219        -17.797215   1.000000
    220        -17.796374   1.000000
    221        -17.795393   1.000000
    222        -17.794276   1.000000
    223        -17.791910   1.000000
    224        -17.791427   1.000000
    225        -17.786167   1.000000
    226        -17.784545   1.000000
    227        -17.783396   1.000000
    228        -17.782544   1.000000
    229        -17.777763   1.000000
    230        -17.776257   1.000000
    231        -17.769404   1.000000
    232        -17.767356   1.000000
    233        -17.761348   1.000000
    234        -17.761295   1.000000
    235        -17.759055   1.000000
    236        -17.756266   1.000000
    237        -17.756214   1.000000
    238        -17.753428   1.000000
    239        -17.749973   1.000000
    240        -17.742842   1.000000
    241        -17.741853   1.000000
    242        -17.740428   1.000000
    243        -17.737711   1.000000
    244        -17.736867   1.000000
    245        -17.732772   1.000000
    246        -17.731001   1.000000
    247        -17.730813   1.000000
    248        -17.730022   1.000000
    249        -17.728945   1.000000
    250        -17.727198   1.000000
    251        -17.726844   1.000000
    252        -17.724921   1.000000
    253        -17.724415   1.000000
    254        -17.723200   1.000000
    255        -17.722387   1.000000
    256        -17.721915   1.000000
    257        -17.720750   1.000000
    258        -17.718520   1.000000
    259        -17.716749   1.000000
    260        -17.710674   1.000000
    261        -17.709027   1.000000
    262        -17.707530   1.000000
    263        -17.706880   1.000000
    264        -17.704016   1.000000
    265        -17.703619   1.000000
    266        -17.701235   1.000000
    267        -17.699394   1.000000
    268        -17.698009   1.000000
    269        -17.679474   1.000000
    270        -17.675952   1.000000
    271        -17.668642   1.000000
    272        -17.665559   1.000000
    273        -17.662818   1.000000
    274        -17.662140   1.000000
    275        -17.660213   1.000000
    276        -17.658701   1.000000
    277        -17.658214   1.000000
    278        -17.656733   1.000000
    279        -17.654835   1.000000
    280        -17.653559   1.000000
    281        -17.648485   1.000000
    282        -17.648199   1.000000
    283        -17.645423   1.000000
    284        -17.643161   1.000000
    285        -17.642441   1.000000
    286        -17.642440   1.000000
    287        -17.640229   1.000000
    288        -17.639831   1.000000
    289        -17.634417   1.000000
    290        -17.632504   1.000000
    291        -17.630832   1.000000
    292        -17.629847   1.000000
    293        -17.629413   1.000000
    294        -17.627606   1.000000
    295        -17.626972   1.000000
    296        -17.625223   1.000000
    297        -17.622377   1.000000
    298        -17.619628   1.000000
    299        -17.615648   1.000000
    300        -17.613715   1.000000
    301        -17.613446   1.000000
    302        -17.612569   1.000000
    303        -17.611134   1.000000
    304        -17.610054   1.000000
    305        -17.606385   1.000000
    306        -17.604717   1.000000
    307        -17.603360   1.000000
    308        -17.602972   1.000000
    309        -17.601913   1.000000
    310        -17.600804   1.000000
    311        -17.598237   1.000000
    312        -17.596179   1.000000
    313        -17.594231   1.000000
    314        -17.592818   1.000000
    315        -17.591109   1.000000
    316        -17.591007   1.000000
    317        -17.589299   1.000000
    318        -17.588564   1.000000
    319        -17.587596   1.000000
    320        -17.586251   1.000000
    321        -17.586102   1.000000
    322        -17.584945   1.000000
    323        -17.584663   1.000000
    324        -17.583655   1.000000
    325        -17.583252   1.000000
    326        -17.582013   1.000000
    327        -17.581791   1.000000
    328        -17.581701   1.000000
    329        -17.580156   1.000000
    330        -17.579957   1.000000
    331        -17.579313   1.000000
    332        -17.578030   1.000000
    333        -17.577483   1.000000
    334        -17.576734   1.000000
    335        -17.575743   1.000000
    336        -17.575046   1.000000
    337        -17.574992   1.000000
    338        -17.573045   1.000000
    339        -17.569541   1.000000
    340        -17.569428   1.000000
    341        -17.568874   1.000000
    342        -17.568667   1.000000
    343        -17.567955   1.000000
    344        -17.567144   1.000000
    345        -17.558913   1.000000
    346        -17.553518   1.000000
    347        -17.552391   1.000000
    348        -17.548791   1.000000
    349        -17.547243   1.000000
    350        -17.546215   1.000000
    351        -17.546097   1.000000
    352        -17.543153   1.000000
    353        -17.541787   1.000000
    354        -17.541360   1.000000
    355        -17.540228   1.000000
    356        -17.539029   1.000000
    357        -17.538732   1.000000
    358        -17.537804   1.000000
    359        -17.537032   1.000000
    360        -17.536436   1.000000
    361        -17.533129   1.000000
    362        -17.530720   1.000000
    363        -17.526653   1.000000
    364        -17.522552   1.000000
    365        -17.516805   1.000000
    366        -17.513923   1.000000
    367        -17.503931   1.000000
    368        -17.501994   1.000000
    369        -17.500875   1.000000
    370        -17.498438   1.000000
    371        -17.496962   1.000000
    372        -17.494109   1.000000
    373        -17.492522   1.000000
    374        -17.488235   1.000000
    375        -17.487630   1.000000
    376        -17.482019   1.000000
    377        -17.475442   1.000000
    378        -17.472728   1.000000
    379        -17.456102   1.000000
    380        -17.454491   1.000000
    381        -17.453140   1.000000
    382        -17.448138   1.000000
    383        -17.438506   1.000000
    384        -17.433973   1.000000
    385          2.452054   1.000000
    386          3.819269   1.000000
    387          3.892988   1.000000
    388          4.099047   1.000000
    389          4.196337   1.000000
    390          4.576020   1.000000
    391          4.633809   1.000000
    392          4.810320   1.000000
    393          4.869679   1.000000
    394          5.072437   1.000000
    395          5.131439   1.000000
    396          5.624406   1.000000
    397          5.633744   1.000000
    398          5.654972   1.000000
    399          5.678693   1.000000
    400          5.742141   1.000000
    401          5.744146   1.000000
    402          5.746274   1.000000
    403          5.778174   1.000000
    404          5.833018   1.000000
    405          5.835258   1.000000
    406          5.836827   1.000000
    407          5.853603   1.000000
    408          5.864570   1.000000
    409          5.886801   1.000000
    410          5.909805   1.000000
    411          5.976544   1.000000
    412          6.052639   1.000000
    413          6.061821   1.000000
    414          6.183445   1.000000
    415          6.193311   1.000000
    416          6.227876   1.000000
    417          6.231459   1.000000
    418          6.233186   1.000000
    419          6.235377   1.000000
    420          6.240486   1.000000
    421          6.242546   1.000000
    422          6.243394   1.000000
    423          6.250350   1.000000
    424          6.259316   1.000000
    425          6.278117   1.000000
    426          6.288956   1.000000
    427          6.292771   1.000000
    428          6.292859   1.000000
    429          6.295024   1.000000
    430          6.299810   1.000000
    431          6.302879   1.000000
    432          6.304507   1.000000
    433          6.371661   1.000000
    434          6.406543   1.000000
    435          6.407685   1.000000
    436          6.410346   1.000000
    437          6.474732   1.000000
    438          6.512479   1.000000
    439          6.512694   1.000000
    440          6.514073   1.000000
    441          6.533482   1.000000
    442          6.546783   1.000000
    443          6.550547   1.000000
    444          6.552116   1.000000
    445          6.611858   1.000000
    446          6.712782   1.000000
    447          6.714972   1.000000
    448          6.715260   1.000000
    449          6.743388   1.000000
    450          6.822535   1.000000
    451          6.824167   1.000000
    452          6.828236   1.000000
    453          6.831411   1.000000
    454          6.834124   1.000000
    455          6.841309   1.000000
    456          6.851854   1.000000
    457          6.857405   1.000000
    458          6.871077   1.000000
    459          6.873635   1.000000
    460          6.876072   1.000000
    461          6.886850   1.000000
    462          6.921653   1.000000
    463          6.927844   1.000000
    464          6.929308   1.000000
    465          6.973220   1.000000
    466          6.975313   1.000000
    467          7.060959   1.000000
    468          7.166799   1.000000
    469          7.171204   1.000000
    470          7.176295   1.000000
    471          7.180217   1.000000
    472          7.183123   1.000000
    473          7.187200   1.000000
    474          7.214474   1.000000
    475          7.219467   1.000000
    476          7.223916   1.000000
    477          7.232982   1.000000
    478          7.245565   1.000000
    479          7.249291   1.000000
    480          7.251361   1.000000
    481          7.253687   1.000000
    482          7.258988   1.000000
    483          7.321990   1.000000
    484          7.405395   1.000000
    485          7.405582   1.000000
    486          7.416482   1.000000
    487          7.416660   1.000000
    488          7.419789   1.000000
    489          7.424958   1.000000
    490          7.444063   1.000000
    491          7.444678   1.000000
    492          7.448340   1.000000
    493          7.451827   1.000000
    494          7.452126   1.000000
    495          7.464302   1.000000
    496          7.470600   1.000000
    497          7.526775   1.000000
    498          7.553335   1.000000
    499          7.558151   1.000000
    500          7.562829   1.000000
    501          7.576955   1.000000
    502          7.578449   1.000000
    503          7.631473   1.000000
    504          7.650231   1.000000
    505          7.707647   1.000000
    506          7.736857   1.000000
    507          7.774788   1.000000
    508          7.868176   1.000000
    509          7.879298   1.000000
    510          7.928566   1.000000
    511          7.930608   1.000000
    512          7.931294   1.000000
    513          7.933067   1.000000
    514          7.934309   1.000000
    515          7.939828   1.000000
    516          7.947107   1.000000
    517          7.971869   1.000000
    518          8.013318   1.000000
    519          8.020513   1.000000
    520          8.035002   1.000000
    521          8.038503   1.000000
    522          8.043999   1.000000
    523          8.059106   1.000000
    524          8.070911   1.000000
    525          8.070992   1.000000
    526          8.071648   1.000000
    527          8.096455   1.000000
    528          8.117658   1.000000
    529          8.120659   1.000000
    530          8.122315   1.000000
    531          8.125762   1.000000
    532          8.129394   1.000000
    533          8.129908   1.000000
    534          8.134619   1.000000
    535          8.135464   1.000000
    536          8.137947   1.000000
    537          8.186719   1.000000
    538          8.226800   1.000002
    539          8.229005   1.000002
    540          8.234484   1.000002
    541          8.237774   1.000002
    542          8.237910   1.000002
    543          8.241346   1.000003
    544          8.241498   1.000003
    545          8.244530   1.000003
    546          8.244672   1.000003
    547          8.248529   1.000003
    548          8.250430   1.000003
    549          8.260664   1.000005
    550          8.260970   1.000005
    551          8.264446   1.000005
    552          8.266302   1.000006
    553          8.320670   1.000032
    554          8.334094   1.000048
    555          8.335965   1.000051
    556          8.342554   1.000061
    557          8.373725   1.000146
    558          8.389165   1.000221
    559          8.410547   1.000381
    560          8.429213   1.000602
    561          8.463068   1.001312
    562          8.464341   1.001349
    563          8.496730   1.002661
    564          8.505612   1.003172
    565          8.514177   1.003739
    566          8.530653   1.005065
    567          8.693601   1.034253
    568          8.706360   1.035319
    569          8.765284   1.020565
    570          8.780403   1.008748
    571          8.796435   0.991324
    572          8.824406   0.947124
    573          8.938877   0.578180
    574          8.982384   0.395366
    575          9.010811   0.282843
    576          9.012158   0.277802
    577          9.045802   0.163519
    578          9.061471   0.119039
    579          9.065877   0.107623
    580          9.069557   0.098462
    581          9.075167   0.085155
    582          9.084274   0.065244
    583          9.091510   0.050909
    584          9.099598   0.036418
    585          9.105756   0.026445
    586          9.113449   0.015237
    587          9.133443  -0.007780
    588          9.146975  -0.018809
    589          9.153676  -0.023061
    590          9.162810  -0.027693
    591          9.202225  -0.035458
    592          9.202276  -0.035458
    593          9.206233  -0.035402
    594          9.208052  -0.035339
    595          9.247008  -0.029902
    596          9.251372  -0.028981
    597          9.268114  -0.025224
    598          9.271602  -0.024417
    599          9.271793  -0.024373
    600          9.274775  -0.023683
    601          9.280942  -0.022258
    602          9.287119  -0.020846
    603          9.293570  -0.019399
    604          9.298271  -0.018367
    605          9.321797  -0.013608
    606          9.323166  -0.013356
    607          9.334426  -0.011387
    608          9.339125  -0.010626
    609          9.342888  -0.010041
    610          9.344114  -0.009856
    611          9.346451  -0.009509
    612          9.349149  -0.009120
    613          9.351412  -0.008802
    614          9.358028  -0.007919
    615          9.367935  -0.006723
    616          9.371909  -0.006284
    617          9.374534  -0.006007
    618          9.375069  -0.005952
    619          9.442339  -0.001612
    620          9.454273  -0.001243
    621          9.464185  -0.000995
    622          9.476688  -0.000745
    623          9.480335  -0.000684
    624          9.491253  -0.000526
    625          9.640914  -0.000007
    626          9.647434  -0.000006
    627          9.684886  -0.000002
    628          9.706755  -0.000001
    629          9.729474  -0.000000
    630          9.737178  -0.000000
    631          9.740389  -0.000000
    632          9.746771  -0.000000
    633          9.747190  -0.000000
    634          9.752335  -0.000000
    635          9.762142  -0.000000
    636          9.762380  -0.000000
    637          9.783793  -0.000000
    638          9.784433  -0.000000
    639          9.790557  -0.000000
    640          9.793825  -0.000000
    641          9.796271  -0.000000
    642          9.798930  -0.000000
    643          9.800667  -0.000000
    644          9.803593  -0.000000
    645          9.809063  -0.000000
    646          9.811958  -0.000000
    647          9.815671  -0.000000
    648          9.822407  -0.000000
    649          9.823253  -0.000000
    650          9.838894  -0.000000
    651          9.847234  -0.000000
    652          9.871196  -0.000000
    653          9.881622  -0.000000
    654          9.882705  -0.000000
    655          9.886926  -0.000000
    656          9.897148  -0.000000
    657          9.923895  -0.000000
    658          9.924253  -0.000000
    659          9.938888  -0.000000
    660          9.940156  -0.000000
    661          9.944795  -0.000000
    662          9.945374  -0.000000
    663          9.958368  -0.000000
    664          9.964106  -0.000000
    665          9.966194  -0.000000
    666          9.970229  -0.000000
    667          9.972299  -0.000000
    668          9.977868  -0.000000
    669         10.003571  -0.000000
    670         10.004892  -0.000000
    671         10.010035  -0.000000
    672         10.018819  -0.000000
    673         10.048837  -0.000000
    674         10.055432  -0.000000
    675         10.067343  -0.000000
    676         10.093610  -0.000000
    677         10.099887  -0.000000
    678         10.100554  -0.000000
    679         10.103741  -0.000000
    680         10.105765  -0.000000
    681         10.109882  -0.000000
    682         10.110492  -0.000000
    683         10.125841  -0.000000
    684         10.129007  -0.000000
    685         10.130998  -0.000000
    686         10.142586  -0.000000
    687         10.199712  -0.000000
    688         10.216469  -0.000000
    689         10.229264  -0.000000
    690         10.234504  -0.000000
    691         10.284902  -0.000000
 
  0.2690550E-16  0.5000000E+00  0.3333333E+00  0.4166667E-01
      1        -39.907107   1.000000
      2        -39.882378   1.000000
      3        -39.881172   1.000000
      4        -39.869526   1.000000
      5        -39.863746   1.000000
      6        -39.858794   1.000000
      7        -39.852329   1.000000
      8        -39.844560   1.000000
      9        -39.843102   1.000000
     10        -39.836637   1.000000
     11        -39.831239   1.000000
     12        -39.823974   1.000000
     13        -39.822803   1.000000
     14        -39.817091   1.000000
     15        -39.813131   1.000000
     16        -39.808450   1.000000
     17        -39.803482   1.000000
     18        -39.803294   1.000000
     19        -39.802786   1.000000
     20        -39.801159   1.000000
     21        -39.799342   1.000000
     22        -39.797509   1.000000
     23        -39.795817   1.000000
     24        -39.793253   1.000000
     25        -39.789416   1.000000
     26        -39.788115   1.000000
     27        -39.787961   1.000000
     28        -39.786206   1.000000
     29        -39.783009   1.000000
     30        -39.782849   1.000000
     31        -39.781860   1.000000
     32        -39.777154   1.000000
     33        -39.772208   1.000000
     34        -39.771171   1.000000
     35        -39.768509   1.000000
     36        -39.768385   1.000000
     37        -39.766619   1.000000
     38        -39.766497   1.000000
     39        -39.765274   1.000000
     40        -39.764745   1.000000
     41        -39.763207   1.000000
     42        -39.762122   1.000000
     43        -39.761716   1.000000
     44        -39.761396   1.000000
     45        -39.759539   1.000000
     46        -39.759224   1.000000
     47        -39.758234   1.000000
     48        -39.756268   1.000000
     49        -39.755605   1.000000
     50        -39.753508   1.000000
     51        -39.751153   1.000000
     52        -39.750845   1.000000
     53        -39.750062   1.000000
     54        -39.748202   1.000000
     55        -39.747771   1.000000
     56        -39.747114   1.000000
     57        -39.746977   1.000000
     58        -39.745135   1.000000
     59        -39.745074   1.000000
     60        -39.743928   1.000000
     61        -39.743801   1.000000
     62        -39.743290   1.000000
     63        -39.742594   1.000000
     64        -39.741540   1.000000
     65        -39.739716   1.000000
     66        -39.738321   1.000000
     67        -39.737613   1.000000
     68        -39.736882   1.000000
     69        -39.736645   1.000000
     70        -39.735661   1.000000
     71        -39.735172   1.000000
     72        -39.732678   1.000000
     73        -39.732276   1.000000
     74        -39.730752   1.000000
     75        -39.730643   1.000000
     76        -39.728755   1.000000
     77        -39.728532   1.000000
     78        -39.727607   1.000000
     79        -39.727210   1.000000
     80        -39.726753   1.000000
     81        -39.725824   1.000000
     82        -39.725534   1.000000
     83        -39.724162   1.000000
     84        -39.723415   1.000000
     85        -39.723335   1.000000
     86        -39.722078   1.000000
     87        -39.721818   1.000000
     88        -39.721199   1.000000
     89        -39.719031   1.000000
     90        -39.718806   1.000000
     91        -39.715916   1.000000
     92        -39.715024   1.000000
     93        -39.709357   1.000000
     94        -39.709100   1.000000
     95        -39.706761   1.000000
     96        -39.704755   1.000000
     97        -18.353085   1.000000
     98        -18.343787   1.000000
     99        -18.317022   1.000000
    100        -18.283065   1.000000
    101        -18.281562   1.000000
    102        -18.279151   1.000000
    103        -18.277840   1.000000
    104        -18.274398   1.000000
    105        -18.272879   1.000000
    106        -18.269104   1.000000
    107        -18.268523   1.000000
    108        -18.260905   1.000000
    109        -18.258639   1.000000
    110        -18.256381   1.000000
    111        -18.255464   1.000000
    112        -18.252686   1.000000
    113        -18.251166   1.000000
    114        -18.250429   1.000000
    115        -18.248500   1.000000
    116        -18.247928   1.000000
    117        -18.246296   1.000000
    118        -18.242321   1.000000
    119        -18.229058   1.000000
    120        -18.224788   1.000000
    121        -18.224693   1.000000
    122        -18.220413   1.000000
    123        -18.219968   1.000000
    124        -18.218569   1.000000
    125        -18.217225   1.000000
    126        -18.214630   1.000000
    127        -18.214165   1.000000
    128        -18.209700   1.000000
    129        -18.202243   1.000000
    130        -18.201318   1.000000
    131        -18.200587   1.000000
    132        -18.195119   1.000000
    133        -18.191208   1.000000
    134        -18.190840   1.000000
    135        -18.190036   1.000000
    136        -18.189183   1.000000
    137        -18.178421   1.000000
    138        -18.177392   1.000000
    139        -18.174166   1.000000
    140        -18.172805   1.000000
    141        -18.171819   1.000000
    142        -18.171554   1.000000
    143        -18.164597   1.000000
    144        -18.163120   1.000000
    145        -18.162941   1.000000
    146        -18.161070   1.000000
    147        -18.151513   1.000000
    148        -18.149911   1.000000
    149        -18.137515   1.000000
    150        -18.131050   1.000000
    151        -18.129757   1.000000
    152        -18.129143   1.000000
    153        -18.127738   1.000000
    154        -18.127150   1.000000
    155        -18.125827   1.000000
    156        -18.124913   1.000000
    157        -18.099283   1.000000
    158        -18.091245   1.000000
    159        -18.084712   1.000000
    160        -18.082460   1.000000
    161        -18.075807   1.000000
    162        -18.070745   1.000000
    163        -18.068924   1.000000
    164        -18.066976   1.000000
    165        -18.065583   1.000000
    166        -18.065208   1.000000
    167        -18.046030   1.000000
    168        -18.042375   1.000000
    169        -18.035566   1.000000
    170        -18.029312   1.000000
    171        -18.024923   1.000000
    172        -18.024123   1.000000
    173        -18.020618   1.000000
    174        -18.017399   1.000000
    175        -18.014274   1.000000
    176        -18.013752   1.000000
    177        -18.008610   1.000000
    178        -18.002506   1.000000
    179        -18.000917   1.000000
    180        -18.000375   1.000000
    181        -17.999013   1.000000
    182        -17.997793   1.000000
    183        -17.990195   1.000000
    184        -17.985878   1.000000
    185        -17.984269   1.000000
    186        -17.980432   1.000000
    187        -17.970546   1.000000
    188        -17.969047   1.000000
    189        -17.960281   1.000000
    190        -17.954825   1.000000
    191        -17.952272   1.000000
    192        -17.949585   1.000000
    193        -17.942521   1.000000
    194        -17.938412   1.000000
    195        -17.931322   1.000000
    196        -17.927074   1.000000
    197        -17.926518   1.000000
    198        -17.926325   1.000000
    199        -17.906816   1.000000
    200        -17.903503   1.000000
    201        -17.897051   1.000000
    202        -17.895592   1.000000
    203        -17.892314   1.000000
    204        -17.889787   1.000000
    205        -17.888068   1.000000
    206        -17.886489   1.000000
    207        -17.885968   1.000000
    208        -17.882371   1.000000
    209        -17.873527   1.000000
    210        -17.870739   1.000000
    211        -17.869841   1.000000
    212        -17.869685   1.000000
    213        -17.823667   1.000000
    214        -17.822666   1.000000
    215        -17.820435   1.000000
    216        -17.817996   1.000000
    217        -17.803513   1.000000
    218        -17.799987   1.000000
    219        -17.797052   1.000000
    220        -17.796430   1.000000
    221        -17.795413   1.000000
    222        -17.794005   1.000000
    223        -17.791838   1.000000
    224        -17.791386   1.000000
    225        -17.786208   1.000000
    226        -17.784628   1.000000
    227        -17.783437   1.000000
    228        -17.782677   1.000000
    229        -17.777874   1.000000
    230        -17.776304   1.000000
    231        -17.769393   1.000000
    232        -17.767614   1.000000
    233        -17.761413   1.000000
    234        -17.761275   1.000000
    235        -17.758816   1.000000
    236        -17.756369   1.000000
    237        -17.756267   1.000000
    238        -17.753389   1.000000
    239        -17.749853   1.000000
    240        -17.742986   1.000000
    241        -17.741954   1.000000
    242        -17.740500   1.000000
    243        -17.737559   1.000000
    244        -17.736860   1.000000
    245        -17.732732   1.000000
    246        -17.730966   1.000000
    247        -17.730695   1.000000
    248        -17.730166   1.000000
    249        -17.728965   1.000000
    250        -17.727189   1.000000
    251        -17.726748   1.000000
    252        -17.724811   1.000000
    253        -17.724287   1.000000
    254        -17.723044   1.000000
    255        -17.722348   1.000000
    256        -17.721952   1.000000
    257        -17.720620   1.000000
    258        -17.718557   1.000000
    259        -17.716764   1.000000
    260        -17.710710   1.000000
    261        -17.709071   1.000000
    262        -17.707490   1.000000
    263        -17.706762   1.000000
    264        -17.704038   1.000000
    265        -17.703715   1.000000
    266        -17.701253   1.000000
    267        -17.699393   1.000000
    268        -17.697974   1.000000
    269        -17.679581   1.000000
    270        -17.675909   1.000000
    271        -17.668523   1.000000
    272        -17.665617   1.000000
    273        -17.662769   1.000000
    274        -17.662412   1.000000
    275        -17.660161   1.000000
    276        -17.658604   1.000000
    277        -17.658034   1.000000
    278        -17.656739   1.000000
    279        -17.654787   1.000000
    280        -17.653716   1.000000
    281        -17.648345   1.000000
    282        -17.648212   1.000000
    283        -17.645533   1.000000
    284        -17.643191   1.000000
    285        -17.642508   1.000000
    286        -17.642350   1.000000
    287        -17.640214   1.000000
    288        -17.639776   1.000000
    289        -17.634441   1.000000
    290        -17.632596   1.000000
    291        -17.631002   1.000000
    292        -17.629845   1.000000
    293        -17.629423   1.000000
    294        -17.627698   1.000000
    295        -17.626965   1.000000
    296        -17.625171   1.000000
    297        -17.622420   1.000000
    298        -17.619651   1.000000
    299        -17.615581   1.000000
    300        -17.613606   1.000000
    301        -17.613447   1.000000
    302        -17.612638   1.000000
    303        -17.611115   1.000000
    304        -17.609975   1.000000
    305        -17.606516   1.000000
    306        -17.604764   1.000000
    307        -17.603375   1.000000
    308        -17.602981   1.000000
    309        -17.601933   1.000000
    310        -17.600837   1.000000
    311        -17.598319   1.000000
    312        -17.596116   1.000000
    313        -17.594230   1.000000
    314        -17.592832   1.000000
    315        -17.591219   1.000000
    316        -17.590929   1.000000
    317        -17.589402   1.000000
    318        -17.588563   1.000000
    319        -17.587511   1.000000
    320        -17.586253   1.000000
    321        -17.586097   1.000000
    322        -17.584981   1.000000
    323        -17.584635   1.000000
    324        -17.583714   1.000000
    325        -17.583243   1.000000
    326        -17.581925   1.000000
    327        -17.581754   1.000000
    328        -17.581614   1.000000
    329        -17.580196   1.000000
    330        -17.579974   1.000000
    331        -17.579328   1.000000
    332        -17.578004   1.000000
    333        -17.577483   1.000000
    334        -17.576771   1.000000
    335        -17.575775   1.000000
    336        -17.575074   1.000000
    337        -17.574985   1.000000
    338        -17.573144   1.000000
    339        -17.569657   1.000000
    340        -17.569348   1.000000
    341        -17.568909   1.000000
    342        -17.568563   1.000000
    343        -17.567845   1.000000
    344        -17.567103   1.000000
    345        -17.558988   1.000000
    346        -17.553434   1.000000
    347        -17.552418   1.000000
    348        -17.548717   1.000000
    349        -17.547247   1.000000
    350        -17.546134   1.000000
    351        -17.546023   1.000000
    352        -17.543096   1.000000
    353        -17.541841   1.000000
    354        -17.541458   1.000000
    355        -17.540272   1.000000
    356        -17.538967   1.000000
    357        -17.538833   1.000000
    358        -17.537826   1.000000
    359        -17.537152   1.000000
    360        -17.536393   1.000000
    361        -17.533136   1.000000
    362        -17.530653   1.000000
    363        -17.526722   1.000000
    364        -17.522458   1.000000
    365        -17.516852   1.000000
    366        -17.513930   1.000000
    367        -17.503840   1.000000
    368        -17.502014   1.000000
    369        -17.500790   1.000000
    370        -17.498480   1.000000
    371        -17.497044   1.000000
    372        -17.493999   1.000000
    373        -17.492439   1.000000
    374        -17.488278   1.000000
    375        -17.487556   1.000000
    376        -17.482066   1.000000
    377        -17.475462   1.000000
    378        -17.472722   1.000000
    379        -17.456140   1.000000
    380        -17.454456   1.000000
    381        -17.453249   1.000000
    382        -17.448048   1.000000
    383        -17.438605   1.000000
    384        -17.433910   1.000000
    385          2.452057   1.000000
    386          3.819176   1.000000
    387          3.893079   1.000000
    388          4.098958   1.000000
    389          4.196451   1.000000
    390          4.576091   1.000000
    391          4.633730   1.000000
    392          4.810389   1.000000
    393          4.869604   1.000000
    394          5.072360   1.000000
    395          5.131496   1.000000
    396          5.624326   1.000000
    397          5.633835   1.000000
    398          5.655013   1.000000
    399          5.678621   1.000000
    400          5.742106   1.000000
    401          5.744025   1.000000
    402          5.746354   1.000000
    403          5.778215   1.000000
    404          5.833037   1.000000
    405          5.835062   1.000000
    406          5.836911   1.000000
    407          5.853655   1.000000
    408          5.864587   1.000000
    409          5.886777   1.000000
    410          5.909876   1.000000
    411          5.976704   1.000000
    412          6.052499   1.000000
    413          6.061905   1.000000
    414          6.183460   1.000000
    415          6.193177   1.000000
    416          6.227935   1.000000
    417          6.231513   1.000000
    418          6.233059   1.000000
    419          6.235285   1.000000
    420          6.240601   1.000000
    421          6.242630   1.000000
    422          6.243346   1.000000
    423          6.250388   1.000000
    424          6.259226   1.000000
    425          6.278363   1.000000
    426          6.288983   1.000000
    427          6.292695   1.000000
    428          6.292934   1.000000
    429          6.295044   1.000000
    430          6.299795   1.000000
    431          6.302726   1.000000
    432          6.304408   1.000000
    433          6.371806   1.000000
    434          6.406458   1.000000
    435          6.407541   1.000000
    436          6.410272   1.000000
    437          6.474897   1.000000
    438          6.512553   1.000000
    439          6.512754   1.000000
    440          6.513981   1.000000
    441          6.533539   1.000000
    442          6.546921   1.000000
    443          6.550622   1.000000
    444          6.552092   1.000000
    445          6.611687   1.000000
    446          6.712844   1.000000
    447          6.714947   1.000000
    448          6.715187   1.000000
    449          6.742994   1.000000
    450          6.822593   1.000000
    451          6.823958   1.000000
    452          6.828203   1.000000
    453          6.831554   1.000000
    454          6.834160   1.000000
    455          6.841663   1.000000
    456          6.852014   1.000000
    457          6.857602   1.000000
    458          6.871208   1.000000
    459          6.873493   1.000000
    460          6.875978   1.000000
    461          6.887041   1.000000
    462          6.921662   1.000000
    463          6.927724   1.000000
    464          6.929378   1.000000
    465          6.973333   1.000000
    466          6.975066   1.000000
    467          7.060973   1.000000
    468          7.167045   1.000000
    469          7.171157   1.000000
    470          7.176279   1.000000
    471          7.180207   1.000000
    472          7.183144   1.000000
    473          7.186862   1.000000
    474          7.214211   1.000000
    475          7.219153   1.000000
    476          7.224117   1.000000
    477          7.233042   1.000000
    478          7.245693   1.000000
    479          7.249228   1.000000
    480          7.251298   1.000000
    481          7.253867   1.000000
    482          7.259305   1.000000
    483          7.321580   1.000000
    484          7.405309   1.000000
    485          7.405620   1.000000
    486          7.416430   1.000000
    487          7.416697   1.000000
    488          7.419916   1.000000
    489          7.424810   1.000000
    490          7.444192   1.000000
    491          7.444602   1.000000
    492          7.448139   1.000000
    493          7.451667   1.000000
    494          7.452227   1.000000
    495          7.464479   1.000000
    496          7.470638   1.000000
    497          7.526924   1.000000
    498          7.553273   1.000000
    499          7.557983   1.000000
    500          7.562888   1.000000
    501          7.576597   1.000000
    502          7.578629   1.000000
    503          7.631497   1.000000
    504          7.650462   1.000000
    505          7.708000   1.000000
    506          7.736932   1.000000
    507          7.774738   1.000000
    508          7.868136   1.000000
    509          7.879075   1.000000
    510          7.928602   1.000000
    511          7.930473   1.000000
    512          7.931191   1.000000
    513          7.933116   1.000000
    514          7.934343   1.000000
    515          7.939796   1.000000
    516          7.947177   1.000000
    517          7.972153   1.000000
    518          8.013378   1.000000
    519          8.020310   1.000000
    520          8.035079   1.000000
    521          8.038333   1.000000
    522          8.043736   1.000000
    523          8.058555   1.000000
    524          8.070658   1.000000
    525          8.070992   1.000000
    526          8.071733   1.000000
    527          8.096490   1.000000
    528          8.117980   1.000000
    529          8.120908   1.000000
    530          8.122184   1.000000
    531          8.125552   1.000000
    532          8.129397   1.000000
    533          8.130185   1.000000
    534          8.134559   1.000000
    535          8.135494   1.000000
    536          8.138037   1.000000
    537          8.186661   1.000000
    538          8.226454   1.000002
    539          8.228891   1.000002
    540          8.234354   1.000002
    541          8.237545   1.000002
    542          8.238015   1.000002
    543          8.241027   1.000003
    544          8.241956   1.000003
    545          8.244461   1.000003
    546          8.244709   1.000003
    547          8.248347   1.000003
    548          8.250575   1.000003
    549          8.260255   1.000005
    550          8.261421   1.000005
    551          8.264595   1.000006
    552          8.266312   1.000006
    553          8.320827   1.000032
    554          8.334232   1.000048
    555          8.335968   1.000051
    556          8.342456   1.000061
    557          8.373186   1.000144
    558          8.389421   1.000222
    559          8.410885   1.000385
    560          8.429007   1.000599
    561          8.463349   1.001320
    562          8.464009   1.001339
    563          8.496806   1.002666
    564          8.505417   1.003160
    565          8.514556   1.003766
    566          8.530376   1.005040
    567          8.693630   1.034256
    568          8.706402   1.035321
    569          8.765574   1.020377
    570          8.780144   1.008987
    571          8.796511   0.991229
    572          8.824563   0.946821
    573          8.939087   0.577305
    574          8.982331   0.395583
    575          9.010790   0.282924
    576          9.012717   0.275722
    577          9.046228   0.162232
    578          9.061209   0.119732
    579          9.066138   0.106961
    580          9.070038   0.097290
    581          9.074982   0.085580
    582          9.084201   0.065395
    583          9.091621   0.050700
    584          9.100055   0.035648
    585          9.105923   0.026187
    586          9.113537   0.015117
    587          9.132892  -0.007257
    588          9.147264  -0.019008
    589          9.153860  -0.023168
    590          9.162875  -0.027721
    591          9.202042  -0.035457
    592          9.202577  -0.035458
    593          9.206602  -0.035391
    594          9.207930  -0.035344
    595          9.246036  -0.030101
    596          9.250745  -0.029116
    597          9.267954  -0.025260
    598          9.271873  -0.024355
    599          9.272116  -0.024298
    600          9.275129  -0.023601
    601          9.280828  -0.022284
    602          9.287389  -0.020785
    603          9.293663  -0.019378
    604          9.298100  -0.018404
    605          9.320754  -0.013803
    606          9.322809  -0.013421
    607          9.335034  -0.011287
    608          9.339596  -0.010551
    609          9.341431  -0.010265
    610          9.343645  -0.009927
    611          9.346252  -0.009538
    612          9.349793  -0.009028
    613          9.352783  -0.008613
    614          9.358099  -0.007910
    615          9.367844  -0.006734
    616          9.371701  -0.006307
    617          9.374393  -0.006022
    618          9.374911  -0.005968
    619          9.442672  -0.001600
    620          9.454108  -0.001247
    621          9.463795  -0.001004
    622          9.477013  -0.000740
    623          9.480315  -0.000684
    624          9.491517  -0.000523
    625          9.641027  -0.000007
    626          9.647028  -0.000006
    627          9.684898  -0.000002
    628          9.706248  -0.000001
    629          9.729841  -0.000000
    630          9.736873  -0.000000
    631          9.740584  -0.000000
    632          9.746484  -0.000000
    633          9.747347  -0.000000
    634          9.752576  -0.000000
    635          9.762155  -0.000000
    636          9.762559  -0.000000
    637          9.783352  -0.000000
    638          9.785088  -0.000000
    639          9.791028  -0.000000
    640          9.793656  -0.000000
    641          9.796566  -0.000000
    642          9.798466  -0.000000
    643          9.800233  -0.000000
    644          9.803302  -0.000000
    645          9.809815  -0.000000
    646          9.812253  -0.000000
    647          9.815815  -0.000000
    648          9.822368  -0.000000
    649          9.823637  -0.000000
    650          9.838209  -0.000000
    651          9.846498  -0.000000
    652          9.871336  -0.000000
    653          9.881744  -0.000000
    654          9.883285  -0.000000
    655          9.887512  -0.000000
    656          9.896696  -0.000000
    657          9.923806  -0.000000
    658          9.924147  -0.000000
    659          9.939116  -0.000000
    660          9.939576  -0.000000
    661          9.944983  -0.000000
    662          9.945281  -0.000000
    663          9.958459  -0.000000
    664          9.964391  -0.000000
    665          9.966152  -0.000000
    666          9.970182  -0.000000
    667          9.971754  -0.000000
    668          9.978810  -0.000000
    669         10.003685  -0.000000
    670         10.004662  -0.000000
    671         10.010447  -0.000000
    672         10.018331  -0.000000
    673         10.048495  -0.000000
    674         10.055073  -0.000000
    675         10.066766  -0.000000
    676         10.093657  -0.000000
    677         10.100214  -0.000000
    678         10.100552  -0.000000
    679         10.103660  -0.000000
    680         10.105939  -0.000000
    681         10.109729  -0.000000
    682         10.110346  -0.000000
    683         10.125766  -0.000000
    684         10.129436  -0.000000
    685         10.131096  -0.000000
    686         10.142531  -0.000000
    687         10.199314  -0.000000
    688         10.216311  -0.000000
    689         10.229567  -0.000000
    690         10.234266  -0.000000
    691         10.284901  -0.000000
 
  0.5000000E+00  0.5000000E+00  0.3333333E+00  0.4166667E-01
      1        -39.907107   1.000000
      2        -39.882378   1.000000
      3        -39.881172   1.000000
      4        -39.869526   1.000000
      5        -39.863746   1.000000
      6        -39.858794   1.000000
      7        -39.852330   1.000000
      8        -39.844560   1.000000
      9        -39.843102   1.000000
     10        -39.836637   1.000000
     11        -39.831239   1.000000
     12        -39.823974   1.000000
     13        -39.822803   1.000000
     14        -39.817091   1.000000
     15        -39.813131   1.000000
     16        -39.808450   1.000000
     17        -39.803482   1.000000
     18        -39.803294   1.000000
     19        -39.802786   1.000000
     20        -39.801159   1.000000
     21        -39.799342   1.000000
     22        -39.797509   1.000000
     23        -39.795817   1.000000
     24        -39.793253   1.000000
     25        -39.789416   1.000000
     26        -39.788115   1.000000
     27        -39.787961   1.000000
     28        -39.786206   1.000000
     29        -39.783009   1.000000
     30        -39.782849   1.000000
     31        -39.781860   1.000000
     32        -39.777154   1.000000
     33        -39.772208   1.000000
     34        -39.771171   1.000000
     35        -39.768509   1.000000
     36        -39.768385   1.000000
     37        -39.766619   1.000000
     38        -39.766497   1.000000
     39        -39.765274   1.000000
     40        -39.764745   1.000000
     41        -39.763207   1.000000
     42        -39.762122   1.000000
     43        -39.761716   1.000000
     44        -39.761396   1.000000
     45        -39.759539   1.000000
     46        -39.759224   1.000000
     47        -39.758234   1.000000
     48        -39.756268   1.000000
     49        -39.755605   1.000000
     50        -39.753508   1.000000
     51        -39.751153   1.000000
     52        -39.750845   1.000000
     53        -39.750062   1.000000
     54        -39.748202   1.000000
     55        -39.747771   1.000000
     56        -39.747114   1.000000
     57        -39.746977   1.000000
     58        -39.745135   1.000000
     59        -39.745074   1.000000
     60        -39.743928   1.000000
     61        -39.743801   1.000000
     62        -39.743290   1.000000
     63        -39.742594   1.000000
     64        -39.741540   1.000000
     65        -39.739716   1.000000
     66        -39.738321   1.000000
     67        -39.737613   1.000000
     68        -39.736882   1.000000
     69        -39.736645   1.000000
     70        -39.735661   1.000000
     71        -39.735172   1.000000
     72        -39.732679   1.000000
     73        -39.732276   1.000000
     74        -39.730752   1.000000
     75        -39.730643   1.000000
     76        -39.728755   1.000000
     77        -39.728532   1.000000
     78        -39.727607   1.000000
     79        -39.727210   1.000000
     80        -39.726753   1.000000
     81        -39.725824   1.000000
     82        -39.725534   1.000000
     83        -39.724162   1.000000
     84        -39.723415   1.000000
     85        -39.723335   1.000000
     86        -39.722078   1.000000
     87        -39.721818   1.000000
     88        -39.721199   1.000000
     89        -39.719031   1.000000
     90        -39.718806   1.000000
     91        -39.715916   1.000000
     92        -39.715024   1.000000
     93        -39.709357   1.000000
     94        -39.709100   1.000000
     95        -39.706761   1.000000
     96        -39.704755   1.000000
     97        -18.353085   1.000000
     98        -18.343787   1.000000
     99        -18.317022   1.000000
    100        -18.283065   1.000000
    101        -18.281562   1.000000
    102        -18.279151   1.000000
    103        -18.277840   1.000000
    104        -18.274398   1.000000
    105        -18.272879   1.000000
    106        -18.269104   1.000000
    107        -18.268523   1.000000
    108        -18.260905   1.000000
    109        -18.258639   1.000000
    110        -18.256381   1.000000
    111        -18.255463   1.000000
    112        -18.252686   1.000000
    113        -18.251166   1.000000
    114        -18.250429   1.000000
    115        -18.248500   1.000000
    116        -18.247928   1.000000
    117        -18.246296   1.000000
    118        -18.242321   1.000000
    119        -18.229058   1.000000
    120        -18.224788   1.000000
    121        -18.224693   1.000000
    122        -18.220413   1.000000
    123        -18.219968   1.000000
    124        -18.218569   1.000000
    125        -18.217225   1.000000
    126        -18.214630   1.000000
    127        -18.214165   1.000000
    128        -18.209699   1.000000
    129        -18.202243   1.000000
    130        -18.201318   1.000000
    131        -18.200587   1.000000
    132        -18.195119   1.000000
    133        -18.191208   1.000000
    134        -18.190840   1.000000
    135        -18.190036   1.000000
    136        -18.189183   1.000000
    137        -18.178421   1.000000
    138        -18.177392   1.000000
    139        -18.174166   1.000000
    140        -18.172806   1.000000
    141        -18.171819   1.000000
    142        -18.171554   1.000000
    143        -18.164597   1.000000
    144        -18.163120   1.000000
    145        -18.162941   1.000000
    146        -18.161070   1.000000
    147        -18.151513   1.000000
    148        -18.149911   1.000000
    149        -18.137516   1.000000
    150        -18.131050   1.000000
    151        -18.129757   1.000000
    152        -18.129143   1.000000
    153        -18.127738   1.000000
    154        -18.127150   1.000000
    155        -18.125827   1.000000
    156        -18.124913   1.000000
    157        -18.099283   1.000000
    158        -18.091245   1.000000
    159        -18.084712   1.000000
    160        -18.082460   1.000000
    161        -18.075807   1.000000
    162        -18.070745   1.000000
    163        -18.068924   1.000000
    164        -18.066976   1.000000
    165        -18.065583   1.000000
    166        -18.065208   1.000000
    167        -18.046030   1.000000
    168        -18.042375   1.000000
    169        -18.035566   1.000000
    170        -18.029312   1.000000
    171        -18.024923   1.000000
    172        -18.024123   1.000000
    173        -18.020618   1.000000
    174        -18.017399   1.000000
    175        -18.014274   1.000000
    176        -18.013752   1.000000
    177        -18.008610   1.000000
    178        -18.002506   1.000000
    179        -18.000917   1.000000
    180        -18.000375   1.000000
    181        -17.999013   1.000000
    182        -17.997793   1.000000
    183        -17.990195   1.000000
    184        -17.985878   1.000000
    185        -17.984269   1.000000
    186        -17.980432   1.000000
    187        -17.970546   1.000000
    188        -17.969047   1.000000
    189        -17.960281   1.000000
    190        -17.954825   1.000000
    191        -17.952272   1.000000
    192        -17.949585   1.000000
    193        -17.942521   1.000000
    194        -17.938412   1.000000
    195        -17.931322   1.000000
    196        -17.927074   1.000000
    197        -17.926518   1.000000
    198        -17.926325   1.000000
    199        -17.906816   1.000000
    200        -17.903503   1.000000
    201        -17.897051   1.000000
    202        -17.895592   1.000000
    203        -17.892314   1.000000
    204        -17.889787   1.000000
    205        -17.888068   1.000000
    206        -17.886489   1.000000
    207        -17.885968   1.000000
    208        -17.882371   1.000000
    209        -17.873527   1.000000
    210        -17.870739   1.000000
    211        -17.869841   1.000000
    212        -17.869685   1.000000
    213        -17.823667   1.000000
    214        -17.822666   1.000000
    215        -17.820435   1.000000
    216        -17.817996   1.000000
    217        -17.803513   1.000000
    218        -17.799987   1.000000
    219        -17.797052   1.000000
    220        -17.796430   1.000000
    221        -17.795413   1.000000
    222        -17.794005   1.000000
    223        -17.791838   1.000000
    224        -17.791386   1.000000
    225        -17.786208   1.000000
    226        -17.784628   1.000000
    227        -17.783437   1.000000
    228        -17.782677   1.000000
    229        -17.777874   1.000000
    230        -17.776304   1.000000
    231        -17.769393   1.000000
    232        -17.767614   1.000000
    233        -17.761413   1.000000
    234        -17.761275   1.000000
    235        -17.758816   1.000000
    236        -17.756369   1.000000
    237        -17.756267   1.000000
    238        -17.753389   1.000000
    239        -17.749853   1.000000
    240        -17.742986   1.000000
    241        -17.741954   1.000000
    242        -17.740500   1.000000
    243        -17.737559   1.000000
    244        -17.736860   1.000000
    245        -17.732732   1.000000
    246        -17.730966   1.000000
    247        -17.730695   1.000000
    248        -17.730166   1.000000
    249        -17.728965   1.000000
    250        -17.727189   1.000000
    251        -17.726748   1.000000
    252        -17.724811   1.000000
    253        -17.724287   1.000000
    254        -17.723044   1.000000
    255        -17.722348   1.000000
    256        -17.721952   1.000000
    257        -17.720620   1.000000
    258        -17.718557   1.000000
    259        -17.716764   1.000000
    260        -17.710710   1.000000
    261        -17.709071   1.000000
    262        -17.707490   1.000000
    263        -17.706762   1.000000
    264        -17.704038   1.000000
    265        -17.703715   1.000000
    266        -17.701253   1.000000
    267        -17.699393   1.000000
    268        -17.697974   1.000000
    269        -17.679581   1.000000
    270        -17.675909   1.000000
    271        -17.668523   1.000000
    272        -17.665617   1.000000
    273        -17.662769   1.000000
    274        -17.662412   1.000000
    275        -17.660161   1.000000
    276        -17.658604   1.000000
    277        -17.658034   1.000000
    278        -17.656739   1.000000
    279        -17.654787   1.000000
    280        -17.653716   1.000000
    281        -17.648345   1.000000
    282        -17.648212   1.000000
    283        -17.645533   1.000000
    284        -17.643191   1.000000
    285        -17.642508   1.000000
    286        -17.642350   1.000000
    287        -17.640214   1.000000
    288        -17.639776   1.000000
    289        -17.634441   1.000000
    290        -17.632596   1.000000
    291        -17.631002   1.000000
    292        -17.629845   1.000000
    293        -17.629423   1.000000
    294        -17.627698   1.000000
    295        -17.626965   1.000000
    296        -17.625171   1.000000
    297        -17.622420   1.000000
    298        -17.619651   1.000000
    299        -17.615581   1.000000
    300        -17.613606   1.000000
    301        -17.613447   1.000000
    302        -17.612638   1.000000
    303        -17.611115   1.000000
    304        -17.609975   1.000000
    305        -17.606516   1.000000
    306        -17.604764   1.000000
    307        -17.603375   1.000000
    308        -17.602981   1.000000
    309        -17.601933   1.000000
    310        -17.600837   1.000000
    311        -17.598319   1.000000
    312        -17.596116   1.000000
    313        -17.594230   1.000000
    314        -17.592832   1.000000
    315        -17.591219   1.000000
    316        -17.590929   1.000000
    317        -17.589402   1.000000
    318        -17.588563   1.000000
    319        -17.587511   1.000000
    320        -17.586253   1.000000
    321        -17.586097   1.000000
    322        -17.584981   1.000000
    323        -17.584635   1.000000
    324        -17.583714   1.000000
    325        -17.583243   1.000000
    326        -17.581925   1.000000
    327        -17.581754   1.000000
    328        -17.581614   1.000000
    329        -17.580196   1.000000
    330        -17.579974   1.000000
    331        -17.579328   1.000000
    332        -17.578004   1.000000
    333        -17.577483   1.000000
    334        -17.576771   1.000000
    335        -17.575775   1.000000
    336        -17.575074   1.000000
    337        -17.574985   1.000000
    338        -17.573144   1.000000
    339        -17.569657   1.000000
    340        -17.569348   1.000000
    341        -17.568909   1.000000
    342        -17.568563   1.000000
    343        -17.567845   1.000000
    344        -17.567103   1.000000
    345        -17.558988   1.000000
    346        -17.553434   1.000000
    347        -17.552418   1.000000
    348        -17.548717   1.000000
    349        -17.547247   1.000000
    350        -17.546134   1.000000
    351        -17.546023   1.000000
    352        -17.543096   1.000000
    353        -17.541841   1.000000
    354        -17.541458   1.000000
    355        -17.540272   1.000000
    356        -17.538967   1.000000
    357        -17.538833   1.000000
    358        -17.537826   1.000000
    359        -17.537152   1.000000
    360        -17.536393   1.000000
    361        -17.533136   1.000000
    362        -17.530653   1.000000
    363        -17.526722   1.000000
    364        -17.522459   1.000000
    365        -17.516852   1.000000
    366        -17.513930   1.000000
    367        -17.503840   1.000000
    368        -17.502014   1.000000
    369        -17.500790   1.000000
    370        -17.498480   1.000000
    371        -17.497044   1.000000
    372        -17.493999   1.000000
    373        -17.492439   1.000000
    374        -17.488278   1.000000
    375        -17.487556   1.000000
    376        -17.482066   1.000000
    377        -17.475462   1.000000
    378        -17.472722   1.000000
    379        -17.456140   1.000000
    380        -17.454456   1.000000
    381        -17.453249   1.000000
    382        -17.448048   1.000000
    383        -17.438605   1.000000
    384        -17.433910   1.000000
    385          2.452057   1.000000
    386          3.819176   1.000000
    387          3.893079   1.000000
    388          4.098958   1.000000
    389          4.196451   1.000000
    390          4.576091   1.000000
    391          4.633730   1.000000
    392          4.810389   1.000000
    393          4.869604   1.000000
    394          5.072360   1.000000
    395          5.131496   1.000000
    396          5.624326   1.000000
    397          5.633835   1.000000
    398          5.655013   1.000000
    399          5.678621   1.000000
    400          5.742106   1.000000
    401          5.744025   1.000000
    402          5.746354   1.000000
    403          5.778215   1.000000
    404          5.833037   1.000000
    405          5.835062   1.000000
    406          5.836911   1.000000
    407          5.853655   1.000000
    408          5.864587   1.000000
    409          5.886777   1.000000
    410          5.909876   1.000000
    411          5.976704   1.000000
    412          6.052499   1.000000
    413          6.061904   1.000000
    414          6.183460   1.000000
    415          6.193177   1.000000
    416          6.227935   1.000000
    417          6.231513   1.000000
    418          6.233059   1.000000
    419          6.235286   1.000000
    420          6.240601   1.000000
    421          6.242630   1.000000
    422          6.243346   1.000000
    423          6.250388   1.000000
    424          6.259226   1.000000
    425          6.278363   1.000000
    426          6.288983   1.000000
    427          6.292695   1.000000
    428          6.292934   1.000000
    429          6.295044   1.000000
    430          6.299795   1.000000
    431          6.302726   1.000000
    432          6.304408   1.000000
    433          6.371806   1.000000
    434          6.406458   1.000000
    435          6.407541   1.000000
    436          6.410272   1.000000
    437          6.474897   1.000000
    438          6.512553   1.000000
    439          6.512754   1.000000
    440          6.513981   1.000000
    441          6.533539   1.000000
    442          6.546921   1.000000
    443          6.550622   1.000000
    444          6.552092   1.000000
    445          6.611687   1.000000
    446          6.712844   1.000000
    447          6.714947   1.000000
    448          6.715186   1.000000
    449          6.742994   1.000000
    450          6.822593   1.000000
    451          6.823958   1.000000
    452          6.828203   1.000000
    453          6.831554   1.000000
    454          6.834160   1.000000
    455          6.841663   1.000000
    456          6.852014   1.000000
    457          6.857602   1.000000
    458          6.871208   1.000000
    459          6.873493   1.000000
    460          6.875978   1.000000
    461          6.887041   1.000000
    462          6.921662   1.000000
    463          6.927724   1.000000
    464          6.929378   1.000000
    465          6.973333   1.000000
    466          6.975066   1.000000
    467          7.060973   1.000000
    468          7.167045   1.000000
    469          7.171157   1.000000
    470          7.176279   1.000000
    471          7.180207   1.000000
    472          7.183144   1.000000
    473          7.186862   1.000000
    474          7.214211   1.000000
    475          7.219153   1.000000
    476          7.224117   1.000000
    477          7.233042   1.000000
    478          7.245693   1.000000
    479          7.249228   1.000000
    480          7.251298   1.000000
    481          7.253867   1.000000
    482          7.259305   1.000000
    483          7.321580   1.000000
    484          7.405309   1.000000
    485          7.405620   1.000000
    486          7.416430   1.000000
    487          7.416697   1.000000
    488          7.419916   1.000000
    489          7.424810   1.000000
    490          7.444192   1.000000
    491          7.444602   1.000000
    492          7.448139   1.000000
    493          7.451667   1.000000
    494          7.452227   1.000000
    495          7.464479   1.000000
    496          7.470638   1.000000
    497          7.526924   1.000000
    498          7.553273   1.000000
    499          7.557983   1.000000
    500          7.562888   1.000000
    501          7.576597   1.000000
    502          7.578628   1.000000
    503          7.631497   1.000000
    504          7.650462   1.000000
    505          7.708000   1.000000
    506          7.736932   1.000000
    507          7.774738   1.000000
    508          7.868136   1.000000
    509          7.879075   1.000000
    510          7.928602   1.000000
    511          7.930473   1.000000
    512          7.931191   1.000000
    513          7.933116   1.000000
    514          7.934343   1.000000
    515          7.939796   1.000000
    516          7.947177   1.000000
    517          7.972153   1.000000
    518          8.013378   1.000000
    519          8.020310   1.000000
    520          8.035079   1.000000
    521          8.038333   1.000000
    522          8.043736   1.000000
    523          8.058555   1.000000
    524          8.070658   1.000000
    525          8.070992   1.000000
    526          8.071733   1.000000
    527          8.096490   1.000000
    528          8.117980   1.000000
    529          8.120908   1.000000
    530          8.122184   1.000000
    531          8.125552   1.000000
    532          8.129397   1.000000
    533          8.130185   1.000000
    534          8.134559   1.000000
    535          8.135494   1.000000
    536          8.138037   1.000000
    537          8.186661   1.000000
    538          8.226454   1.000002
    539          8.228891   1.000002
    540          8.234354   1.000002
    541          8.237545   1.000002
    542          8.238015   1.000002
    543          8.241027   1.000003
    544          8.241956   1.000003
    545          8.244461   1.000003
    546          8.244709   1.000003
    547          8.248347   1.000003
    548          8.250575   1.000003
    549          8.260255   1.000005
    550          8.261421   1.000005
    551          8.264595   1.000006
    552          8.266312   1.000006
    553          8.320827   1.000032
    554          8.334232   1.000048
    555          8.335968   1.000051
    556          8.342456   1.000061
    557          8.373186   1.000144
    558          8.389421   1.000222
    559          8.410885   1.000385
    560          8.429007   1.000599
    561          8.463349   1.001320
    562          8.464009   1.001339
    563          8.496806   1.002666
    564          8.505417   1.003160
    565          8.514556   1.003766
    566          8.530376   1.005040
    567          8.693630   1.034256
    568          8.706402   1.035321
    569          8.765574   1.020377
    570          8.780144   1.008987
    571          8.796511   0.991229
    572          8.824563   0.946821
    573          8.939087   0.577305
    574          8.982331   0.395583
    575          9.010790   0.282924
    576          9.012717   0.275722
    577          9.046228   0.162232
    578          9.061209   0.119732
    579          9.066138   0.106961
    580          9.070038   0.097290
    581          9.074982   0.085580
    582          9.084201   0.065395
    583          9.091621   0.050700
    584          9.100055   0.035648
    585          9.105923   0.026187
    586          9.113537   0.015117
    587          9.132892  -0.007257
    588          9.147264  -0.019008
    589          9.153860  -0.023168
    590          9.162875  -0.027721
    591          9.202042  -0.035457
    592          9.202577  -0.035458
    593          9.206602  -0.035391
    594          9.207930  -0.035344
    595          9.246036  -0.030101
    596          9.250745  -0.029116
    597          9.267954  -0.025260
    598          9.271873  -0.024355
    599          9.272116  -0.024298
    600          9.275129  -0.023601
    601          9.280828  -0.022284
    602          9.287389  -0.020785
    603          9.293663  -0.019378
    604          9.298100  -0.018404
    605          9.320754  -0.013803
    606          9.322809  -0.013421
    607          9.335034  -0.011287
    608          9.339596  -0.010551
    609          9.341431  -0.010265
    610          9.343645  -0.009927
    611          9.346252  -0.009538
    612          9.349793  -0.009028
    613          9.352783  -0.008613
    614          9.358099  -0.007910
    615          9.367844  -0.006734
    616          9.371701  -0.006307
    617          9.374393  -0.006022
    618          9.374911  -0.005968
    619          9.442672  -0.001600
    620          9.454108  -0.001247
    621          9.463795  -0.001004
    622          9.477013  -0.000740
    623          9.480315  -0.000684
    624          9.491517  -0.000523
    625          9.641027  -0.000007
    626          9.647028  -0.000006
    627          9.684898  -0.000002
    628          9.706248  -0.000001
    629          9.729841  -0.000000
    630          9.736873  -0.000000
    631          9.740584  -0.000000
    632          9.746484  -0.000000
    633          9.747347  -0.000000
    634          9.752576  -0.000000
    635          9.762155  -0.000000
    636          9.762559  -0.000000
    637          9.783352  -0.000000
    638          9.785088  -0.000000
    639          9.791028  -0.000000
    640          9.793656  -0.000000
    641          9.796566  -0.000000
    642          9.798466  -0.000000
    643          9.800233  -0.000000
    644          9.803302  -0.000000
    645          9.809815  -0.000000
    646          9.812253  -0.000000
    647          9.815815  -0.000000
    648          9.822368  -0.000000
    649          9.823637  -0.000000
    650          9.838209  -0.000000
    651          9.846498  -0.000000
    652          9.871336  -0.000000
    653          9.881744  -0.000000
    654          9.883285  -0.000000
    655          9.887512  -0.000000
    656          9.896696  -0.000000
    657          9.923806  -0.000000
    658          9.924147  -0.000000
    659          9.939116  -0.000000
    660          9.939576  -0.000000
    661          9.944983  -0.000000
    662          9.945281  -0.000000
    663          9.958459  -0.000000
    664          9.964391  -0.000000
    665          9.966152  -0.000000
    666          9.970182  -0.000000
    667          9.971754  -0.000000
    668          9.978810  -0.000000
    669         10.003685  -0.000000
    670         10.004662  -0.000000
    671         10.010447  -0.000000
    672         10.018331  -0.000000
    673         10.048495  -0.000000
    674         10.055073  -0.000000
    675         10.066766  -0.000000
    676         10.093657  -0.000000
    677         10.100214  -0.000000
    678         10.100552  -0.000000
    679         10.103660  -0.000000
    680         10.105939  -0.000000
    681         10.109729  -0.000000
    682         10.110346  -0.000000
    683         10.125766  -0.000000
    684         10.129436  -0.000000
    685         10.131096  -0.000000
    686         10.142531  -0.000000
    687         10.199314  -0.000000
    688         10.216311  -0.000000
    689         10.229567  -0.000000
    690         10.234266  -0.000000
    691         10.284635  -0.000000
 
  0.2500000E+00  0.2500000E+00  0.3333333E+00  0.4166667E-01
      1        -39.907183   1.000000
      2        -39.884131   1.000000
      3        -39.876721   1.000000
      4        -39.870027   1.000000
      5        -39.867300   1.000000
      6        -39.859074   1.000000
      7        -39.854874   1.000000
      8        -39.843537   1.000000
      9        -39.839131   1.000000
     10        -39.833309   1.000000
     11        -39.827355   1.000000
     12        -39.825384   1.000000
     13        -39.823266   1.000000
     14        -39.820331   1.000000
     15        -39.816283   1.000000
     16        -39.814560   1.000000
     17        -39.806272   1.000000
     18        -39.804133   1.000000
     19        -39.801592   1.000000
     20        -39.799569   1.000000
     21        -39.797606   1.000000
     22        -39.794732   1.000000
     23        -39.794127   1.000000
     24        -39.793118   1.000000
     25        -39.789858   1.000000
     26        -39.787831   1.000000
     27        -39.785221   1.000000
     28        -39.782899   1.000000
     29        -39.782010   1.000000
     30        -39.781111   1.000000
     31        -39.778706   1.000000
     32        -39.777207   1.000000
     33        -39.775569   1.000000
     34        -39.774798   1.000000
     35        -39.773153   1.000000
     36        -39.770976   1.000000
     37        -39.769413   1.000000
     38        -39.768553   1.000000
     39        -39.767222   1.000000
     40        -39.763501   1.000000
     41        -39.762444   1.000000
     42        -39.761457   1.000000
     43        -39.760247   1.000000
     44        -39.758924   1.000000
     45        -39.757468   1.000000
     46        -39.756230   1.000000
     47        -39.755853   1.000000
     48        -39.755062   1.000000
     49        -39.754090   1.000000
     50        -39.753541   1.000000
     51        -39.752963   1.000000
     52        -39.752083   1.000000
     53        -39.751291   1.000000
     54        -39.750502   1.000000
     55        -39.749317   1.000000
     56        -39.748489   1.000000
     57        -39.747389   1.000000
     58        -39.745876   1.000000
     59        -39.744990   1.000000
     60        -39.744649   1.000000
     61        -39.743299   1.000000
     62        -39.742028   1.000000
     63        -39.740907   1.000000
     64        -39.739625   1.000000
     65        -39.739073   1.000000
     66        -39.738407   1.000000
     67        -39.737853   1.000000
     68        -39.737228   1.000000
     69        -39.735945   1.000000
     70        -39.734965   1.000000
     71        -39.734635   1.000000
     72        -39.733700   1.000000
     73        -39.732510   1.000000
     74        -39.731469   1.000000
     75        -39.730593   1.000000
     76        -39.729585   1.000000
     77        -39.728941   1.000000
     78        -39.727999   1.000000
     79        -39.727429   1.000000
     80        -39.726615   1.000000
     81        -39.725181   1.000000
     82        -39.724659   1.000000
     83        -39.724401   1.000000
     84        -39.723549   1.000000
     85        -39.722667   1.000000
     86        -39.722455   1.000000
     87        -39.721964   1.000000
     88        -39.721406   1.000000
     89        -39.719284   1.000000
     90        -39.718610   1.000000
     91        -39.715576   1.000000
     92        -39.715276   1.000000
     93        -39.709330   1.000000
     94        -39.709053   1.000000
     95        -39.706779   1.000000
     96        -39.704765   1.000000
     97        -18.359264   1.000000
     98        -18.326545   1.000000
     99        -18.313781   1.000000
    100        -18.312400   1.000000
    101        -18.293074   1.000000
    102        -18.283853   1.000000
    103        -18.278428   1.000000
    104        -18.276098   1.000000
    105        -18.271023   1.000000
    106        -18.266653   1.000000
    107        -18.264120   1.000000
    108        -18.259820   1.000000
    109        -18.257258   1.000000
    110        -18.256303   1.000000
    111        -18.252368   1.000000
    112        -18.250162   1.000000
    113        -18.243886   1.000000
    114        -18.239663   1.000000
    115        -18.236450   1.000000
    116        -18.235271   1.000000
    117        -18.233182   1.000000
    118        -18.231284   1.000000
    119        -18.230257   1.000000
    120        -18.228611   1.000000
    121        -18.223993   1.000000
    122        -18.220640   1.000000
    123        -18.218859   1.000000
    124        -18.218167   1.000000
    125        -18.216475   1.000000
    126        -18.214842   1.000000
    127        -18.213462   1.000000
    128        -18.212777   1.000000
    129        -18.210661   1.000000
    130        -18.208811   1.000000
    131        -18.203557   1.000000
    132        -18.199616   1.000000
    133        -18.197033   1.000000
    134        -18.195859   1.000000
    135        -18.195038   1.000000
    136        -18.193503   1.000000
    137        -18.190368   1.000000
    138        -18.187440   1.000000
    139        -18.180751   1.000000
    140        -18.175944   1.000000
    141        -18.173237   1.000000
    142        -18.172495   1.000000
    143        -18.168695   1.000000
    144        -18.167584   1.000000
    145        -18.165745   1.000000
    146        -18.161200   1.000000
    147        -18.156439   1.000000
    148        -18.144471   1.000000
    149        -18.126137   1.000000
    150        -18.120885   1.000000
    151        -18.118883   1.000000
    152        -18.115678   1.000000
    153        -18.113552   1.000000
    154        -18.113036   1.000000
    155        -18.112414   1.000000
    156        -18.110771   1.000000
    157        -18.110005   1.000000
    158        -18.109169   1.000000
    159        -18.092061   1.000000
    160        -18.086844   1.000000
    161        -18.079838   1.000000
    162        -18.065017   1.000000
    163        -18.061220   1.000000
    164        -18.055359   1.000000
    165        -18.052805   1.000000
    166        -18.052147   1.000000
    167        -18.049687   1.000000
    168        -18.048104   1.000000
    169        -18.046420   1.000000
    170        -18.044990   1.000000
    171        -18.043220   1.000000
    172        -18.041449   1.000000
    173        -18.039428   1.000000
    174        -18.036415   1.000000
    175        -18.034730   1.000000
    176        -18.031522   1.000000
    177        -18.029519   1.000000
    178        -18.027832   1.000000
    179        -18.007441   1.000000
    180        -17.988040   1.000000
    181        -17.986097   1.000000
    182        -17.981992   1.000000
    183        -17.980329   1.000000
    184        -17.973506   1.000000
    185        -17.968220   1.000000
    186        -17.965790   1.000000
    187        -17.959561   1.000000
    188        -17.953465   1.000000
    189        -17.943994   1.000000
    190        -17.941883   1.000000
    191        -17.941092   1.000000
    192        -17.934950   1.000000
    193        -17.933337   1.000000
    194        -17.928949   1.000000
    195        -17.925379   1.000000
    196        -17.918062   1.000000
    197        -17.913594   1.000000
    198        -17.911934   1.000000
    199        -17.910218   1.000000
    200        -17.903293   1.000000
    201        -17.899548   1.000000
    202        -17.897726   1.000000
    203        -17.893128   1.000000
    204        -17.891474   1.000000
    205        -17.890580   1.000000
    206        -17.888693   1.000000
    207        -17.887166   1.000000
    208        -17.885434   1.000000
    209        -17.876654   1.000000
    210        -17.869393   1.000000
    211        -17.863149   1.000000
    212        -17.857855   1.000000
    213        -17.855001   1.000000
    214        -17.852275   1.000000
    215        -17.836923   1.000000
    216        -17.835400   1.000000
    217        -17.833286   1.000000
    218        -17.828143   1.000000
    219        -17.825907   1.000000
    220        -17.821209   1.000000
    221        -17.816832   1.000000
    222        -17.814640   1.000000
    223        -17.806748   1.000000
    224        -17.796639   1.000000
    225        -17.786587   1.000000
    226        -17.775692   1.000000
    227        -17.773473   1.000000
    228        -17.771006   1.000000
    229        -17.768163   1.000000
    230        -17.766586   1.000000
    231        -17.763426   1.000000
    232        -17.762566   1.000000
    233        -17.758159   1.000000
    234        -17.756993   1.000000
    235        -17.752239   1.000000
    236        -17.751259   1.000000
    237        -17.747841   1.000000
    238        -17.744203   1.000000
    239        -17.742252   1.000000
    240        -17.738732   1.000000
    241        -17.737276   1.000000
    242        -17.734328   1.000000
    243        -17.731631   1.000000
    244        -17.730386   1.000000
    245        -17.729351   1.000000
    246        -17.727430   1.000000
    247        -17.725199   1.000000
    248        -17.723513   1.000000
    249        -17.722751   1.000000
    250        -17.722025   1.000000
    251        -17.720413   1.000000
    252        -17.719682   1.000000
    253        -17.719218   1.000000
    254        -17.716751   1.000000
    255        -17.715306   1.000000
    256        -17.713962   1.000000
    257        -17.712036   1.000000
    258        -17.711122   1.000000
    259        -17.709955   1.000000
    260        -17.708380   1.000000
    261        -17.704822   1.000000
    262        -17.704169   1.000000
    263        -17.702402   1.000000
    264        -17.698518   1.000000
    265        -17.696521   1.000000
    266        -17.689647   1.000000
    267        -17.684663   1.000000
    268        -17.683815   1.000000
    269        -17.682740   1.000000
    270        -17.679910   1.000000
    271        -17.679026   1.000000
    272        -17.677229   1.000000
    273        -17.675846   1.000000
    274        -17.672212   1.000000
    275        -17.669890   1.000000
    276        -17.668656   1.000000
    277        -17.667953   1.000000
    278        -17.666642   1.000000
    279        -17.664437   1.000000
    280        -17.663609   1.000000
    281        -17.653774   1.000000
    282        -17.652171   1.000000
    283        -17.650213   1.000000
    284        -17.646498   1.000000
    285        -17.641664   1.000000
    286        -17.640783   1.000000
    287        -17.637246   1.000000
    288        -17.634959   1.000000
    289        -17.631618   1.000000
    290        -17.628581   1.000000
    291        -17.626608   1.000000
    292        -17.625203   1.000000
    293        -17.624541   1.000000
    294        -17.623548   1.000000
    295        -17.622707   1.000000
    296        -17.621890   1.000000
    297        -17.620653   1.000000
    298        -17.619982   1.000000
    299        -17.618747   1.000000
    300        -17.617298   1.000000
    301        -17.615131   1.000000
    302        -17.613916   1.000000
    303        -17.612809   1.000000
    304        -17.611665   1.000000
    305        -17.611335   1.000000
    306        -17.610878   1.000000
    307        -17.610480   1.000000
    308        -17.607669   1.000000
    309        -17.605727   1.000000
    310        -17.602211   1.000000
    311        -17.601583   1.000000
    312        -17.599499   1.000000
    313        -17.595468   1.000000
    314        -17.594772   1.000000
    315        -17.593573   1.000000
    316        -17.592972   1.000000
    317        -17.591372   1.000000
    318        -17.590534   1.000000
    319        -17.589858   1.000000
    320        -17.588628   1.000000
    321        -17.587273   1.000000
    322        -17.586019   1.000000
    323        -17.585219   1.000000
    324        -17.584499   1.000000
    325        -17.583569   1.000000
    326        -17.582915   1.000000
    327        -17.581837   1.000000
    328        -17.581147   1.000000
    329        -17.580803   1.000000
    330        -17.580524   1.000000
    331        -17.579862   1.000000
    332        -17.579186   1.000000
    333        -17.578695   1.000000
    334        -17.577315   1.000000
    335        -17.575850   1.000000
    336        -17.574803   1.000000
    337        -17.573629   1.000000
    338        -17.572033   1.000000
    339        -17.570978   1.000000
    340        -17.568728   1.000000
    341        -17.566639   1.000000
    342        -17.565441   1.000000
    343        -17.563806   1.000000
    344        -17.561888   1.000000
    345        -17.561085   1.000000
    346        -17.554346   1.000000
    347        -17.554251   1.000000
    348        -17.552737   1.000000
    349        -17.551320   1.000000
    350        -17.544185   1.000000
    351        -17.542571   1.000000
    352        -17.541625   1.000000
    353        -17.539923   1.000000
    354        -17.537973   1.000000
    355        -17.536872   1.000000
    356        -17.535335   1.000000
    357        -17.533721   1.000000
    358        -17.533154   1.000000
    359        -17.529794   1.000000
    360        -17.527653   1.000000
    361        -17.526129   1.000000
    362        -17.521878   1.000000
    363        -17.520693   1.000000
    364        -17.519509   1.000000
    365        -17.518583   1.000000
    366        -17.516785   1.000000
    367        -17.516005   1.000000
    368        -17.515541   1.000000
    369        -17.513745   1.000000
    370        -17.510551   1.000000
    371        -17.509810   1.000000
    372        -17.492915   1.000000
    373        -17.488845   1.000000
    374        -17.486326   1.000000
    375        -17.473187   1.000000
    376        -17.469919   1.000000
    377        -17.467680   1.000000
    378        -17.465799   1.000000
    379        -17.462466   1.000000
    380        -17.454917   1.000000
    381        -17.452930   1.000000
    382        -17.447942   1.000000
    383        -17.447679   1.000000
    384        -17.435264   1.000000
    385          2.452010   1.000000
    386          3.758509   1.000000
    387          4.026153   1.000000
    388          4.115918   1.000000
    389          4.197980   1.000000
    390          4.380130   1.000000
    391          4.479119   1.000000
    392          5.006783   1.000000
    393          5.150934   1.000000
    394          5.182372   1.000000
    395          5.312731   1.000000
    396          5.319520   1.000000
    397          5.332832   1.000000
    398          5.398734   1.000000
    399          5.560847   1.000000
    400          5.742657   1.000000
    401          5.789917   1.000000
    402          5.797362   1.000000
    403          5.818183   1.000000
    404          5.829554   1.000000
    405          5.857915   1.000000
    406          5.862670   1.000000
    407          5.908256   1.000000
    408          6.001882   1.000000
    409          6.005329   1.000000
    410          6.008561   1.000000
    411          6.035232   1.000000
    412          6.106884   1.000000
    413          6.107774   1.000000
    414          6.114306   1.000000
    415          6.116810   1.000000
    416          6.126512   1.000000
    417          6.134472   1.000000
    418          6.155572   1.000000
    419          6.160217   1.000000
    420          6.185090   1.000000
    421          6.208715   1.000000
    422          6.212996   1.000000
    423          6.229040   1.000000
    424          6.265816   1.000000
    425          6.288448   1.000000
    426          6.310351   1.000000
    427          6.312985   1.000000
    428          6.321994   1.000000
    429          6.335895   1.000000
    430          6.358722   1.000000
    431          6.396352   1.000000
    432          6.405110   1.000000
    433          6.440416   1.000000
    434          6.453482   1.000000
    435          6.469945   1.000000
    436          6.499349   1.000000
    437          6.517045   1.000000
    438          6.518227   1.000000
    439          6.528121   1.000000
    440          6.534078   1.000000
    441          6.542140   1.000000
    442          6.547189   1.000000
    443          6.560579   1.000000
    444          6.585072   1.000000
    445          6.593624   1.000000
    446          6.621176   1.000000
    447          6.642317   1.000000
    448          6.669089   1.000000
    449          6.675560   1.000000
    450          6.686647   1.000000
    451          6.696693   1.000000
    452          6.701222   1.000000
    453          6.745998   1.000000
    454          6.788366   1.000000
    455          6.810584   1.000000
    456          6.815996   1.000000
    457          6.843719   1.000000
    458          6.901666   1.000000
    459          6.906729   1.000000
    460          6.910478   1.000000
    461          6.923645   1.000000
    462          6.955037   1.000000
    463          7.003538   1.000000
    464          7.003906   1.000000
    465          7.016637   1.000000
    466          7.044996   1.000000
    467          7.058898   1.000000
    468          7.122251   1.000000
    469          7.135651   1.000000
    470          7.197980   1.000000
    471          7.201244   1.000000
    472          7.205315   1.000000
    473          7.208099   1.000000
    474          7.218619   1.000000
    475          7.225790   1.000000
    476          7.239809   1.000000
    477          7.254286   1.000000
    478          7.261027   1.000000
    479          7.271066   1.000000
    480          7.280388   1.000000
    481          7.294404   1.000000
    482          7.306149   1.000000
    483          7.308631   1.000000
    484          7.330881   1.000000
    485          7.339395   1.000000
    486          7.354893   1.000000
    487          7.364848   1.000000
    488          7.389587   1.000000
    489          7.405878   1.000000
    490          7.417073   1.000000
    491          7.428633   1.000000
    492          7.444407   1.000000
    493          7.460403   1.000000
    494          7.482751   1.000000
    495          7.489008   1.000000
    496          7.545305   1.000000
    497          7.587700   1.000000
    498          7.591360   1.000000
    499          7.618461   1.000000
    500          7.639788   1.000000
    501          7.659722   1.000000
    502          7.694280   1.000000
    503          7.724819   1.000000
    504          7.760013   1.000000
    505          7.783702   1.000000
    506          7.789076   1.000000
    507          7.792406   1.000000
    508          7.795427   1.000000
    509          7.806665   1.000000
    510          7.821718   1.000000
    511          7.836224   1.000000
    512          7.853581   1.000000
    513          7.865243   1.000000
    514          7.867315   1.000000
    515          7.886777   1.000000
    516          7.918973   1.000000
    517          7.927896   1.000000
    518          7.933940   1.000000
    519          7.944275   1.000000
    520          7.952005   1.000000
    521          7.966844   1.000000
    522          7.979715   1.000000
    523          8.006175   1.000000
    524          8.029497   1.000000
    525          8.037878   1.000000
    526          8.057024   1.000000
    527          8.080010   1.000000
    528          8.101429   1.000000
    529          8.109378   1.000000
    530          8.123663   1.000000
    531          8.129334   1.000000
    532          8.133269   1.000000
    533          8.138133   1.000000
    534          8.142797   1.000000
    535          8.164303   1.000000
    536          8.189071   1.000000
    537          8.201879   1.000001
    538          8.209407   1.000001
    539          8.214208   1.000001
    540          8.232637   1.000002
    541          8.236936   1.000002
    542          8.243484   1.000003
    543          8.244703   1.000003
    544          8.253002   1.000004
    545          8.260801   1.000005
    546          8.271324   1.000007
    547          8.289061   1.000012
    548          8.304377   1.000020
    549          8.305930   1.000021
    550          8.311966   1.000025
    551          8.319765   1.000031
    552          8.331017   1.000044
    553          8.337196   1.000052
    554          8.344586   1.000065
    555          8.346373   1.000068
    556          8.350002   1.000076
    557          8.352365   1.000081
    558          8.354084   1.000085
    559          8.359366   1.000099
    560          8.365279   1.000116
    561          8.389955   1.000225
    562          8.395025   1.000257
    563          8.584717   1.012108
    564          8.622383   1.019636
    565          8.632335   1.021889
    566          8.698768   1.034798
    567          8.710143   1.035437
    568          8.787273   1.001936
    569          8.790391   0.998524
    570          8.815893   0.962547
    571          8.843739   0.905384
    572          8.851786   0.885231
    573          8.863979   0.851620
    574          8.870194   0.833097
    575          8.872602   0.825673
    576          8.879421   0.803930
    577          8.927409   0.625503
    578          8.937802   0.582660
    579          9.016005   0.263583
    580          9.023576   0.236401
    581          9.029347   0.216445
    582          9.036373   0.193103
    583          9.042926   0.172327
    584          9.080894   0.072389
    585          9.095259   0.043994
    586          9.117088   0.010406
    587          9.161477  -0.027096
    588          9.167793  -0.029698
    589          9.188482  -0.034640
    590          9.206699  -0.035388
    591          9.215855  -0.034821
    592          9.234008  -0.032381
    593          9.241074  -0.031089
    594          9.249280  -0.029427
    595          9.262740  -0.026456
    596          9.279650  -0.022556
    597          9.284293  -0.021490
    598          9.294656  -0.019158
    599          9.297279  -0.018583
    600          9.299752  -0.018047
    601          9.308940  -0.016117
    602          9.310946  -0.015711
    603          9.316605  -0.014593
    604          9.317666  -0.014388
    605          9.321595  -0.013646
    606          9.327580  -0.012560
    607          9.332503  -0.011709
    608          9.340137  -0.010466
    609          9.343990  -0.009875
    610          9.352811  -0.008609
    611          9.374424  -0.006018
    612          9.414907  -0.002839
    613          9.421206  -0.002503
    614          9.461428  -0.001059
    615          9.482492  -0.000650
    616          9.488362  -0.000565
    617          9.500781  -0.000417
    618          9.505406  -0.000371
    619          9.507297  -0.000354
    620          9.517669  -0.000272
    621          9.527567  -0.000210
    622          9.532597  -0.000184
    623          9.550721  -0.000113
    624          9.558394  -0.000091
    625          9.568969  -0.000067
    626          9.578005  -0.000052
    627          9.582891  -0.000045
    628          9.586304  -0.000041
    629          9.600698  -0.000026
    630          9.607196  -0.000022
    631          9.615444  -0.000017
    632          9.619364  -0.000015
    633          9.623872  -0.000013
    634          9.635846  -0.000009
    635          9.663379  -0.000004
    636          9.689564  -0.000001
    637          9.698749  -0.000001
    638          9.712773  -0.000001
    639          9.724523  -0.000000
    640          9.739743  -0.000000
    641          9.749974  -0.000000
    642          9.759873  -0.000000
    643          9.764160  -0.000000
    644          9.785823  -0.000000
    645          9.797613  -0.000000
    646          9.806780  -0.000000
    647          9.813064  -0.000000
    648          9.831204  -0.000000
    649          9.841124  -0.000000
    650          9.855775  -0.000000
    651          9.877204  -0.000000
    652          9.881048  -0.000000
    653          9.882872  -0.000000
    654          9.896112  -0.000000
    655          9.899867  -0.000000
    656          9.907468  -0.000000
    657          9.917715  -0.000000
    658          9.924544  -0.000000
    659          9.944009  -0.000000
    660          9.952242  -0.000000
    661          9.961805  -0.000000
    662          9.994222  -0.000000
    663         10.005596  -0.000000
    664         10.021895  -0.000000
    665         10.031562  -0.000000
    666         10.042873  -0.000000
    667         10.050246  -0.000000
    668         10.063923  -0.000000
    669         10.067334  -0.000000
    670         10.070032  -0.000000
    671         10.078222  -0.000000
    672         10.082104  -0.000000
    673         10.087443  -0.000000
    674         10.098390  -0.000000
    675         10.101639  -0.000000
    676         10.113036  -0.000000
    677         10.119034  -0.000000
    678         10.123456  -0.000000
    679         10.129784  -0.000000
    680         10.134960  -0.000000
    681         10.137245  -0.000000
    682         10.147498  -0.000000
    683         10.160148  -0.000000
    684         10.167563  -0.000000
    685         10.169874  -0.000000
    686         10.175369  -0.000000
    687         10.177590  -0.000000
    688         10.187651  -0.000000
    689         10.190635  -0.000000
    690         10.195470  -0.000000
    691         10.205096  -0.000000
 
 -0.2500000E+00  0.5000000E+00  0.3333333E+00  0.4166667E-01
      1        -39.907188   1.000000
      2        -39.884125   1.000000
      3        -39.876648   1.000000
      4        -39.870109   1.000000
      5        -39.867264   1.000000
      6        -39.859182   1.000000
      7        -39.854825   1.000000
      8        -39.843515   1.000000
      9        -39.839177   1.000000
     10        -39.833302   1.000000
     11        -39.827297   1.000000
     12        -39.825415   1.000000
     13        -39.823241   1.000000
     14        -39.820267   1.000000
     15        -39.816272   1.000000
     16        -39.814603   1.000000
     17        -39.806229   1.000000
     18        -39.804155   1.000000
     19        -39.801609   1.000000
     20        -39.799476   1.000000
     21        -39.797614   1.000000
     22        -39.794884   1.000000
     23        -39.794121   1.000000
     24        -39.793163   1.000000
     25        -39.789821   1.000000
     26        -39.787861   1.000000
     27        -39.785239   1.000000
     28        -39.782904   1.000000
     29        -39.782035   1.000000
     30        -39.781079   1.000000
     31        -39.778632   1.000000
     32        -39.777290   1.000000
     33        -39.775519   1.000000
     34        -39.774755   1.000000
     35        -39.773142   1.000000
     36        -39.770919   1.000000
     37        -39.769425   1.000000
     38        -39.768696   1.000000
     39        -39.767228   1.000000
     40        -39.763436   1.000000
     41        -39.762506   1.000000
     42        -39.761412   1.000000
     43        -39.760124   1.000000
     44        -39.758896   1.000000
     45        -39.757434   1.000000
     46        -39.756327   1.000000
     47        -39.755932   1.000000
     48        -39.755164   1.000000
     49        -39.754068   1.000000
     50        -39.753517   1.000000
     51        -39.753011   1.000000
     52        -39.752021   1.000000
     53        -39.751205   1.000000
     54        -39.750531   1.000000
     55        -39.749237   1.000000
     56        -39.748518   1.000000
     57        -39.747315   1.000000
     58        -39.745893   1.000000
     59        -39.745024   1.000000
     60        -39.744687   1.000000
     61        -39.743333   1.000000
     62        -39.741946   1.000000
     63        -39.740966   1.000000
     64        -39.739672   1.000000
     65        -39.739058   1.000000
     66        -39.738366   1.000000
     67        -39.737826   1.000000
     68        -39.737195   1.000000
     69        -39.735939   1.000000
     70        -39.734956   1.000000
     71        -39.734648   1.000000
     72        -39.733836   1.000000
     73        -39.732529   1.000000
     74        -39.731409   1.000000
     75        -39.730692   1.000000
     76        -39.729482   1.000000
     77        -39.728893   1.000000
     78        -39.728041   1.000000
     79        -39.727506   1.000000
     80        -39.726614   1.000000
     81        -39.725115   1.000000
     82        -39.724688   1.000000
     83        -39.724504   1.000000
     84        -39.723436   1.000000
     85        -39.722639   1.000000
     86        -39.722426   1.000000
     87        -39.721939   1.000000
     88        -39.721383   1.000000
     89        -39.719327   1.000000
     90        -39.718608   1.000000
     91        -39.715677   1.000000
     92        -39.715220   1.000000
     93        -39.709311   1.000000
     94        -39.709074   1.000000
     95        -39.706775   1.000000
     96        -39.704759   1.000000
     97        -18.359261   1.000000
     98        -18.326515   1.000000
     99        -18.313801   1.000000
    100        -18.312369   1.000000
    101        -18.293087   1.000000
    102        -18.283834   1.000000
    103        -18.278485   1.000000
    104        -18.276088   1.000000
    105        -18.271014   1.000000
    106        -18.266630   1.000000
    107        -18.264161   1.000000
    108        -18.259833   1.000000
    109        -18.257189   1.000000
    110        -18.256280   1.000000
    111        -18.252373   1.000000
    112        -18.250198   1.000000
    113        -18.244001   1.000000
    114        -18.239644   1.000000
    115        -18.236566   1.000000
    116        -18.235237   1.000000
    117        -18.233077   1.000000
    118        -18.231188   1.000000
    119        -18.230301   1.000000
    120        -18.228574   1.000000
    121        -18.223999   1.000000
    122        -18.220540   1.000000
    123        -18.218877   1.000000
    124        -18.218191   1.000000
    125        -18.216438   1.000000
    126        -18.214852   1.000000
    127        -18.213528   1.000000
    128        -18.212819   1.000000
    129        -18.210710   1.000000
    130        -18.208878   1.000000
    131        -18.203494   1.000000
    132        -18.199602   1.000000
    133        -18.197027   1.000000
    134        -18.195833   1.000000
    135        -18.195009   1.000000
    136        -18.193494   1.000000
    137        -18.190357   1.000000
    138        -18.187523   1.000000
    139        -18.180735   1.000000
    140        -18.175931   1.000000
    141        -18.173194   1.000000
    142        -18.172492   1.000000
    143        -18.168706   1.000000
    144        -18.167638   1.000000
    145        -18.165810   1.000000
    146        -18.161170   1.000000
    147        -18.156477   1.000000
    148        -18.144425   1.000000
    149        -18.126096   1.000000
    150        -18.120944   1.000000
    151        -18.118974   1.000000
    152        -18.115739   1.000000
    153        -18.113447   1.000000
    154        -18.113028   1.000000
    155        -18.112379   1.000000
    156        -18.110804   1.000000
    157        -18.109943   1.000000
    158        -18.109198   1.000000
    159        -18.092055   1.000000
    160        -18.086856   1.000000
    161        -18.079798   1.000000
    162        -18.064998   1.000000
    163        -18.061289   1.000000
    164        -18.055427   1.000000
    165        -18.052836   1.000000
    166        -18.051991   1.000000
    167        -18.049630   1.000000
    168        -18.048071   1.000000
    169        -18.046469   1.000000
    170        -18.044981   1.000000
    171        -18.043181   1.000000
    172        -18.041530   1.000000
    173        -18.039452   1.000000
    174        -18.036367   1.000000
    175        -18.034707   1.000000
    176        -18.031516   1.000000
    177        -18.029488   1.000000
    178        -18.027872   1.000000
    179        -18.007437   1.000000
    180        -17.988079   1.000000
    181        -17.986065   1.000000
    182        -17.981926   1.000000
    183        -17.980370   1.000000
    184        -17.973543   1.000000
    185        -17.968211   1.000000
    186        -17.965869   1.000000
    187        -17.959507   1.000000
    188        -17.953454   1.000000
    189        -17.944001   1.000000
    190        -17.941899   1.000000
    191        -17.941127   1.000000
    192        -17.934957   1.000000
    193        -17.933355   1.000000
    194        -17.928949   1.000000
    195        -17.925263   1.000000
    196        -17.918036   1.000000
    197        -17.913540   1.000000
    198        -17.911976   1.000000
    199        -17.910215   1.000000
    200        -17.903295   1.000000
    201        -17.899610   1.000000
    202        -17.897840   1.000000
    203        -17.893071   1.000000
    204        -17.891455   1.000000
    205        -17.890547   1.000000
    206        -17.888708   1.000000
    207        -17.887049   1.000000
    208        -17.885534   1.000000
    209        -17.876656   1.000000
    210        -17.869397   1.000000
    211        -17.863164   1.000000
    212        -17.857852   1.000000
    213        -17.855006   1.000000
    214        -17.852299   1.000000
    215        -17.836929   1.000000
    216        -17.835374   1.000000
    217        -17.833247   1.000000
    218        -17.828040   1.000000
    219        -17.825905   1.000000
    220        -17.821254   1.000000
    221        -17.816817   1.000000
    222        -17.814641   1.000000
    223        -17.806874   1.000000
    224        -17.796642   1.000000
    225        -17.786543   1.000000
    226        -17.775606   1.000000
    227        -17.773510   1.000000
    228        -17.771049   1.000000
    229        -17.768150   1.000000
    230        -17.766694   1.000000
    231        -17.763523   1.000000
    232        -17.762663   1.000000
    233        -17.758193   1.000000
    234        -17.756974   1.000000
    235        -17.752199   1.000000
    236        -17.751229   1.000000
    237        -17.747790   1.000000
    238        -17.744169   1.000000
    239        -17.742306   1.000000
    240        -17.738647   1.000000
    241        -17.737180   1.000000
    242        -17.734391   1.000000
    243        -17.731692   1.000000
    244        -17.730380   1.000000
    245        -17.729261   1.000000
    246        -17.727440   1.000000
    247        -17.725176   1.000000
    248        -17.723593   1.000000
    249        -17.722785   1.000000
    250        -17.722034   1.000000
    251        -17.720512   1.000000
    252        -17.719597   1.000000
    253        -17.719198   1.000000
    254        -17.716554   1.000000
    255        -17.715271   1.000000
    256        -17.713985   1.000000
    257        -17.712102   1.000000
    258        -17.711144   1.000000
    259        -17.709916   1.000000
    260        -17.708361   1.000000
    261        -17.704882   1.000000
    262        -17.704139   1.000000
    263        -17.702378   1.000000
    264        -17.698508   1.000000
    265        -17.696504   1.000000
    266        -17.689516   1.000000
    267        -17.684693   1.000000
    268        -17.683754   1.000000
    269        -17.682777   1.000000
    270        -17.679965   1.000000
    271        -17.679100   1.000000
    272        -17.677218   1.000000
    273        -17.675775   1.000000
    274        -17.672236   1.000000
    275        -17.669855   1.000000
    276        -17.668594   1.000000
    277        -17.668023   1.000000
    278        -17.666597   1.000000
    279        -17.664481   1.000000
    280        -17.663601   1.000000
    281        -17.653718   1.000000
    282        -17.652225   1.000000
    283        -17.650182   1.000000
    284        -17.646554   1.000000
    285        -17.641614   1.000000
    286        -17.640796   1.000000
    287        -17.637291   1.000000
    288        -17.634982   1.000000
    289        -17.631549   1.000000
    290        -17.628645   1.000000
    291        -17.626584   1.000000
    292        -17.625278   1.000000
    293        -17.624574   1.000000
    294        -17.623509   1.000000
    295        -17.622700   1.000000
    296        -17.621914   1.000000
    297        -17.620646   1.000000
    298        -17.620002   1.000000
    299        -17.618744   1.000000
    300        -17.617256   1.000000
    301        -17.615092   1.000000
    302        -17.613908   1.000000
    303        -17.612862   1.000000
    304        -17.611714   1.000000
    305        -17.611386   1.000000
    306        -17.610938   1.000000
    307        -17.610465   1.000000
    308        -17.607633   1.000000
    309        -17.605702   1.000000
    310        -17.602346   1.000000
    311        -17.601475   1.000000
    312        -17.599558   1.000000
    313        -17.595573   1.000000
    314        -17.594772   1.000000
    315        -17.593534   1.000000
    316        -17.592984   1.000000
    317        -17.591290   1.000000
    318        -17.590638   1.000000
    319        -17.589844   1.000000
    320        -17.588557   1.000000
    321        -17.587254   1.000000
    322        -17.585942   1.000000
    323        -17.585179   1.000000
    324        -17.584569   1.000000
    325        -17.583545   1.000000
    326        -17.582947   1.000000
    327        -17.581844   1.000000
    328        -17.581221   1.000000
    329        -17.580816   1.000000
    330        -17.580504   1.000000
    331        -17.579841   1.000000
    332        -17.579179   1.000000
    333        -17.578596   1.000000
    334        -17.577324   1.000000
    335        -17.575954   1.000000
    336        -17.574766   1.000000
    337        -17.573630   1.000000
    338        -17.571949   1.000000
    339        -17.570971   1.000000
    340        -17.568729   1.000000
    341        -17.566606   1.000000
    342        -17.565463   1.000000
    343        -17.563883   1.000000
    344        -17.561876   1.000000
    345        -17.561109   1.000000
    346        -17.554334   1.000000
    347        -17.554260   1.000000
    348        -17.552735   1.000000
    349        -17.551349   1.000000
    350        -17.544128   1.000000
    351        -17.542533   1.000000
    352        -17.541702   1.000000
    353        -17.539960   1.000000
    354        -17.538016   1.000000
    355        -17.536879   1.000000
    356        -17.535274   1.000000
    357        -17.533712   1.000000
    358        -17.533166   1.000000
    359        -17.529851   1.000000
    360        -17.527608   1.000000
    361        -17.526117   1.000000
    362        -17.521874   1.000000
    363        -17.520714   1.000000
    364        -17.519487   1.000000
    365        -17.518541   1.000000
    366        -17.516711   1.000000
    367        -17.515929   1.000000
    368        -17.515570   1.000000
    369        -17.513812   1.000000
    370        -17.510459   1.000000
    371        -17.509913   1.000000
    372        -17.492900   1.000000
    373        -17.488782   1.000000
    374        -17.486372   1.000000
    375        -17.473107   1.000000
    376        -17.469905   1.000000
    377        -17.467745   1.000000
    378        -17.465862   1.000000
    379        -17.462442   1.000000
    380        -17.454879   1.000000
    381        -17.453002   1.000000
    382        -17.447890   1.000000
    383        -17.447704   1.000000
    384        -17.435265   1.000000
    385          2.452012   1.000000
    386          3.758491   1.000000
    387          4.026130   1.000000
    388          4.116003   1.000000
    389          4.197919   1.000000
    390          4.380213   1.000000
    391          4.479059   1.000000
    392          5.006779   1.000000
    393          5.150930   1.000000
    394          5.182340   1.000000
    395          5.312803   1.000000
    396          5.319497   1.000000
    397          5.332836   1.000000
    398          5.398711   1.000000
    399          5.560857   1.000000
    400          5.742540   1.000000
    401          5.789994   1.000000
    402          5.797358   1.000000
    403          5.818184   1.000000
    404          5.829453   1.000000
    405          5.857945   1.000000
    406          5.862723   1.000000
    407          5.908333   1.000000
    408          6.001846   1.000000
    409          6.005422   1.000000
    410          6.008554   1.000000
    411          6.035232   1.000000
    412          6.106753   1.000000
    413          6.107675   1.000000
    414          6.114331   1.000000
    415          6.116838   1.000000
    416          6.126581   1.000000
    417          6.134551   1.000000
    418          6.155605   1.000000
    419          6.160159   1.000000
    420          6.185249   1.000000
    421          6.208673   1.000000
    422          6.212899   1.000000
    423          6.229013   1.000000
    424          6.266035   1.000000
    425          6.288207   1.000000
    426          6.310428   1.000000
    427          6.313082   1.000000
    428          6.321955   1.000000
    429          6.335802   1.000000
    430          6.358544   1.000000
    431          6.396373   1.000000
    432          6.405125   1.000000
    433          6.440291   1.000000
    434          6.453537   1.000000
    435          6.469852   1.000000
    436          6.499537   1.000000
    437          6.517002   1.000000
    438          6.518266   1.000000
    439          6.528198   1.000000
    440          6.534049   1.000000
    441          6.542253   1.000000
    442          6.547070   1.000000
    443          6.560718   1.000000
    444          6.585094   1.000000
    445          6.593557   1.000000
    446          6.621295   1.000000
    447          6.642221   1.000000
    448          6.669069   1.000000
    449          6.675551   1.000000
    450          6.686636   1.000000
    451          6.696674   1.000000
    452          6.701237   1.000000
    453          6.746081   1.000000
    454          6.788247   1.000000
    455          6.810670   1.000000
    456          6.816026   1.000000
    457          6.843538   1.000000
    458          6.901808   1.000000
    459          6.906621   1.000000
    460          6.910590   1.000000
    461          6.923672   1.000000
    462          6.955320   1.000000
    463          7.003374   1.000000
    464          7.003925   1.000000
    465          7.016675   1.000000
    466          7.044946   1.000000
    467          7.058982   1.000000
    468          7.122257   1.000000
    469          7.135648   1.000000
    470          7.198115   1.000000
    471          7.201090   1.000000
    472          7.205445   1.000000
    473          7.208030   1.000000
    474          7.218424   1.000000
    475          7.225607   1.000000
    476          7.239897   1.000000
    477          7.253950   1.000000
    478          7.260853   1.000000
    479          7.271042   1.000000
    480          7.280245   1.000000
    481          7.294569   1.000000
    482          7.306215   1.000000
    483          7.308656   1.000000
    484          7.331009   1.000000
    485          7.339611   1.000000
    486          7.354696   1.000000
    487          7.364711   1.000000
    488          7.389536   1.000000
    489          7.406083   1.000000
    490          7.417215   1.000000
    491          7.428653   1.000000
    492          7.444236   1.000000
    493          7.460322   1.000000
    494          7.482844   1.000000
    495          7.489166   1.000000
    496          7.545369   1.000000
    497          7.587631   1.000000
    498          7.591395   1.000000
    499          7.618611   1.000000
    500          7.639879   1.000000
    501          7.659695   1.000000
    502          7.694142   1.000000
    503          7.724982   1.000000
    504          7.759717   1.000000
    505          7.783705   1.000000
    506          7.789180   1.000000
    507          7.792307   1.000000
    508          7.795310   1.000000
    509          7.806684   1.000000
    510          7.821699   1.000000
    511          7.836331   1.000000
    512          7.853499   1.000000
    513          7.865329   1.000000
    514          7.867423   1.000000
    515          7.886575   1.000000
    516          7.919128   1.000000
    517          7.928025   1.000000
    518          7.934006   1.000000
    519          7.944210   1.000000
    520          7.951973   1.000000
    521          7.966397   1.000000
    522          7.979748   1.000000
    523          8.006588   1.000000
    524          8.029673   1.000000
    525          8.037752   1.000000
    526          8.056873   1.000000
    527          8.079814   1.000000
    528          8.101281   1.000000
    529          8.109213   1.000000
    530          8.123712   1.000000
    531          8.129327   1.000000
    532          8.133474   1.000000
    533          8.138160   1.000000
    534          8.142882   1.000000
    535          8.164269   1.000000
    536          8.188981   1.000000
    537          8.201833   1.000001
    538          8.209243   1.000001
    539          8.214226   1.000001
    540          8.232817   1.000002
    541          8.237022   1.000002
    542          8.243373   1.000003
    543          8.244245   1.000003
    544          8.253038   1.000004
    545          8.260996   1.000005
    546          8.271372   1.000007
    547          8.289083   1.000012
    548          8.304382   1.000020
    549          8.306132   1.000021
    550          8.312138   1.000025
    551          8.319812   1.000031
    552          8.330771   1.000043
    553          8.337084   1.000052
    554          8.344581   1.000065
    555          8.346648   1.000069
    556          8.350021   1.000076
    557          8.352117   1.000080
    558          8.354191   1.000085
    559          8.359095   1.000098
    560          8.365378   1.000116
    561          8.389983   1.000225
    562          8.395170   1.000258
    563          8.584651   1.012097
    564          8.622159   1.019587
    565          8.632586   1.021947
    566          8.698654   1.034787
    567          8.710122   1.035437
    568          8.787468   1.001728
    569          8.790307   0.998620
    570          8.816054   0.962272
    571          8.843719   0.905432
    572          8.851747   0.885333
    573          8.863782   0.852193
    574          8.870157   0.833208
    575          8.872830   0.824964
    576          8.879183   0.804707
    577          8.927550   0.624927
    578          8.937775   0.582773
    579          9.016153   0.263042
    580          9.023834   0.235494
    581          9.029607   0.215564
    582          9.036333   0.193235
    583          9.042568   0.173437
    584          9.081266   0.071590
    585          9.095104   0.044273
    586          9.117236   0.010216
    587          9.161661  -0.027180
    588          9.167862  -0.029723
    589          9.188400  -0.034630
    590          9.206288  -0.035401
    591          9.216015  -0.034807
    592          9.234188  -0.032350
    593          9.241029  -0.031098
    594          9.249260  -0.029431
    595          9.262700  -0.026465
    596          9.279726  -0.022538
    597          9.284196  -0.021512
    598          9.294798  -0.019127
    599          9.297290  -0.018580
    600          9.299738  -0.018050
    601          9.308829  -0.016140
    602          9.311029  -0.015694
    603          9.316223  -0.014667
    604          9.317851  -0.014353
    605          9.321399  -0.013682
    606          9.327708  -0.012538
    607          9.332409  -0.011725
    608          9.340396  -0.010426
    609          9.344186  -0.009845
    610          9.353073  -0.008574
    611          9.374151  -0.006047
    612          9.414712  -0.002850
    613          9.421247  -0.002501
    614          9.461650  -0.001053
    615          9.482564  -0.000649
    616          9.488252  -0.000566
    617          9.500915  -0.000415
    618          9.505530  -0.000370
    619          9.507249  -0.000354
    620          9.517857  -0.000271
    621          9.527662  -0.000210
    622          9.532378  -0.000185
    623          9.550110  -0.000114
    624          9.558649  -0.000090
    625          9.569017  -0.000067
    626          9.577837  -0.000052
    627          9.582852  -0.000045
    628          9.586143  -0.000041
    629          9.600712  -0.000026
    630          9.607115  -0.000022
    631          9.615317  -0.000017
    632          9.619188  -0.000015
    633          9.623935  -0.000013
    634          9.635985  -0.000009
    635          9.663309  -0.000004
    636          9.689547  -0.000001
    637          9.698601  -0.000001
    638          9.712987  -0.000001
    639          9.724553  -0.000000
    640          9.739865  -0.000000
    641          9.750121  -0.000000
    642          9.759598  -0.000000
    643          9.764919  -0.000000
    644          9.785849  -0.000000
    645          9.797867  -0.000000
    646          9.806800  -0.000000
    647          9.812969  -0.000000
    648          9.831082  -0.000000
    649          9.841185  -0.000000
    650          9.855542  -0.000000
    651          9.877222  -0.000000
    652          9.880849  -0.000000
    653          9.883143  -0.000000
    654          9.895986  -0.000000
    655          9.899871  -0.000000
    656          9.907422  -0.000000
    657          9.917452  -0.000000
    658          9.924718  -0.000000
    659          9.944085  -0.000000
    660          9.952266  -0.000000
    661          9.961523  -0.000000
    662          9.994462  -0.000000
    663         10.005518  -0.000000
    664         10.021864  -0.000000
    665         10.031467  -0.000000
    666         10.042611  -0.000000
    667         10.050286  -0.000000
    668         10.064087  -0.000000
    669         10.067558  -0.000000
    670         10.070145  -0.000000
    671         10.078158  -0.000000
    672         10.082285  -0.000000
    673         10.087367  -0.000000
    674         10.098197  -0.000000
    675         10.101510  -0.000000
    676         10.113201  -0.000000
    677         10.118617  -0.000000
    678         10.123257  -0.000000
    679         10.129856  -0.000000
    680         10.135177  -0.000000
    681         10.137242  -0.000000
    682         10.147591  -0.000000
    683         10.159802  -0.000000
    684         10.167619  -0.000000
    685         10.169593  -0.000000
    686         10.175632  -0.000000
    687         10.177533  -0.000000
    688         10.187827  -0.000000
    689         10.190184  -0.000000
    690         10.195695  -0.000000
    691         10.207248  -0.000000
 
  0.5000000E+00  0.2500000E+00  0.3333333E+00  0.4166667E-01
      1        -39.907183   1.000000
      2        -39.884129   1.000000
      3        -39.876723   1.000000
      4        -39.870021   1.000000
      5        -39.867310   1.000000
      6        -39.859074   1.000000
      7        -39.854879   1.000000
      8        -39.843505   1.000000
      9        -39.839090   1.000000
     10        -39.833404   1.000000
     11        -39.827383   1.000000
     12        -39.825380   1.000000
     13        -39.823241   1.000000
     14        -39.820272   1.000000
     15        -39.816250   1.000000
     16        -39.814613   1.000000
     17        -39.806272   1.000000
     18        -39.804188   1.000000
     19        -39.801571   1.000000
     20        -39.799548   1.000000
     21        -39.797588   1.000000
     22        -39.794690   1.000000
     23        -39.794149   1.000000
     24        -39.793186   1.000000
     25        -39.789817   1.000000
     26        -39.787843   1.000000
     27        -39.785205   1.000000
     28        -39.782902   1.000000
     29        -39.781988   1.000000
     30        -39.781107   1.000000
     31        -39.778687   1.000000
     32        -39.777257   1.000000
     33        -39.775571   1.000000
     34        -39.774809   1.000000
     35        -39.773155   1.000000
     36        -39.770973   1.000000
     37        -39.769442   1.000000
     38        -39.768524   1.000000
     39        -39.767184   1.000000
     40        -39.763476   1.000000
     41        -39.762476   1.000000
     42        -39.761493   1.000000
     43        -39.760198   1.000000
     44        -39.758854   1.000000
     45        -39.757449   1.000000
     46        -39.756367   1.000000
     47        -39.755987   1.000000
     48        -39.755099   1.000000
     49        -39.753987   1.000000
     50        -39.753551   1.000000
     51        -39.752953   1.000000
     52        -39.752008   1.000000
     53        -39.751269   1.000000
     54        -39.750556   1.000000
     55        -39.749346   1.000000
     56        -39.748450   1.000000
     57        -39.747391   1.000000
     58        -39.745892   1.000000
     59        -39.744971   1.000000
     60        -39.744658   1.000000
     61        -39.743223   1.000000
     62        -39.741958   1.000000
     63        -39.740926   1.000000
     64        -39.739697   1.000000
     65        -39.739048   1.000000
     66        -39.738463   1.000000
     67        -39.737791   1.000000
     68        -39.737200   1.000000
     69        -39.735924   1.000000
     70        -39.734978   1.000000
     71        -39.734622   1.000000
     72        -39.733826   1.000000
     73        -39.732547   1.000000
     74        -39.731481   1.000000
     75        -39.730576   1.000000
     76        -39.729586   1.000000
     77        -39.728837   1.000000
     78        -39.728039   1.000000
     79        -39.727481   1.000000
     80        -39.726571   1.000000
     81        -39.725111   1.000000
     82        -39.724679   1.000000
     83        -39.724483   1.000000
     84        -39.723516   1.000000
     85        -39.722684   1.000000
     86        -39.722426   1.000000
     87        -39.721975   1.000000
     88        -39.721403   1.000000
     89        -39.719286   1.000000
     90        -39.718602   1.000000
     91        -39.715568   1.000000
     92        -39.715288   1.000000
     93        -39.709330   1.000000
     94        -39.709053   1.000000
     95        -39.706779   1.000000
     96        -39.704765   1.000000
     97        -18.359264   1.000000
     98        -18.326542   1.000000
     99        -18.313790   1.000000
    100        -18.312388   1.000000
    101        -18.293088   1.000000
    102        -18.283859   1.000000
    103        -18.278426   1.000000
    104        -18.276096   1.000000
    105        -18.271011   1.000000
    106        -18.266669   1.000000
    107        -18.264111   1.000000
    108        -18.259843   1.000000
    109        -18.257270   1.000000
    110        -18.256285   1.000000
    111        -18.252334   1.000000
    112        -18.250175   1.000000
    113        -18.243885   1.000000
    114        -18.239678   1.000000
    115        -18.236451   1.000000
    116        -18.235270   1.000000
    117        -18.233192   1.000000
    118        -18.231234   1.000000
    119        -18.230295   1.000000
    120        -18.228572   1.000000
    121        -18.223997   1.000000
    122        -18.220571   1.000000
    123        -18.218942   1.000000
    124        -18.218184   1.000000
    125        -18.216440   1.000000
    126        -18.214855   1.000000
    127        -18.213515   1.000000
    128        -18.212723   1.000000
    129        -18.210658   1.000000
    130        -18.208826   1.000000
    131        -18.203564   1.000000
    132        -18.199676   1.000000
    133        -18.197001   1.000000
    134        -18.195851   1.000000
    135        -18.195034   1.000000
    136        -18.193515   1.000000
    137        -18.190335   1.000000
    138        -18.187427   1.000000
    139        -18.180732   1.000000
    140        -18.175946   1.000000
    141        -18.173245   1.000000
    142        -18.172498   1.000000
    143        -18.168711   1.000000
    144        -18.167563   1.000000
    145        -18.165744   1.000000
    146        -18.161224   1.000000
    147        -18.156464   1.000000
    148        -18.144461   1.000000
    149        -18.126138   1.000000
    150        -18.120863   1.000000
    151        -18.118938   1.000000
    152        -18.115666   1.000000
    153        -18.113554   1.000000
    154        -18.113018   1.000000
    155        -18.112421   1.000000
    156        -18.110766   1.000000
    157        -18.109985   1.000000
    158        -18.109166   1.000000
    159        -18.092077   1.000000
    160        -18.086838   1.000000
    161        -18.079834   1.000000
    162        -18.065017   1.000000
    163        -18.061243   1.000000
    164        -18.055325   1.000000
    165        -18.052846   1.000000
    166        -18.052121   1.000000
    167        -18.049624   1.000000
    168        -18.048057   1.000000
    169        -18.046495   1.000000
    170        -18.045020   1.000000
    171        -18.043226   1.000000
    172        -18.041430   1.000000
    173        -18.039405   1.000000
    174        -18.036419   1.000000
    175        -18.034723   1.000000
    176        -18.031544   1.000000
    177        -18.029517   1.000000
    178        -18.027853   1.000000
    179        -18.007453   1.000000
    180        -17.988058   1.000000
    181        -17.986069   1.000000
    182        -17.981947   1.000000
    183        -17.980329   1.000000
    184        -17.973523   1.000000
    185        -17.968228   1.000000
    186        -17.965786   1.000000
    187        -17.959580   1.000000
    188        -17.953495   1.000000
    189        -17.944000   1.000000
    190        -17.941899   1.000000
    191        -17.941082   1.000000
    192        -17.934953   1.000000
    193        -17.933392   1.000000
    194        -17.928872   1.000000
    195        -17.925332   1.000000
    196        -17.918084   1.000000
    197        -17.913605   1.000000
    198        -17.911931   1.000000
    199        -17.910219   1.000000
    200        -17.903251   1.000000
    201        -17.899551   1.000000
    202        -17.897786   1.000000
    203        -17.893121   1.000000
    204        -17.891429   1.000000
    205        -17.890593   1.000000
    206        -17.888733   1.000000
    207        -17.887129   1.000000
    208        -17.885437   1.000000
    209        -17.876637   1.000000
    210        -17.869395   1.000000
    211        -17.863160   1.000000
    212        -17.857863   1.000000
    213        -17.855093   1.000000
    214        -17.852175   1.000000
    215        -17.836975   1.000000
    216        -17.835398   1.000000
    217        -17.833255   1.000000
    218        -17.828027   1.000000
    219        -17.825957   1.000000
    220        -17.821256   1.000000
    221        -17.816854   1.000000
    222        -17.814611   1.000000
    223        -17.806756   1.000000
    224        -17.796653   1.000000
    225        -17.786581   1.000000
    226        -17.775671   1.000000
    227        -17.773479   1.000000
    228        -17.770994   1.000000
    229        -17.768153   1.000000
    230        -17.766683   1.000000
    231        -17.763487   1.000000
    232        -17.762559   1.000000
    233        -17.758113   1.000000
    234        -17.756979   1.000000
    235        -17.752249   1.000000
    236        -17.751215   1.000000
    237        -17.747819   1.000000
    238        -17.744209   1.000000
    239        -17.742266   1.000000
    240        -17.738699   1.000000
    241        -17.737217   1.000000
    242        -17.734368   1.000000
    243        -17.731664   1.000000
    244        -17.730372   1.000000
    245        -17.729361   1.000000
    246        -17.727411   1.000000
    247        -17.725136   1.000000
    248        -17.723536   1.000000
    249        -17.722729   1.000000
    250        -17.722048   1.000000
    251        -17.720480   1.000000
    252        -17.719697   1.000000
    253        -17.719195   1.000000
    254        -17.716692   1.000000
    255        -17.715317   1.000000
    256        -17.714016   1.000000
    257        -17.712082   1.000000
    258        -17.711217   1.000000
    259        -17.709971   1.000000
    260        -17.708323   1.000000
    261        -17.704794   1.000000
    262        -17.704151   1.000000
    263        -17.702313   1.000000
    264        -17.698486   1.000000
    265        -17.696518   1.000000
    266        -17.689636   1.000000
    267        -17.684662   1.000000
    268        -17.683792   1.000000
    269        -17.682835   1.000000
    270        -17.679919   1.000000
    271        -17.679072   1.000000
    272        -17.677206   1.000000
    273        -17.675885   1.000000
    274        -17.672277   1.000000
    275        -17.669774   1.000000
    276        -17.668663   1.000000
    277        -17.667995   1.000000
    278        -17.666615   1.000000
    279        -17.664450   1.000000
    280        -17.663600   1.000000
    281        -17.653713   1.000000
    282        -17.652124   1.000000
    283        -17.650255   1.000000
    284        -17.646501   1.000000
    285        -17.641589   1.000000
    286        -17.640774   1.000000
    287        -17.637239   1.000000
    288        -17.634976   1.000000
    289        -17.631655   1.000000
    290        -17.628524   1.000000
    291        -17.626542   1.000000
    292        -17.625273   1.000000
    293        -17.624530   1.000000
    294        -17.623564   1.000000
    295        -17.622734   1.000000
    296        -17.621935   1.000000
    297        -17.620688   1.000000
    298        -17.620072   1.000000
    299        -17.618683   1.000000
    300        -17.617314   1.000000
    301        -17.615107   1.000000
    302        -17.613869   1.000000
    303        -17.612875   1.000000
    304        -17.611694   1.000000
    305        -17.611352   1.000000
    306        -17.610884   1.000000
    307        -17.610473   1.000000
    308        -17.607711   1.000000
    309        -17.605679   1.000000
    310        -17.602310   1.000000
    311        -17.601579   1.000000
    312        -17.599452   1.000000
    313        -17.595508   1.000000
    314        -17.594755   1.000000
    315        -17.593543   1.000000
    316        -17.592924   1.000000
    317        -17.591282   1.000000
    318        -17.590595   1.000000
    319        -17.589910   1.000000
    320        -17.588568   1.000000
    321        -17.587183   1.000000
    322        -17.585914   1.000000
    323        -17.585263   1.000000
    324        -17.584531   1.000000
    325        -17.583624   1.000000
    326        -17.582930   1.000000
    327        -17.581856   1.000000
    328        -17.581065   1.000000
    329        -17.580924   1.000000
    330        -17.580519   1.000000
    331        -17.579823   1.000000
    332        -17.579224   1.000000
    333        -17.578643   1.000000
    334        -17.577340   1.000000
    335        -17.575847   1.000000
    336        -17.574746   1.000000
    337        -17.573614   1.000000
    338        -17.572059   1.000000
    339        -17.570962   1.000000
    340        -17.568776   1.000000
    341        -17.566638   1.000000
    342        -17.565485   1.000000
    343        -17.563843   1.000000
    344        -17.561840   1.000000
    345        -17.561065   1.000000
    346        -17.554299   1.000000
    347        -17.554220   1.000000
    348        -17.552752   1.000000
    349        -17.551333   1.000000
    350        -17.544187   1.000000
    351        -17.542552   1.000000
    352        -17.541666   1.000000
    353        -17.539907   1.000000
    354        -17.537998   1.000000
    355        -17.536929   1.000000
    356        -17.535343   1.000000
    357        -17.533775   1.000000
    358        -17.533107   1.000000
    359        -17.529772   1.000000
    360        -17.527591   1.000000
    361        -17.526193   1.000000
    362        -17.521858   1.000000
    363        -17.520677   1.000000
    364        -17.519499   1.000000
    365        -17.518578   1.000000
    366        -17.516728   1.000000
    367        -17.516016   1.000000
    368        -17.515522   1.000000
    369        -17.513795   1.000000
    370        -17.510531   1.000000
    371        -17.509844   1.000000
    372        -17.492935   1.000000
    373        -17.488858   1.000000
    374        -17.486335   1.000000
    375        -17.473171   1.000000
    376        -17.469908   1.000000
    377        -17.467609   1.000000
    378        -17.465822   1.000000
    379        -17.462519   1.000000
    380        -17.454933   1.000000
    381        -17.452882   1.000000
    382        -17.447942   1.000000
    383        -17.447708   1.000000
    384        -17.435259   1.000000
    385          2.452010   1.000000
    386          3.758506   1.000000
    387          4.026164   1.000000
    388          4.115915   1.000000
    389          4.197978   1.000000
    390          4.380131   1.000000
    391          4.479112   1.000000
    392          5.006783   1.000000
    393          5.150933   1.000000
    394          5.182376   1.000000
    395          5.312727   1.000000
    396          5.319508   1.000000
    397          5.332840   1.000000
    398          5.398740   1.000000
    399          5.560863   1.000000
    400          5.742662   1.000000
    401          5.789921   1.000000
    402          5.797355   1.000000
    403          5.818179   1.000000
    404          5.829582   1.000000
    405          5.857938   1.000000
    406          5.862654   1.000000
    407          5.908236   1.000000
    408          6.001910   1.000000
    409          6.005310   1.000000
    410          6.008563   1.000000
    411          6.035118   1.000000
    412          6.106939   1.000000
    413          6.107723   1.000000
    414          6.114242   1.000000
    415          6.116855   1.000000
    416          6.126506   1.000000
    417          6.134512   1.000000
    418          6.155581   1.000000
    419          6.160210   1.000000
    420          6.185074   1.000000
    421          6.208664   1.000000
    422          6.213056   1.000000
    423          6.229053   1.000000
    424          6.265782   1.000000
    425          6.288510   1.000000
    426          6.310441   1.000000
    427          6.312965   1.000000
    428          6.322110   1.000000
    429          6.335881   1.000000
    430          6.358494   1.000000
    431          6.396385   1.000000
    432          6.405069   1.000000
    433          6.440478   1.000000
    434          6.453495   1.000000
    435          6.470039   1.000000
    436          6.499354   1.000000
    437          6.516937   1.000000
    438          6.518275   1.000000
    439          6.528134   1.000000
    440          6.534081   1.000000
    441          6.542169   1.000000
    442          6.547178   1.000000
    443          6.560568   1.000000
    444          6.585093   1.000000
    445          6.593611   1.000000
    446          6.621120   1.000000
    447          6.642268   1.000000
    448          6.669055   1.000000
    449          6.675671   1.000000
    450          6.686662   1.000000
    451          6.696645   1.000000
    452          6.701228   1.000000
    453          6.745996   1.000000
    454          6.788328   1.000000
    455          6.810643   1.000000
    456          6.816006   1.000000
    457          6.843680   1.000000
    458          6.901671   1.000000
    459          6.906696   1.000000
    460          6.910498   1.000000
    461          6.923580   1.000000
    462          6.955182   1.000000
    463          7.003467   1.000000
    464          7.003917   1.000000
    465          7.016625   1.000000
    466          7.045095   1.000000
    467          7.058838   1.000000
    468          7.122261   1.000000
    469          7.135700   1.000000
    470          7.198160   1.000000
    471          7.200977   1.000000
    472          7.205291   1.000000
    473          7.208127   1.000000
    474          7.218512   1.000000
    475          7.225778   1.000000
    476          7.239814   1.000000
    477          7.254292   1.000000
    478          7.260988   1.000000
    479          7.271128   1.000000
    480          7.280362   1.000000
    481          7.294358   1.000000
    482          7.306161   1.000000
    483          7.308595   1.000000
    484          7.331130   1.000000
    485          7.339523   1.000000
    486          7.354708   1.000000
    487          7.364825   1.000000
    488          7.389625   1.000000
    489          7.405824   1.000000
    490          7.417026   1.000000
    491          7.428625   1.000000
    492          7.444449   1.000000
    493          7.460363   1.000000
    494          7.482812   1.000000
    495          7.489077   1.000000
    496          7.545382   1.000000
    497          7.587751   1.000000
    498          7.591319   1.000000
    499          7.618338   1.000000
    500          7.639775   1.000000
    501          7.659682   1.000000
    502          7.694279   1.000000
    503          7.724876   1.000000
    504          7.759922   1.000000
    505          7.783611   1.000000
    506          7.789057   1.000000
    507          7.792498   1.000000
    508          7.795291   1.000000
    509          7.806600   1.000000
    510          7.821880   1.000000
    511          7.836260   1.000000
    512          7.853557   1.000000
    513          7.865236   1.000000
    514          7.867330   1.000000
    515          7.886822   1.000000
    516          7.918969   1.000000
    517          7.927942   1.000000
    518          7.933926   1.000000
    519          7.944337   1.000000
    520          7.951975   1.000000
    521          7.966837   1.000000
    522          7.979775   1.000000
    523          8.006223   1.000000
    524          8.029506   1.000000
    525          8.037906   1.000000
    526          8.057042   1.000000
    527          8.079984   1.000000
    528          8.101438   1.000000
    529          8.109270   1.000000
    530          8.123499   1.000000
    531          8.129281   1.000000
    532          8.133525   1.000000
    533          8.138041   1.000000
    534          8.142810   1.000000
    535          8.164339   1.000000
    536          8.189040   1.000000
    537          8.201793   1.000001
    538          8.209482   1.000001
    539          8.214042   1.000001
    540          8.232673   1.000002
    541          8.237083   1.000002
    542          8.243640   1.000003
    543          8.244351   1.000003
    544          8.253037   1.000004
    545          8.260976   1.000005
    546          8.271265   1.000007
    547          8.289122   1.000012
    548          8.304259   1.000020
    549          8.306087   1.000021
    550          8.312009   1.000025
    551          8.319959   1.000032
    552          8.330811   1.000044
    553          8.336949   1.000052
    554          8.344573   1.000065
    555          8.346450   1.000068
    556          8.350207   1.000076
    557          8.351995   1.000080
    558          8.354258   1.000085
    559          8.359280   1.000098
    560          8.365515   1.000117
    561          8.389966   1.000225
    562          8.394977   1.000257
    563          8.584713   1.012108
    564          8.622364   1.019632
    565          8.632335   1.021889
    566          8.698795   1.034800
    567          8.710139   1.035437
    568          8.787218   1.001993
    569          8.790427   0.998484
    570          8.815940   0.962467
    571          8.843663   0.905568
    572          8.851671   0.885532
    573          8.864066   0.851367
    574          8.870268   0.832871
    575          8.872592   0.825704
    576          8.879410   0.803965
    577          8.927269   0.626072
    578          8.937818   0.582594
    579          9.016017   0.263541
    580          9.023669   0.236073
    581          9.029418   0.216205
    582          9.036254   0.193490
    583          9.042821   0.172650
    584          9.080963   0.072241
    585          9.095380   0.043776
    586          9.117093   0.010400
    587          9.161334  -0.027031
    588          9.167958  -0.029759
    589          9.188264  -0.034613
    590          9.206434  -0.035397
    591          9.216124  -0.034797
    592          9.234358  -0.032321
    593          9.241125  -0.031079
    594          9.249099  -0.029465
    595          9.262728  -0.026459
    596          9.279429  -0.022607
    597          9.284054  -0.021544
    598          9.294781  -0.019131
    599          9.297293  -0.018580
    600          9.300148  -0.017962
    601          9.309119  -0.016081
    602          9.310826  -0.015735
    603          9.316873  -0.014541
    604          9.317605  -0.014400
    605          9.321378  -0.013686
    606          9.327571  -0.012562
    607          9.332495  -0.011711
    608          9.339942  -0.010497
    609          9.344039  -0.009867
    610          9.352847  -0.008605
    611          9.374449  -0.006016
    612          9.414581  -0.002858
    613          9.421352  -0.002496
    614          9.461452  -0.001058
    615          9.482848  -0.000644
    616          9.488375  -0.000564
    617          9.500803  -0.000416
    618          9.505641  -0.000369
    619          9.507396  -0.000353
    620          9.517455  -0.000273
    621          9.527521  -0.000210
    622          9.532461  -0.000185
    623          9.550629  -0.000113
    624          9.558424  -0.000091
    625          9.569088  -0.000067
    626          9.578106  -0.000052
    627          9.582993  -0.000045
    628          9.586138  -0.000041
    629          9.600519  -0.000027
    630          9.607299  -0.000022
    631          9.615111  -0.000017
    632          9.619499  -0.000015
    633          9.623968  -0.000013
    634          9.635826  -0.000009
    635          9.663387  -0.000004
    636          9.689405  -0.000001
    637          9.698686  -0.000001
    638          9.712819  -0.000001
    639          9.724481  -0.000000
    640          9.739860  -0.000000
    641          9.750156  -0.000000
    642          9.759601  -0.000000
    643          9.764494  -0.000000
    644          9.785737  -0.000000
    645          9.797256  -0.000000
    646          9.806873  -0.000000
    647          9.813170  -0.000000
    648          9.831271  -0.000000
    649          9.841238  -0.000000
    650          9.855598  -0.000000
    651          9.876965  -0.000000
    652          9.880887  -0.000000
    653          9.882963  -0.000000
    654          9.896164  -0.000000
    655          9.899816  -0.000000
    656          9.907481  -0.000000
    657          9.917551  -0.000000
    658          9.924691  -0.000000
    659          9.943986  -0.000000
    660          9.952439  -0.000000
    661          9.961642  -0.000000
    662          9.994268  -0.000000
    663         10.005586  -0.000000
    664         10.021888  -0.000000
    665         10.031549  -0.000000
    666         10.042998  -0.000000
    667         10.050170  -0.000000
    668         10.064086  -0.000000
    669         10.067600  -0.000000
    670         10.070129  -0.000000
    671         10.078027  -0.000000
    672         10.082226  -0.000000
    673         10.087390  -0.000000
    674         10.098308  -0.000000
    675         10.101734  -0.000000
    676         10.112949  -0.000000
    677         10.118859  -0.000000
    678         10.123298  -0.000000
    679         10.129959  -0.000000
    680         10.134881  -0.000000
    681         10.137218  -0.000000
    682         10.147406  -0.000000
    683         10.160284  -0.000000
    684         10.167693  -0.000000
    685         10.169851  -0.000000
    686         10.175406  -0.000000
    687         10.177591  -0.000000
    688         10.187555  -0.000000
    689         10.190496  -0.000000
    690         10.195700  -0.000000
    691         10.204786  -0.000000
 
 -0.2500000E+00 -0.2500000E+00  0.3333333E+00  0.4166667E-01
      1        -39.907183   1.000000
      2        -39.884129   1.000000
      3        -39.876723   1.000000
      4        -39.870021   1.000000
      5        -39.867310   1.000000
      6        -39.859074   1.000000
      7        -39.854879   1.000000
      8        -39.843505   1.000000
      9        -39.839090   1.000000
     10        -39.833404   1.000000
     11        -39.827383   1.000000
     12        -39.825380   1.000000
     13        -39.823241   1.000000
     14        -39.820272   1.000000
     15        -39.816250   1.000000
     16        -39.814613   1.000000
     17        -39.806272   1.000000
     18        -39.804188   1.000000
     19        -39.801571   1.000000
     20        -39.799548   1.000000
     21        -39.797588   1.000000
     22        -39.794690   1.000000
     23        -39.794149   1.000000
     24        -39.793186   1.000000
     25        -39.789817   1.000000
     26        -39.787843   1.000000
     27        -39.785205   1.000000
     28        -39.782902   1.000000
     29        -39.781988   1.000000
     30        -39.781107   1.000000
     31        -39.778687   1.000000
     32        -39.777257   1.000000
     33        -39.775571   1.000000
     34        -39.774809   1.000000
     35        -39.773155   1.000000
     36        -39.770973   1.000000
     37        -39.769442   1.000000
     38        -39.768524   1.000000
     39        -39.767184   1.000000
     40        -39.763476   1.000000
     41        -39.762476   1.000000
     42        -39.761493   1.000000
     43        -39.760198   1.000000
     44        -39.758854   1.000000
     45        -39.757449   1.000000
     46        -39.756367   1.000000
     47        -39.755987   1.000000
     48        -39.755099   1.000000
     49        -39.753987   1.000000
     50        -39.753551   1.000000
     51        -39.752953   1.000000
     52        -39.752008   1.000000
     53        -39.751269   1.000000
     54        -39.750556   1.000000
     55        -39.749346   1.000000
     56        -39.748450   1.000000
     57        -39.747391   1.000000
     58        -39.745892   1.000000
     59        -39.744971   1.000000
     60        -39.744658   1.000000
     61        -39.743223   1.000000
     62        -39.741958   1.000000
     63        -39.740926   1.000000
     64        -39.739697   1.000000
     65        -39.739048   1.000000
     66        -39.738463   1.000000
     67        -39.737791   1.000000
     68        -39.737200   1.000000
     69        -39.735924   1.000000
     70        -39.734978   1.000000
     71        -39.734622   1.000000
     72        -39.733826   1.000000
     73        -39.732547   1.000000
     74        -39.731481   1.000000
     75        -39.730576   1.000000
     76        -39.729586   1.000000
     77        -39.728837   1.000000
     78        -39.728039   1.000000
     79        -39.727481   1.000000
     80        -39.726571   1.000000
     81        -39.725111   1.000000
     82        -39.724679   1.000000
     83        -39.724483   1.000000
     84        -39.723516   1.000000
     85        -39.722684   1.000000
     86        -39.722426   1.000000
     87        -39.721975   1.000000
     88        -39.721403   1.000000
     89        -39.719286   1.000000
     90        -39.718602   1.000000
     91        -39.715568   1.000000
     92        -39.715288   1.000000
     93        -39.709330   1.000000
     94        -39.709053   1.000000
     95        -39.706779   1.000000
     96        -39.704765   1.000000
     97        -18.359264   1.000000
     98        -18.326542   1.000000
     99        -18.313790   1.000000
    100        -18.312388   1.000000
    101        -18.293088   1.000000
    102        -18.283859   1.000000
    103        -18.278426   1.000000
    104        -18.276096   1.000000
    105        -18.271011   1.000000
    106        -18.266669   1.000000
    107        -18.264111   1.000000
    108        -18.259843   1.000000
    109        -18.257270   1.000000
    110        -18.256285   1.000000
    111        -18.252334   1.000000
    112        -18.250175   1.000000
    113        -18.243885   1.000000
    114        -18.239678   1.000000
    115        -18.236451   1.000000
    116        -18.235270   1.000000
    117        -18.233192   1.000000
    118        -18.231234   1.000000
    119        -18.230295   1.000000
    120        -18.228572   1.000000
    121        -18.223997   1.000000
    122        -18.220571   1.000000
    123        -18.218942   1.000000
    124        -18.218184   1.000000
    125        -18.216440   1.000000
    126        -18.214855   1.000000
    127        -18.213515   1.000000
    128        -18.212723   1.000000
    129        -18.210658   1.000000
    130        -18.208826   1.000000
    131        -18.203564   1.000000
    132        -18.199676   1.000000
    133        -18.197001   1.000000
    134        -18.195851   1.000000
    135        -18.195034   1.000000
    136        -18.193515   1.000000
    137        -18.190335   1.000000
    138        -18.187427   1.000000
    139        -18.180732   1.000000
    140        -18.175946   1.000000
    141        -18.173245   1.000000
    142        -18.172498   1.000000
    143        -18.168711   1.000000
    144        -18.167563   1.000000
    145        -18.165744   1.000000
    146        -18.161224   1.000000
    147        -18.156464   1.000000
    148        -18.144461   1.000000
    149        -18.126138   1.000000
    150        -18.120863   1.000000
    151        -18.118938   1.000000
    152        -18.115666   1.000000
    153        -18.113554   1.000000
    154        -18.113018   1.000000
    155        -18.112421   1.000000
    156        -18.110766   1.000000
    157        -18.109985   1.000000
    158        -18.109166   1.000000
    159        -18.092077   1.000000
    160        -18.086838   1.000000
    161        -18.079834   1.000000
    162        -18.065017   1.000000
    163        -18.061243   1.000000
    164        -18.055325   1.000000
    165        -18.052846   1.000000
    166        -18.052121   1.000000
    167        -18.049624   1.000000
    168        -18.048057   1.000000
    169        -18.046495   1.000000
    170        -18.045020   1.000000
    171        -18.043226   1.000000
    172        -18.041430   1.000000
    173        -18.039405   1.000000
    174        -18.036419   1.000000
    175        -18.034723   1.000000
    176        -18.031544   1.000000
    177        -18.029517   1.000000
    178        -18.027853   1.000000
    179        -18.007453   1.000000
    180        -17.988058   1.000000
    181        -17.986069   1.000000
    182        -17.981947   1.000000
    183        -17.980329   1.000000
    184        -17.973523   1.000000
    185        -17.968228   1.000000
    186        -17.965786   1.000000
    187        -17.959580   1.000000
    188        -17.953495   1.000000
    189        -17.944000   1.000000
    190        -17.941899   1.000000
    191        -17.941082   1.000000
    192        -17.934953   1.000000
    193        -17.933392   1.000000
    194        -17.928872   1.000000
    195        -17.925332   1.000000
    196        -17.918084   1.000000
    197        -17.913605   1.000000
    198        -17.911931   1.000000
    199        -17.910219   1.000000
    200        -17.903251   1.000000
    201        -17.899551   1.000000
    202        -17.897786   1.000000
    203        -17.893121   1.000000
    204        -17.891429   1.000000
    205        -17.890593   1.000000
    206        -17.888733   1.000000
    207        -17.887129   1.000000
    208        -17.885437   1.000000
    209        -17.876637   1.000000
    210        -17.869395   1.000000
    211        -17.863160   1.000000
    212        -17.857863   1.000000
    213        -17.855093   1.000000
    214        -17.852175   1.000000
    215        -17.836975   1.000000
    216        -17.835398   1.000000
    217        -17.833255   1.000000
    218        -17.828027   1.000000
    219        -17.825957   1.000000
    220        -17.821256   1.000000
    221        -17.816854   1.000000
    222        -17.814611   1.000000
    223        -17.806756   1.000000
    224        -17.796653   1.000000
    225        -17.786581   1.000000
    226        -17.775671   1.000000
    227        -17.773479   1.000000
    228        -17.770994   1.000000
    229        -17.768153   1.000000
    230        -17.766683   1.000000
    231        -17.763487   1.000000
    232        -17.762559   1.000000
    233        -17.758113   1.000000
    234        -17.756979   1.000000
    235        -17.752249   1.000000
    236        -17.751215   1.000000
    237        -17.747819   1.000000
    238        -17.744209   1.000000
    239        -17.742266   1.000000
    240        -17.738699   1.000000
    241        -17.737217   1.000000
    242        -17.734368   1.000000
    243        -17.731664   1.000000
    244        -17.730372   1.000000
    245        -17.729361   1.000000
    246        -17.727411   1.000000
    247        -17.725136   1.000000
    248        -17.723536   1.000000
    249        -17.722729   1.000000
    250        -17.722048   1.000000
    251        -17.720480   1.000000
    252        -17.719697   1.000000
    253        -17.719195   1.000000
    254        -17.716692   1.000000
    255        -17.715317   1.000000
    256        -17.714016   1.000000
    257        -17.712082   1.000000
    258        -17.711217   1.000000
    259        -17.709971   1.000000
    260        -17.708323   1.000000
    261        -17.704794   1.000000
    262        -17.704151   1.000000
    263        -17.702313   1.000000
    264        -17.698486   1.000000
    265        -17.696518   1.000000
    266        -17.689636   1.000000
    267        -17.684662   1.000000
    268        -17.683792   1.000000
    269        -17.682835   1.000000
    270        -17.679919   1.000000
    271        -17.679072   1.000000
    272        -17.677206   1.000000
    273        -17.675885   1.000000
    274        -17.672277   1.000000
    275        -17.669774   1.000000
    276        -17.668663   1.000000
    277        -17.667995   1.000000
    278        -17.666615   1.000000
    279        -17.664450   1.000000
    280        -17.663600   1.000000
    281        -17.653713   1.000000
    282        -17.652124   1.000000
    283        -17.650255   1.000000
    284        -17.646501   1.000000
    285        -17.641589   1.000000
    286        -17.640774   1.000000
    287        -17.637239   1.000000
    288        -17.634976   1.000000
    289        -17.631655   1.000000
    290        -17.628524   1.000000
    291        -17.626542   1.000000
    292        -17.625273   1.000000
    293        -17.624530   1.000000
    294        -17.623564   1.000000
    295        -17.622734   1.000000
    296        -17.621935   1.000000
    297        -17.620688   1.000000
    298        -17.620072   1.000000
    299        -17.618683   1.000000
    300        -17.617314   1.000000
    301        -17.615107   1.000000
    302        -17.613869   1.000000
    303        -17.612875   1.000000
    304        -17.611694   1.000000
    305        -17.611352   1.000000
    306        -17.610884   1.000000
    307        -17.610473   1.000000
    308        -17.607711   1.000000
    309        -17.605679   1.000000
    310        -17.602310   1.000000
    311        -17.601579   1.000000
    312        -17.599452   1.000000
    313        -17.595508   1.000000
    314        -17.594755   1.000000
    315        -17.593543   1.000000
    316        -17.592924   1.000000
    317        -17.591282   1.000000
    318        -17.590595   1.000000
    319        -17.589910   1.000000
    320        -17.588568   1.000000
    321        -17.587183   1.000000
    322        -17.585914   1.000000
    323        -17.585263   1.000000
    324        -17.584531   1.000000
    325        -17.583624   1.000000
    326        -17.582930   1.000000
    327        -17.581856   1.000000
    328        -17.581065   1.000000
    329        -17.580924   1.000000
    330        -17.580519   1.000000
    331        -17.579823   1.000000
    332        -17.579224   1.000000
    333        -17.578643   1.000000
    334        -17.577340   1.000000
    335        -17.575847   1.000000
    336        -17.574746   1.000000
    337        -17.573614   1.000000
    338        -17.572059   1.000000
    339        -17.570962   1.000000
    340        -17.568776   1.000000
    341        -17.566638   1.000000
    342        -17.565485   1.000000
    343        -17.563843   1.000000
    344        -17.561840   1.000000
    345        -17.561065   1.000000
    346        -17.554299   1.000000
    347        -17.554220   1.000000
    348        -17.552752   1.000000
    349        -17.551333   1.000000
    350        -17.544187   1.000000
    351        -17.542552   1.000000
    352        -17.541666   1.000000
    353        -17.539907   1.000000
    354        -17.537998   1.000000
    355        -17.536929   1.000000
    356        -17.535343   1.000000
    357        -17.533775   1.000000
    358        -17.533107   1.000000
    359        -17.529772   1.000000
    360        -17.527591   1.000000
    361        -17.526193   1.000000
    362        -17.521858   1.000000
    363        -17.520677   1.000000
    364        -17.519499   1.000000
    365        -17.518578   1.000000
    366        -17.516728   1.000000
    367        -17.516016   1.000000
    368        -17.515522   1.000000
    369        -17.513795   1.000000
    370        -17.510531   1.000000
    371        -17.509844   1.000000
    372        -17.492935   1.000000
    373        -17.488859   1.000000
    374        -17.486335   1.000000
    375        -17.473171   1.000000
    376        -17.469908   1.000000
    377        -17.467609   1.000000
    378        -17.465822   1.000000
    379        -17.462519   1.000000
    380        -17.454933   1.000000
    381        -17.452882   1.000000
    382        -17.447942   1.000000
    383        -17.447708   1.000000
    384        -17.435259   1.000000
    385          2.452010   1.000000
    386          3.758506   1.000000
    387          4.026164   1.000000
    388          4.115915   1.000000
    389          4.197978   1.000000
    390          4.380131   1.000000
    391          4.479112   1.000000
    392          5.006783   1.000000
    393          5.150933   1.000000
    394          5.182376   1.000000
    395          5.312727   1.000000
    396          5.319508   1.000000
    397          5.332840   1.000000
    398          5.398740   1.000000
    399          5.560863   1.000000
    400          5.742662   1.000000
    401          5.789921   1.000000
    402          5.797355   1.000000
    403          5.818179   1.000000
    404          5.829582   1.000000
    405          5.857938   1.000000
    406          5.862655   1.000000
    407          5.908236   1.000000
    408          6.001910   1.000000
    409          6.005310   1.000000
    410          6.008563   1.000000
    411          6.035118   1.000000
    412          6.106939   1.000000
    413          6.107724   1.000000
    414          6.114242   1.000000
    415          6.116855   1.000000
    416          6.126506   1.000000
    417          6.134512   1.000000
    418          6.155581   1.000000
    419          6.160210   1.000000
    420          6.185074   1.000000
    421          6.208664   1.000000
    422          6.213056   1.000000
    423          6.229053   1.000000
    424          6.265782   1.000000
    425          6.288510   1.000000
    426          6.310441   1.000000
    427          6.312965   1.000000
    428          6.322110   1.000000
    429          6.335881   1.000000
    430          6.358494   1.000000
    431          6.396385   1.000000
    432          6.405069   1.000000
    433          6.440478   1.000000
    434          6.453495   1.000000
    435          6.470039   1.000000
    436          6.499354   1.000000
    437          6.516937   1.000000
    438          6.518275   1.000000
    439          6.528134   1.000000
    440          6.534081   1.000000
    441          6.542169   1.000000
    442          6.547178   1.000000
    443          6.560568   1.000000
    444          6.585093   1.000000
    445          6.593611   1.000000
    446          6.621120   1.000000
    447          6.642268   1.000000
    448          6.669055   1.000000
    449          6.675671   1.000000
    450          6.686662   1.000000
    451          6.696645   1.000000
    452          6.701228   1.000000
    453          6.745996   1.000000
    454          6.788328   1.000000
    455          6.810643   1.000000
    456          6.816006   1.000000
    457          6.843680   1.000000
    458          6.901671   1.000000
    459          6.906696   1.000000
    460          6.910498   1.000000
    461          6.923580   1.000000
    462          6.955182   1.000000
    463          7.003467   1.000000
    464          7.003917   1.000000
    465          7.016625   1.000000
    466          7.045095   1.000000
    467          7.058838   1.000000
    468          7.122261   1.000000
    469          7.135700   1.000000
    470          7.198160   1.000000
    471          7.200977   1.000000
    472          7.205291   1.000000
    473          7.208127   1.000000
    474          7.218512   1.000000
    475          7.225778   1.000000
    476          7.239814   1.000000
    477          7.254292   1.000000
    478          7.260988   1.000000
    479          7.271128   1.000000
    480          7.280362   1.000000
    481          7.294358   1.000000
    482          7.306161   1.000000
    483          7.308595   1.000000
    484          7.331130   1.000000
    485          7.339523   1.000000
    486          7.354708   1.000000
    487          7.364825   1.000000
    488          7.389625   1.000000
    489          7.405824   1.000000
    490          7.417026   1.000000
    491          7.428625   1.000000
    492          7.444449   1.000000
    493          7.460363   1.000000
    494          7.482812   1.000000
    495          7.489077   1.000000
    496          7.545382   1.000000
    497          7.587751   1.000000
    498          7.591319   1.000000
    499          7.618338   1.000000
    500          7.639775   1.000000
    501          7.659682   1.000000
    502          7.694279   1.000000
    503          7.724876   1.000000
    504          7.759922   1.000000
    505          7.783611   1.000000
    506          7.789057   1.000000
    507          7.792498   1.000000
    508          7.795291   1.000000
    509          7.806600   1.000000
    510          7.821880   1.000000
    511          7.836260   1.000000
    512          7.853557   1.000000
    513          7.865236   1.000000
    514          7.867330   1.000000
    515          7.886822   1.000000
    516          7.918969   1.000000
    517          7.927942   1.000000
    518          7.933926   1.000000
    519          7.944337   1.000000
    520          7.951975   1.000000
    521          7.966837   1.000000
    522          7.979775   1.000000
    523          8.006223   1.000000
    524          8.029506   1.000000
    525          8.037906   1.000000
    526          8.057042   1.000000
    527          8.079983   1.000000
    528          8.101438   1.000000
    529          8.109270   1.000000
    530          8.123499   1.000000
    531          8.129281   1.000000
    532          8.133525   1.000000
    533          8.138041   1.000000
    534          8.142810   1.000000
    535          8.164339   1.000000
    536          8.189040   1.000000
    537          8.201793   1.000001
    538          8.209482   1.000001
    539          8.214042   1.000001
    540          8.232673   1.000002
    541          8.237083   1.000002
    542          8.243640   1.000003
    543          8.244351   1.000003
    544          8.253037   1.000004
    545          8.260976   1.000005
    546          8.271265   1.000007
    547          8.289122   1.000012
    548          8.304259   1.000020
    549          8.306087   1.000021
    550          8.312009   1.000025
    551          8.319959   1.000032
    552          8.330811   1.000044
    553          8.336949   1.000052
    554          8.344573   1.000065
    555          8.346450   1.000068
    556          8.350207   1.000076
    557          8.351995   1.000080
    558          8.354258   1.000085
    559          8.359280   1.000098
    560          8.365515   1.000117
    561          8.389966   1.000225
    562          8.394977   1.000257
    563          8.584713   1.012108
    564          8.622364   1.019632
    565          8.632335   1.021889
    566          8.698795   1.034800
    567          8.710139   1.035437
    568          8.787219   1.001993
    569          8.790427   0.998484
    570          8.815940   0.962467
    571          8.843663   0.905568
    572          8.851671   0.885532
    573          8.864066   0.851367
    574          8.870268   0.832871
    575          8.872592   0.825704
    576          8.879410   0.803965
    577          8.927269   0.626072
    578          8.937818   0.582593
    579          9.016017   0.263541
    580          9.023669   0.236073
    581          9.029418   0.216205
    582          9.036254   0.193490
    583          9.042821   0.172650
    584          9.080963   0.072241
    585          9.095380   0.043776
    586          9.117093   0.010400
    587          9.161334  -0.027031
    588          9.167958  -0.029759
    589          9.188264  -0.034613
    590          9.206434  -0.035397
    591          9.216124  -0.034797
    592          9.234358  -0.032321
    593          9.241125  -0.031079
    594          9.249099  -0.029465
    595          9.262728  -0.026459
    596          9.279429  -0.022607
    597          9.284054  -0.021544
    598          9.294781  -0.019131
    599          9.297293  -0.018580
    600          9.300148  -0.017962
    601          9.309119  -0.016081
    602          9.310826  -0.015735
    603          9.316873  -0.014541
    604          9.317605  -0.014400
    605          9.321378  -0.013686
    606          9.327571  -0.012562
    607          9.332495  -0.011711
    608          9.339942  -0.010497
    609          9.344039  -0.009867
    610          9.352847  -0.008605
    611          9.374449  -0.006016
    612          9.414581  -0.002858
    613          9.421352  -0.002496
    614          9.461452  -0.001058
    615          9.482848  -0.000644
    616          9.488375  -0.000564
    617          9.500803  -0.000416
    618          9.505641  -0.000369
    619          9.507396  -0.000353
    620          9.517455  -0.000273
    621          9.527521  -0.000210
    622          9.532461  -0.000185
    623          9.550629  -0.000113
    624          9.558424  -0.000091
    625          9.569088  -0.000067
    626          9.578106  -0.000052
    627          9.582993  -0.000045
    628          9.586138  -0.000041
    629          9.600519  -0.000027
    630          9.607299  -0.000022
    631          9.615111  -0.000017
    632          9.619499  -0.000015
    633          9.623968  -0.000013
    634          9.635826  -0.000009
    635          9.663387  -0.000004
    636          9.689405  -0.000001
    637          9.698686  -0.000001
    638          9.712819  -0.000001
    639          9.724481  -0.000000
    640          9.739860  -0.000000
    641          9.750156  -0.000000
    642          9.759601  -0.000000
    643          9.764494  -0.000000
    644          9.785737  -0.000000
    645          9.797256  -0.000000
    646          9.806873  -0.000000
    647          9.813170  -0.000000
    648          9.831271  -0.000000
    649          9.841238  -0.000000
    650          9.855598  -0.000000
    651          9.876965  -0.000000
    652          9.880887  -0.000000
    653          9.882963  -0.000000
    654          9.896164  -0.000000
    655          9.899816  -0.000000
    656          9.907481  -0.000000
    657          9.917551  -0.000000
    658          9.924691  -0.000000
    659          9.943986  -0.000000
    660          9.952439  -0.000000
    661          9.961642  -0.000000
    662          9.994268  -0.000000
    663         10.005586  -0.000000
    664         10.021888  -0.000000
    665         10.031549  -0.000000
    666         10.042998  -0.000000
    667         10.050169  -0.000000
    668         10.064086  -0.000000
    669         10.067600  -0.000000
    670         10.070129  -0.000000
    671         10.078027  -0.000000
    672         10.082226  -0.000000
    673         10.087390  -0.000000
    674         10.098308  -0.000000
    675         10.101734  -0.000000
    676         10.112949  -0.000000
    677         10.118859  -0.000000
    678         10.123298  -0.000000
    679         10.129959  -0.000000
    680         10.134881  -0.000000
    681         10.137218  -0.000000
    682         10.147406  -0.000000
    683         10.160284  -0.000000
    684         10.167693  -0.000000
    685         10.169852  -0.000000
    686         10.175406  -0.000000
    687         10.177592  -0.000000
    688         10.187548  -0.000000
    689         10.190499  -0.000000
    690         10.195772  -0.000000
    691         10.205530  -0.000000
 
  0.2500000E+00  0.5000000E+00  0.3333333E+00  0.4166667E-01
      1        -39.907188   1.000000
      2        -39.884125   1.000000
      3        -39.876648   1.000000
      4        -39.870109   1.000000
      5        -39.867264   1.000000
      6        -39.859182   1.000000
      7        -39.854825   1.000000
      8        -39.843515   1.000000
      9        -39.839177   1.000000
     10        -39.833302   1.000000
     11        -39.827297   1.000000
     12        -39.825415   1.000000
     13        -39.823241   1.000000
     14        -39.820267   1.000000
     15        -39.816272   1.000000
     16        -39.814603   1.000000
     17        -39.806229   1.000000
     18        -39.804155   1.000000
     19        -39.801609   1.000000
     20        -39.799476   1.000000
     21        -39.797614   1.000000
     22        -39.794884   1.000000
     23        -39.794121   1.000000
     24        -39.793163   1.000000
     25        -39.789821   1.000000
     26        -39.787861   1.000000
     27        -39.785239   1.000000
     28        -39.782904   1.000000
     29        -39.782035   1.000000
     30        -39.781079   1.000000
     31        -39.778632   1.000000
     32        -39.777290   1.000000
     33        -39.775519   1.000000
     34        -39.774755   1.000000
     35        -39.773142   1.000000
     36        -39.770919   1.000000
     37        -39.769425   1.000000
     38        -39.768696   1.000000
     39        -39.767228   1.000000
     40        -39.763436   1.000000
     41        -39.762506   1.000000
     42        -39.761412   1.000000
     43        -39.760124   1.000000
     44        -39.758896   1.000000
     45        -39.757434   1.000000
     46        -39.756327   1.000000
     47        -39.755932   1.000000
     48        -39.755164   1.000000
     49        -39.754068   1.000000
     50        -39.753517   1.000000
     51        -39.753011   1.000000
     52        -39.752021   1.000000
     53        -39.751205   1.000000
     54        -39.750531   1.000000
     55        -39.749237   1.000000
     56        -39.748518   1.000000
     57        -39.747315   1.000000
     58        -39.745893   1.000000
     59        -39.745024   1.000000
     60        -39.744687   1.000000
     61        -39.743333   1.000000
     62        -39.741946   1.000000
     63        -39.740966   1.000000
     64        -39.739672   1.000000
     65        -39.739058   1.000000
     66        -39.738366   1.000000
     67        -39.737826   1.000000
     68        -39.737195   1.000000
     69        -39.735939   1.000000
     70        -39.734956   1.000000
     71        -39.734648   1.000000
     72        -39.733836   1.000000
     73        -39.732529   1.000000
     74        -39.731409   1.000000
     75        -39.730692   1.000000
     76        -39.729482   1.000000
     77        -39.728893   1.000000
     78        -39.728041   1.000000
     79        -39.727506   1.000000
     80        -39.726614   1.000000
     81        -39.725115   1.000000
     82        -39.724688   1.000000
     83        -39.724504   1.000000
     84        -39.723436   1.000000
     85        -39.722639   1.000000
     86        -39.722426   1.000000
     87        -39.721939   1.000000
     88        -39.721383   1.000000
     89        -39.719327   1.000000
     90        -39.718608   1.000000
     91        -39.715677   1.000000
     92        -39.715220   1.000000
     93        -39.709311   1.000000
     94        -39.709074   1.000000
     95        -39.706775   1.000000
     96        -39.704759   1.000000
     97        -18.359261   1.000000
     98        -18.326515   1.000000
     99        -18.313801   1.000000
    100        -18.312369   1.000000
    101        -18.293087   1.000000
    102        -18.283834   1.000000
    103        -18.278485   1.000000
    104        -18.276088   1.000000
    105        -18.271014   1.000000
    106        -18.266630   1.000000
    107        -18.264161   1.000000
    108        -18.259833   1.000000
    109        -18.257189   1.000000
    110        -18.256280   1.000000
    111        -18.252373   1.000000
    112        -18.250198   1.000000
    113        -18.244001   1.000000
    114        -18.239644   1.000000
    115        -18.236566   1.000000
    116        -18.235237   1.000000
    117        -18.233077   1.000000
    118        -18.231188   1.000000
    119        -18.230301   1.000000
    120        -18.228574   1.000000
    121        -18.223999   1.000000
    122        -18.220540   1.000000
    123        -18.218877   1.000000
    124        -18.218191   1.000000
    125        -18.216438   1.000000
    126        -18.214852   1.000000
    127        -18.213528   1.000000
    128        -18.212819   1.000000
    129        -18.210710   1.000000
    130        -18.208878   1.000000
    131        -18.203494   1.000000
    132        -18.199602   1.000000
    133        -18.197027   1.000000
    134        -18.195833   1.000000
    135        -18.195009   1.000000
    136        -18.193494   1.000000
    137        -18.190357   1.000000
    138        -18.187523   1.000000
    139        -18.180735   1.000000
    140        -18.175931   1.000000
    141        -18.173194   1.000000
    142        -18.172492   1.000000
    143        -18.168706   1.000000
    144        -18.167638   1.000000
    145        -18.165810   1.000000
    146        -18.161170   1.000000
    147        -18.156477   1.000000
    148        -18.144425   1.000000
    149        -18.126096   1.000000
    150        -18.120944   1.000000
    151        -18.118974   1.000000
    152        -18.115739   1.000000
    153        -18.113447   1.000000
    154        -18.113028   1.000000
    155        -18.112379   1.000000
    156        -18.110804   1.000000
    157        -18.109943   1.000000
    158        -18.109198   1.000000
    159        -18.092055   1.000000
    160        -18.086856   1.000000
    161        -18.079798   1.000000
    162        -18.064998   1.000000
    163        -18.061289   1.000000
    164        -18.055427   1.000000
    165        -18.052836   1.000000
    166        -18.051991   1.000000
    167        -18.049630   1.000000
    168        -18.048071   1.000000
    169        -18.046469   1.000000
    170        -18.044981   1.000000
    171        -18.043181   1.000000
    172        -18.041530   1.000000
    173        -18.039452   1.000000
    174        -18.036367   1.000000
    175        -18.034707   1.000000
    176        -18.031516   1.000000
    177        -18.029488   1.000000
    178        -18.027872   1.000000
    179        -18.007437   1.000000
    180        -17.988079   1.000000
    181        -17.986065   1.000000
    182        -17.981926   1.000000
    183        -17.980370   1.000000
    184        -17.973543   1.000000
    185        -17.968211   1.000000
    186        -17.965869   1.000000
    187        -17.959507   1.000000
    188        -17.953454   1.000000
    189        -17.944001   1.000000
    190        -17.941899   1.000000
    191        -17.941127   1.000000
    192        -17.934957   1.000000
    193        -17.933355   1.000000
    194        -17.928949   1.000000
    195        -17.925263   1.000000
    196        -17.918036   1.000000
    197        -17.913540   1.000000
    198        -17.911976   1.000000
    199        -17.910215   1.000000
    200        -17.903295   1.000000
    201        -17.899610   1.000000
    202        -17.897840   1.000000
    203        -17.893071   1.000000
    204        -17.891455   1.000000
    205        -17.890547   1.000000
    206        -17.888708   1.000000
    207        -17.887049   1.000000
    208        -17.885534   1.000000
    209        -17.876656   1.000000
    210        -17.869397   1.000000
    211        -17.863164   1.000000
    212        -17.857852   1.000000
    213        -17.855006   1.000000
    214        -17.852299   1.000000
    215        -17.836929   1.000000
    216        -17.835374   1.000000
    217        -17.833247   1.000000
    218        -17.828040   1.000000
    219        -17.825905   1.000000
    220        -17.821254   1.000000
    221        -17.816817   1.000000
    222        -17.814641   1.000000
    223        -17.806874   1.000000
    224        -17.796642   1.000000
    225        -17.786543   1.000000
    226        -17.775606   1.000000
    227        -17.773510   1.000000
    228        -17.771049   1.000000
    229        -17.768150   1.000000
    230        -17.766694   1.000000
    231        -17.763523   1.000000
    232        -17.762663   1.000000
    233        -17.758193   1.000000
    234        -17.756974   1.000000
    235        -17.752199   1.000000
    236        -17.751229   1.000000
    237        -17.747790   1.000000
    238        -17.744169   1.000000
    239        -17.742306   1.000000
    240        -17.738647   1.000000
    241        -17.737180   1.000000
    242        -17.734391   1.000000
    243        -17.731692   1.000000
    244        -17.730380   1.000000
    245        -17.729261   1.000000
    246        -17.727440   1.000000
    247        -17.725176   1.000000
    248        -17.723593   1.000000
    249        -17.722785   1.000000
    250        -17.722034   1.000000
    251        -17.720512   1.000000
    252        -17.719597   1.000000
    253        -17.719198   1.000000
    254        -17.716554   1.000000
    255        -17.715271   1.000000
    256        -17.713985   1.000000
    257        -17.712102   1.000000
    258        -17.711144   1.000000
    259        -17.709916   1.000000
    260        -17.708361   1.000000
    261        -17.704882   1.000000
    262        -17.704139   1.000000
    263        -17.702378   1.000000
    264        -17.698508   1.000000
    265        -17.696504   1.000000
    266        -17.689516   1.000000
    267        -17.684693   1.000000
    268        -17.683754   1.000000
    269        -17.682777   1.000000
    270        -17.679965   1.000000
    271        -17.679100   1.000000
    272        -17.677218   1.000000
    273        -17.675775   1.000000
    274        -17.672236   1.000000
    275        -17.669855   1.000000
    276        -17.668594   1.000000
    277        -17.668023   1.000000
    278        -17.666597   1.000000
    279        -17.664481   1.000000
    280        -17.663601   1.000000
    281        -17.653718   1.000000
    282        -17.652225   1.000000
    283        -17.650182   1.000000
    284        -17.646554   1.000000
    285        -17.641614   1.000000
    286        -17.640796   1.000000
    287        -17.637291   1.000000
    288        -17.634982   1.000000
    289        -17.631549   1.000000
    290        -17.628645   1.000000
    291        -17.626584   1.000000
    292        -17.625278   1.000000
    293        -17.624574   1.000000
    294        -17.623509   1.000000
    295        -17.622700   1.000000
    296        -17.621914   1.000000
    297        -17.620646   1.000000
    298        -17.620002   1.000000
    299        -17.618744   1.000000
    300        -17.617256   1.000000
    301        -17.615092   1.000000
    302        -17.613909   1.000000
    303        -17.612862   1.000000
    304        -17.611714   1.000000
    305        -17.611386   1.000000
    306        -17.610938   1.000000
    307        -17.610465   1.000000
    308        -17.607633   1.000000
    309        -17.605702   1.000000
    310        -17.602346   1.000000
    311        -17.601475   1.000000
    312        -17.599558   1.000000
    313        -17.595573   1.000000
    314        -17.594772   1.000000
    315        -17.593534   1.000000
    316        -17.592984   1.000000
    317        -17.591290   1.000000
    318        -17.590638   1.000000
    319        -17.589844   1.000000
    320        -17.588557   1.000000
    321        -17.587254   1.000000
    322        -17.585942   1.000000
    323        -17.585179   1.000000
    324        -17.584569   1.000000
    325        -17.583545   1.000000
    326        -17.582947   1.000000
    327        -17.581844   1.000000
    328        -17.581221   1.000000
    329        -17.580816   1.000000
    330        -17.580504   1.000000
    331        -17.579841   1.000000
    332        -17.579179   1.000000
    333        -17.578596   1.000000
    334        -17.577324   1.000000
    335        -17.575954   1.000000
    336        -17.574766   1.000000
    337        -17.573630   1.000000
    338        -17.571949   1.000000
    339        -17.570971   1.000000
    340        -17.568729   1.000000
    341        -17.566606   1.000000
    342        -17.565463   1.000000
    343        -17.563883   1.000000
    344        -17.561876   1.000000
    345        -17.561109   1.000000
    346        -17.554334   1.000000
    347        -17.554260   1.000000
    348        -17.552735   1.000000
    349        -17.551349   1.000000
    350        -17.544128   1.000000
    351        -17.542533   1.000000
    352        -17.541702   1.000000
    353        -17.539960   1.000000
    354        -17.538016   1.000000
    355        -17.536879   1.000000
    356        -17.535274   1.000000
    357        -17.533712   1.000000
    358        -17.533166   1.000000
    359        -17.529851   1.000000
    360        -17.527608   1.000000
    361        -17.526117   1.000000
    362        -17.521874   1.000000
    363        -17.520714   1.000000
    364        -17.519487   1.000000
    365        -17.518541   1.000000
    366        -17.516711   1.000000
    367        -17.515929   1.000000
    368        -17.515570   1.000000
    369        -17.513812   1.000000
    370        -17.510459   1.000000
    371        -17.509913   1.000000
    372        -17.492900   1.000000
    373        -17.488782   1.000000
    374        -17.486372   1.000000
    375        -17.473107   1.000000
    376        -17.469905   1.000000
    377        -17.467745   1.000000
    378        -17.465862   1.000000
    379        -17.462442   1.000000
    380        -17.454879   1.000000
    381        -17.453002   1.000000
    382        -17.447890   1.000000
    383        -17.447704   1.000000
    384        -17.435265   1.000000
    385          2.452012   1.000000
    386          3.758491   1.000000
    387          4.026130   1.000000
    388          4.116003   1.000000
    389          4.197919   1.000000
    390          4.380213   1.000000
    391          4.479059   1.000000
    392          5.006779   1.000000
    393          5.150930   1.000000
    394          5.182340   1.000000
    395          5.312803   1.000000
    396          5.319497   1.000000
    397          5.332836   1.000000
    398          5.398711   1.000000
    399          5.560857   1.000000
    400          5.742540   1.000000
    401          5.789994   1.000000
    402          5.797358   1.000000
    403          5.818184   1.000000
    404          5.829453   1.000000
    405          5.857945   1.000000
    406          5.862723   1.000000
    407          5.908333   1.000000
    408          6.001846   1.000000
    409          6.005422   1.000000
    410          6.008554   1.000000
    411          6.035232   1.000000
    412          6.106753   1.000000
    413          6.107675   1.000000
    414          6.114331   1.000000
    415          6.116838   1.000000
    416          6.126581   1.000000
    417          6.134551   1.000000
    418          6.155605   1.000000
    419          6.160159   1.000000
    420          6.185249   1.000000
    421          6.208673   1.000000
    422          6.212899   1.000000
    423          6.229013   1.000000
    424          6.266035   1.000000
    425          6.288207   1.000000
    426          6.310428   1.000000
    427          6.313082   1.000000
    428          6.321955   1.000000
    429          6.335802   1.000000
    430          6.358544   1.000000
    431          6.396373   1.000000
    432          6.405125   1.000000
    433          6.440291   1.000000
    434          6.453537   1.000000
    435          6.469852   1.000000
    436          6.499537   1.000000
    437          6.517002   1.000000
    438          6.518266   1.000000
    439          6.528198   1.000000
    440          6.534049   1.000000
    441          6.542253   1.000000
    442          6.547070   1.000000
    443          6.560718   1.000000
    444          6.585094   1.000000
    445          6.593557   1.000000
    446          6.621295   1.000000
    447          6.642221   1.000000
    448          6.669069   1.000000
    449          6.675551   1.000000
    450          6.686636   1.000000
    451          6.696674   1.000000
    452          6.701237   1.000000
    453          6.746081   1.000000
    454          6.788247   1.000000
    455          6.810670   1.000000
    456          6.816026   1.000000
    457          6.843538   1.000000
    458          6.901808   1.000000
    459          6.906621   1.000000
    460          6.910590   1.000000
    461          6.923672   1.000000
    462          6.955320   1.000000
    463          7.003374   1.000000
    464          7.003925   1.000000
    465          7.016675   1.000000
    466          7.044946   1.000000
    467          7.058982   1.000000
    468          7.122257   1.000000
    469          7.135648   1.000000
    470          7.198115   1.000000
    471          7.201090   1.000000
    472          7.205445   1.000000
    473          7.208030   1.000000
    474          7.218424   1.000000
    475          7.225607   1.000000
    476          7.239897   1.000000
    477          7.253950   1.000000
    478          7.260853   1.000000
    479          7.271042   1.000000
    480          7.280245   1.000000
    481          7.294569   1.000000
    482          7.306215   1.000000
    483          7.308656   1.000000
    484          7.331009   1.000000
    485          7.339611   1.000000
    486          7.354696   1.000000
    487          7.364711   1.000000
    488          7.389536   1.000000
    489          7.406083   1.000000
    490          7.417215   1.000000
    491          7.428653   1.000000
    492          7.444236   1.000000
    493          7.460322   1.000000
    494          7.482844   1.000000
    495          7.489166   1.000000
    496          7.545369   1.000000
    497          7.587631   1.000000
    498          7.591395   1.000000
    499          7.618611   1.000000
    500          7.639879   1.000000
    501          7.659695   1.000000
    502          7.694142   1.000000
    503          7.724982   1.000000
    504          7.759717   1.000000
    505          7.783705   1.000000
    506          7.789180   1.000000
    507          7.792307   1.000000
    508          7.795310   1.000000
    509          7.806684   1.000000
    510          7.821699   1.000000
    511          7.836331   1.000000
    512          7.853499   1.000000
    513          7.865329   1.000000
    514          7.867423   1.000000
    515          7.886575   1.000000
    516          7.919128   1.000000
    517          7.928025   1.000000
    518          7.934006   1.000000
    519          7.944210   1.000000
    520          7.951973   1.000000
    521          7.966397   1.000000
    522          7.979748   1.000000
    523          8.006588   1.000000
    524          8.029673   1.000000
    525          8.037752   1.000000
    526          8.056873   1.000000
    527          8.079814   1.000000
    528          8.101281   1.000000
    529          8.109213   1.000000
    530          8.123712   1.000000
    531          8.129327   1.000000
    532          8.133474   1.000000
    533          8.138160   1.000000
    534          8.142882   1.000000
    535          8.164269   1.000000
    536          8.188981   1.000000
    537          8.201833   1.000001
    538          8.209243   1.000001
    539          8.214226   1.000001
    540          8.232817   1.000002
    541          8.237022   1.000002
    542          8.243373   1.000003
    543          8.244245   1.000003
    544          8.253038   1.000004
    545          8.260996   1.000005
    546          8.271372   1.000007
    547          8.289083   1.000012
    548          8.304382   1.000020
    549          8.306132   1.000021
    550          8.312138   1.000025
    551          8.319812   1.000031
    552          8.330771   1.000043
    553          8.337084   1.000052
    554          8.344581   1.000065
    555          8.346648   1.000069
    556          8.350021   1.000076
    557          8.352117   1.000080
    558          8.354191   1.000085
    559          8.359095   1.000098
    560          8.365378   1.000116
    561          8.389983   1.000225
    562          8.395170   1.000258
    563          8.584651   1.012097
    564          8.622159   1.019587
    565          8.632586   1.021947
    566          8.698654   1.034787
    567          8.710122   1.035437
    568          8.787468   1.001728
    569          8.790307   0.998620
    570          8.816054   0.962272
    571          8.843719   0.905432
    572          8.851747   0.885333
    573          8.863782   0.852193
    574          8.870157   0.833208
    575          8.872830   0.824964
    576          8.879183   0.804707
    577          8.927550   0.624927
    578          8.937775   0.582773
    579          9.016153   0.263042
    580          9.023834   0.235494
    581          9.029607   0.215564
    582          9.036333   0.193235
    583          9.042568   0.173437
    584          9.081266   0.071590
    585          9.095104   0.044273
    586          9.117236   0.010216
    587          9.161661  -0.027180
    588          9.167862  -0.029723
    589          9.188400  -0.034630
    590          9.206288  -0.035401
    591          9.216015  -0.034807
    592          9.234188  -0.032350
    593          9.241029  -0.031098
    594          9.249260  -0.029431
    595          9.262700  -0.026465
    596          9.279726  -0.022538
    597          9.284196  -0.021512
    598          9.294798  -0.019127
    599          9.297290  -0.018580
    600          9.299738  -0.018050
    601          9.308829  -0.016140
    602          9.311029  -0.015694
    603          9.316223  -0.014667
    604          9.317851  -0.014353
    605          9.321399  -0.013682
    606          9.327708  -0.012538
    607          9.332409  -0.011725
    608          9.340396  -0.010426
    609          9.344186  -0.009845
    610          9.353073  -0.008574
    611          9.374151  -0.006047
    612          9.414712  -0.002850
    613          9.421247  -0.002501
    614          9.461650  -0.001053
    615          9.482564  -0.000649
    616          9.488252  -0.000566
    617          9.500915  -0.000415
    618          9.505530  -0.000370
    619          9.507249  -0.000354
    620          9.517857  -0.000271
    621          9.527662  -0.000210
    622          9.532378  -0.000185
    623          9.550110  -0.000114
    624          9.558649  -0.000090
    625          9.569017  -0.000067
    626          9.577837  -0.000052
    627          9.582852  -0.000045
    628          9.586143  -0.000041
    629          9.600712  -0.000026
    630          9.607115  -0.000022
    631          9.615317  -0.000017
    632          9.619188  -0.000015
    633          9.623935  -0.000013
    634          9.635985  -0.000009
    635          9.663309  -0.000004
    636          9.689547  -0.000001
    637          9.698601  -0.000001
    638          9.712987  -0.000001
    639          9.724553  -0.000000
    640          9.739865  -0.000000
    641          9.750121  -0.000000
    642          9.759598  -0.000000
    643          9.764919  -0.000000
    644          9.785849  -0.000000
    645          9.797867  -0.000000
    646          9.806800  -0.000000
    647          9.812969  -0.000000
    648          9.831082  -0.000000
    649          9.841185  -0.000000
    650          9.855542  -0.000000
    651          9.877222  -0.000000
    652          9.880849  -0.000000
    653          9.883143  -0.000000
    654          9.895986  -0.000000
    655          9.899871  -0.000000
    656          9.907422  -0.000000
    657          9.917452  -0.000000
    658          9.924718  -0.000000
    659          9.944085  -0.000000
    660          9.952266  -0.000000
    661          9.961523  -0.000000
    662          9.994462  -0.000000
    663         10.005518  -0.000000
    664         10.021864  -0.000000
    665         10.031467  -0.000000
    666         10.042611  -0.000000
    667         10.050286  -0.000000
    668         10.064087  -0.000000
    669         10.067558  -0.000000
    670         10.070145  -0.000000
    671         10.078158  -0.000000
    672         10.082285  -0.000000
    673         10.087367  -0.000000
    674         10.098197  -0.000000
    675         10.101510  -0.000000
    676         10.113201  -0.000000
    677         10.118617  -0.000000
    678         10.123257  -0.000000
    679         10.129856  -0.000000
    680         10.135177  -0.000000
    681         10.137242  -0.000000
    682         10.147591  -0.000000
    683         10.159802  -0.000000
    684         10.167619  -0.000000
    685         10.169592  -0.000000
    686         10.175632  -0.000000
    687         10.177533  -0.000000
    688         10.187823  -0.000000
    689         10.190202  -0.000000
    690         10.195624  -0.000000
    691         10.205409  -0.000000
 
  0.5000000E+00 -0.2500000E+00  0.3333333E+00  0.4166667E-01
      1        -39.907183   1.000000
      2        -39.884131   1.000000
      3        -39.876721   1.000000
      4        -39.870027   1.000000
      5        -39.867300   1.000000
      6        -39.859074   1.000000
      7        -39.854874   1.000000
      8        -39.843537   1.000000
      9        -39.839131   1.000000
     10        -39.833309   1.000000
     11        -39.827355   1.000000
     12        -39.825384   1.000000
     13        -39.823266   1.000000
     14        -39.820331   1.000000
     15        -39.816283   1.000000
     16        -39.814560   1.000000
     17        -39.806272   1.000000
     18        -39.804133   1.000000
     19        -39.801592   1.000000
     20        -39.799569   1.000000
     21        -39.797606   1.000000
     22        -39.794732   1.000000
     23        -39.794127   1.000000
     24        -39.793118   1.000000
     25        -39.789858   1.000000
     26        -39.787831   1.000000
     27        -39.785221   1.000000
     28        -39.782899   1.000000
     29        -39.782010   1.000000
     30        -39.781111   1.000000
     31        -39.778706   1.000000
     32        -39.777207   1.000000
     33        -39.775569   1.000000
     34        -39.774798   1.000000
     35        -39.773153   1.000000
     36        -39.770976   1.000000
     37        -39.769413   1.000000
     38        -39.768553   1.000000
     39        -39.767222   1.000000
     40        -39.763501   1.000000
     41        -39.762443   1.000000
     42        -39.761457   1.000000
     43        -39.760247   1.000000
     44        -39.758924   1.000000
     45        -39.757468   1.000000
     46        -39.756230   1.000000
     47        -39.755853   1.000000
     48        -39.755062   1.000000
     49        -39.754090   1.000000
     50        -39.753541   1.000000
     51        -39.752963   1.000000
     52        -39.752083   1.000000
     53        -39.751291   1.000000
     54        -39.750502   1.000000
     55        -39.749317   1.000000
     56        -39.748489   1.000000
     57        -39.747389   1.000000
     58        -39.745876   1.000000
     59        -39.744990   1.000000
     60        -39.744649   1.000000
     61        -39.743299   1.000000
     62        -39.742028   1.000000
     63        -39.740907   1.000000
     64        -39.739625   1.000000
     65        -39.739073   1.000000
     66        -39.738407   1.000000
     67        -39.737853   1.000000
     68        -39.737228   1.000000
     69        -39.735945   1.000000
     70        -39.734965   1.000000
     71        -39.734635   1.000000
     72        -39.733700   1.000000
     73        -39.732510   1.000000
     74        -39.731469   1.000000
     75        -39.730593   1.000000
     76        -39.729585   1.000000
     77        -39.728941   1.000000
     78        -39.727999   1.000000
     79        -39.727429   1.000000
     80        -39.726615   1.000000
     81        -39.725181   1.000000
     82        -39.724659   1.000000
     83        -39.724401   1.000000
     84        -39.723549   1.000000
     85        -39.722667   1.000000
     86        -39.722455   1.000000
     87        -39.721964   1.000000
     88        -39.721406   1.000000
     89        -39.719284   1.000000
     90        -39.718610   1.000000
     91        -39.715576   1.000000
     92        -39.715276   1.000000
     93        -39.709330   1.000000
     94        -39.709053   1.000000
     95        -39.706779   1.000000
     96        -39.704765   1.000000
     97        -18.359264   1.000000
     98        -18.326545   1.000000
     99        -18.313781   1.000000
    100        -18.312400   1.000000
    101        -18.293074   1.000000
    102        -18.283853   1.000000
    103        -18.278428   1.000000
    104        -18.276098   1.000000
    105        -18.271023   1.000000
    106        -18.266653   1.000000
    107        -18.264120   1.000000
    108        -18.259820   1.000000
    109        -18.257258   1.000000
    110        -18.256303   1.000000
    111        -18.252368   1.000000
    112        -18.250162   1.000000
    113        -18.243886   1.000000
    114        -18.239663   1.000000
    115        -18.236450   1.000000
    116        -18.235271   1.000000
    117        -18.233182   1.000000
    118        -18.231284   1.000000
    119        -18.230257   1.000000
    120        -18.228611   1.000000
    121        -18.223993   1.000000
    122        -18.220640   1.000000
    123        -18.218859   1.000000
    124        -18.218167   1.000000
    125        -18.216475   1.000000
    126        -18.214842   1.000000
    127        -18.213462   1.000000
    128        -18.212777   1.000000
    129        -18.210661   1.000000
    130        -18.208811   1.000000
    131        -18.203557   1.000000
    132        -18.199616   1.000000
    133        -18.197033   1.000000
    134        -18.195859   1.000000
    135        -18.195038   1.000000
    136        -18.193503   1.000000
    137        -18.190368   1.000000
    138        -18.187440   1.000000
    139        -18.180751   1.000000
    140        -18.175944   1.000000
    141        -18.173237   1.000000
    142        -18.172495   1.000000
    143        -18.168695   1.000000
    144        -18.167584   1.000000
    145        -18.165745   1.000000
    146        -18.161200   1.000000
    147        -18.156439   1.000000
    148        -18.144471   1.000000
    149        -18.126137   1.000000
    150        -18.120885   1.000000
    151        -18.118883   1.000000
    152        -18.115678   1.000000
    153        -18.113552   1.000000
    154        -18.113036   1.000000
    155        -18.112414   1.000000
    156        -18.110771   1.000000
    157        -18.110005   1.000000
    158        -18.109169   1.000000
    159        -18.092061   1.000000
    160        -18.086844   1.000000
    161        -18.079838   1.000000
    162        -18.065017   1.000000
    163        -18.061220   1.000000
    164        -18.055359   1.000000
    165        -18.052805   1.000000
    166        -18.052147   1.000000
    167        -18.049687   1.000000
    168        -18.048104   1.000000
    169        -18.046420   1.000000
    170        -18.044990   1.000000
    171        -18.043220   1.000000
    172        -18.041449   1.000000
    173        -18.039428   1.000000
    174        -18.036415   1.000000
    175        -18.034730   1.000000
    176        -18.031522   1.000000
    177        -18.029519   1.000000
    178        -18.027832   1.000000
    179        -18.007441   1.000000
    180        -17.988040   1.000000
    181        -17.986097   1.000000
    182        -17.981992   1.000000
    183        -17.980329   1.000000
    184        -17.973506   1.000000
    185        -17.968220   1.000000
    186        -17.965790   1.000000
    187        -17.959561   1.000000
    188        -17.953465   1.000000
    189        -17.943994   1.000000
    190        -17.941883   1.000000
    191        -17.941092   1.000000
    192        -17.934949   1.000000
    193        -17.933337   1.000000
    194        -17.928949   1.000000
    195        -17.925379   1.000000
    196        -17.918062   1.000000
    197        -17.913594   1.000000
    198        -17.911934   1.000000
    199        -17.910218   1.000000
    200        -17.903293   1.000000
    201        -17.899548   1.000000
    202        -17.897726   1.000000
    203        -17.893128   1.000000
    204        -17.891474   1.000000
    205        -17.890580   1.000000
    206        -17.888693   1.000000
    207        -17.887166   1.000000
    208        -17.885434   1.000000
    209        -17.876654   1.000000
    210        -17.869393   1.000000
    211        -17.863149   1.000000
    212        -17.857855   1.000000
    213        -17.855001   1.000000
    214        -17.852275   1.000000
    215        -17.836923   1.000000
    216        -17.835400   1.000000
    217        -17.833286   1.000000
    218        -17.828143   1.000000
    219        -17.825907   1.000000
    220        -17.821209   1.000000
    221        -17.816832   1.000000
    222        -17.814640   1.000000
    223        -17.806748   1.000000
    224        -17.796639   1.000000
    225        -17.786587   1.000000
    226        -17.775692   1.000000
    227        -17.773473   1.000000
    228        -17.771006   1.000000
    229        -17.768163   1.000000
    230        -17.766586   1.000000
    231        -17.763426   1.000000
    232        -17.762566   1.000000
    233        -17.758159   1.000000
    234        -17.756993   1.000000
    235        -17.752239   1.000000
    236        -17.751259   1.000000
    237        -17.747841   1.000000
    238        -17.744203   1.000000
    239        -17.742252   1.000000
    240        -17.738732   1.000000
    241        -17.737276   1.000000
    242        -17.734328   1.000000
    243        -17.731631   1.000000
    244        -17.730386   1.000000
    245        -17.729351   1.000000
    246        -17.727430   1.000000
    247        -17.725199   1.000000
    248        -17.723513   1.000000
    249        -17.722751   1.000000
    250        -17.722025   1.000000
    251        -17.720413   1.000000
    252        -17.719682   1.000000
    253        -17.719218   1.000000
    254        -17.716752   1.000000
    255        -17.715306   1.000000
    256        -17.713962   1.000000
    257        -17.712036   1.000000
    258        -17.711122   1.000000
    259        -17.709955   1.000000
    260        -17.708380   1.000000
    261        -17.704822   1.000000
    262        -17.704169   1.000000
    263        -17.702402   1.000000
    264        -17.698518   1.000000
    265        -17.696521   1.000000
    266        -17.689647   1.000000
    267        -17.684663   1.000000
    268        -17.683815   1.000000
    269        -17.682740   1.000000
    270        -17.679910   1.000000
    271        -17.679026   1.000000
    272        -17.677229   1.000000
    273        -17.675846   1.000000
    274        -17.672212   1.000000
    275        -17.669890   1.000000
    276        -17.668656   1.000000
    277        -17.667953   1.000000
    278        -17.666642   1.000000
    279        -17.664437   1.000000
    280        -17.663609   1.000000
    281        -17.653774   1.000000
    282        -17.652171   1.000000
    283        -17.650213   1.000000
    284        -17.646498   1.000000
    285        -17.641664   1.000000
    286        -17.640783   1.000000
    287        -17.637246   1.000000
    288        -17.634959   1.000000
    289        -17.631618   1.000000
    290        -17.628581   1.000000
    291        -17.626608   1.000000
    292        -17.625203   1.000000
    293        -17.624541   1.000000
    294        -17.623548   1.000000
    295        -17.622707   1.000000
    296        -17.621890   1.000000
    297        -17.620653   1.000000
    298        -17.619982   1.000000
    299        -17.618747   1.000000
    300        -17.617298   1.000000
    301        -17.615131   1.000000
    302        -17.613916   1.000000
    303        -17.612809   1.000000
    304        -17.611665   1.000000
    305        -17.611335   1.000000
    306        -17.610878   1.000000
    307        -17.610480   1.000000
    308        -17.607669   1.000000
    309        -17.605727   1.000000
    310        -17.602211   1.000000
    311        -17.601583   1.000000
    312        -17.599499   1.000000
    313        -17.595468   1.000000
    314        -17.594772   1.000000
    315        -17.593573   1.000000
    316        -17.592972   1.000000
    317        -17.591372   1.000000
    318        -17.590534   1.000000
    319        -17.589858   1.000000
    320        -17.588628   1.000000
    321        -17.587273   1.000000
    322        -17.586019   1.000000
    323        -17.585219   1.000000
    324        -17.584499   1.000000
    325        -17.583569   1.000000
    326        -17.582915   1.000000
    327        -17.581837   1.000000
    328        -17.581147   1.000000
    329        -17.580803   1.000000
    330        -17.580524   1.000000
    331        -17.579862   1.000000
    332        -17.579186   1.000000
    333        -17.578695   1.000000
    334        -17.577315   1.000000
    335        -17.575850   1.000000
    336        -17.574803   1.000000
    337        -17.573629   1.000000
    338        -17.572033   1.000000
    339        -17.570978   1.000000
    340        -17.568728   1.000000
    341        -17.566639   1.000000
    342        -17.565441   1.000000
    343        -17.563806   1.000000
    344        -17.561888   1.000000
    345        -17.561085   1.000000
    346        -17.554346   1.000000
    347        -17.554251   1.000000
    348        -17.552737   1.000000
    349        -17.551320   1.000000
    350        -17.544185   1.000000
    351        -17.542571   1.000000
    352        -17.541625   1.000000
    353        -17.539923   1.000000
    354        -17.537973   1.000000
    355        -17.536872   1.000000
    356        -17.535335   1.000000
    357        -17.533721   1.000000
    358        -17.533154   1.000000
    359        -17.529794   1.000000
    360        -17.527653   1.000000
    361        -17.526129   1.000000
    362        -17.521878   1.000000
    363        -17.520693   1.000000
    364        -17.519509   1.000000
    365        -17.518583   1.000000
    366        -17.516785   1.000000
    367        -17.516005   1.000000
    368        -17.515541   1.000000
    369        -17.513745   1.000000
    370        -17.510550   1.000000
    371        -17.509810   1.000000
    372        -17.492915   1.000000
    373        -17.488845   1.000000
    374        -17.486326   1.000000
    375        -17.473187   1.000000
    376        -17.469919   1.000000
    377        -17.467680   1.000000
    378        -17.465799   1.000000
    379        -17.462466   1.000000
    380        -17.454917   1.000000
    381        -17.452930   1.000000
    382        -17.447942   1.000000
    383        -17.447679   1.000000
    384        -17.435264   1.000000
    385          2.452010   1.000000
    386          3.758509   1.000000
    387          4.026153   1.000000
    388          4.115918   1.000000
    389          4.197980   1.000000
    390          4.380130   1.000000
    391          4.479119   1.000000
    392          5.006783   1.000000
    393          5.150934   1.000000
    394          5.182372   1.000000
    395          5.312731   1.000000
    396          5.319520   1.000000
    397          5.332832   1.000000
    398          5.398734   1.000000
    399          5.560847   1.000000
    400          5.742657   1.000000
    401          5.789917   1.000000
    402          5.797362   1.000000
    403          5.818183   1.000000
    404          5.829554   1.000000
    405          5.857915   1.000000
    406          5.862670   1.000000
    407          5.908256   1.000000
    408          6.001882   1.000000
    409          6.005329   1.000000
    410          6.008561   1.000000
    411          6.035232   1.000000
    412          6.106884   1.000000
    413          6.107774   1.000000
    414          6.114306   1.000000
    415          6.116810   1.000000
    416          6.126512   1.000000
    417          6.134472   1.000000
    418          6.155572   1.000000
    419          6.160217   1.000000
    420          6.185090   1.000000
    421          6.208715   1.000000
    422          6.212996   1.000000
    423          6.229040   1.000000
    424          6.265816   1.000000
    425          6.288448   1.000000
    426          6.310351   1.000000
    427          6.312985   1.000000
    428          6.321994   1.000000
    429          6.335895   1.000000
    430          6.358722   1.000000
    431          6.396352   1.000000
    432          6.405110   1.000000
    433          6.440417   1.000000
    434          6.453482   1.000000
    435          6.469945   1.000000
    436          6.499349   1.000000
    437          6.517045   1.000000
    438          6.518227   1.000000
    439          6.528121   1.000000
    440          6.534078   1.000000
    441          6.542140   1.000000
    442          6.547189   1.000000
    443          6.560579   1.000000
    444          6.585072   1.000000
    445          6.593624   1.000000
    446          6.621176   1.000000
    447          6.642317   1.000000
    448          6.669089   1.000000
    449          6.675560   1.000000
    450          6.686647   1.000000
    451          6.696693   1.000000
    452          6.701222   1.000000
    453          6.745998   1.000000
    454          6.788366   1.000000
    455          6.810584   1.000000
    456          6.815996   1.000000
    457          6.843719   1.000000
    458          6.901666   1.000000
    459          6.906729   1.000000
    460          6.910478   1.000000
    461          6.923645   1.000000
    462          6.955037   1.000000
    463          7.003538   1.000000
    464          7.003906   1.000000
    465          7.016637   1.000000
    466          7.044996   1.000000
    467          7.058898   1.000000
    468          7.122251   1.000000
    469          7.135651   1.000000
    470          7.197980   1.000000
    471          7.201244   1.000000
    472          7.205315   1.000000
    473          7.208099   1.000000
    474          7.218619   1.000000
    475          7.225790   1.000000
    476          7.239809   1.000000
    477          7.254286   1.000000
    478          7.261027   1.000000
    479          7.271066   1.000000
    480          7.280388   1.000000
    481          7.294404   1.000000
    482          7.306149   1.000000
    483          7.308631   1.000000
    484          7.330881   1.000000
    485          7.339395   1.000000
    486          7.354893   1.000000
    487          7.364848   1.000000
    488          7.389587   1.000000
    489          7.405878   1.000000
    490          7.417073   1.000000
    491          7.428633   1.000000
    492          7.444407   1.000000
    493          7.460403   1.000000
    494          7.482751   1.000000
    495          7.489008   1.000000
    496          7.545305   1.000000
    497          7.587700   1.000000
    498          7.591360   1.000000
    499          7.618461   1.000000
    500          7.639788   1.000000
    501          7.659722   1.000000
    502          7.694280   1.000000
    503          7.724819   1.000000
    504          7.760013   1.000000
    505          7.783702   1.000000
    506          7.789076   1.000000
    507          7.792406   1.000000
    508          7.795427   1.000000
    509          7.806665   1.000000
    510          7.821718   1.000000
    511          7.836224   1.000000
    512          7.853581   1.000000
    513          7.865243   1.000000
    514          7.867315   1.000000
    515          7.886777   1.000000
    516          7.918973   1.000000
    517          7.927896   1.000000
    518          7.933940   1.000000
    519          7.944275   1.000000
    520          7.952005   1.000000
    521          7.966844   1.000000
    522          7.979715   1.000000
    523          8.006175   1.000000
    524          8.029497   1.000000
    525          8.037878   1.000000
    526          8.057024   1.000000
    527          8.080010   1.000000
    528          8.101429   1.000000
    529          8.109378   1.000000
    530          8.123663   1.000000
    531          8.129334   1.000000
    532          8.133269   1.000000
    533          8.138133   1.000000
    534          8.142797   1.000000
    535          8.164303   1.000000
    536          8.189071   1.000000
    537          8.201879   1.000001
    538          8.209407   1.000001
    539          8.214208   1.000001
    540          8.232637   1.000002
    541          8.236936   1.000002
    542          8.243484   1.000003
    543          8.244703   1.000003
    544          8.253002   1.000004
    545          8.260801   1.000005
    546          8.271324   1.000007
    547          8.289061   1.000012
    548          8.304377   1.000020
    549          8.305930   1.000021
    550          8.311966   1.000025
    551          8.319765   1.000031
    552          8.331017   1.000044
    553          8.337196   1.000052
    554          8.344586   1.000065
    555          8.346373   1.000068
    556          8.350002   1.000076
    557          8.352365   1.000081
    558          8.354084   1.000085
    559          8.359366   1.000099
    560          8.365279   1.000116
    561          8.389955   1.000225
    562          8.395025   1.000257
    563          8.584717   1.012108
    564          8.622383   1.019636
    565          8.632335   1.021889
    566          8.698768   1.034798
    567          8.710143   1.035437
    568          8.787273   1.001936
    569          8.790391   0.998524
    570          8.815893   0.962547
    571          8.843739   0.905384
    572          8.851786   0.885231
    573          8.863979   0.851620
    574          8.870194   0.833097
    575          8.872602   0.825673
    576          8.879421   0.803930
    577          8.927409   0.625503
    578          8.937802   0.582660
    579          9.016005   0.263583
    580          9.023576   0.236401
    581          9.029347   0.216445
    582          9.036373   0.193103
    583          9.042926   0.172327
    584          9.080894   0.072389
    585          9.095259   0.043994
    586          9.117088   0.010406
    587          9.161477  -0.027096
    588          9.167793  -0.029698
    589          9.188482  -0.034640
    590          9.206699  -0.035388
    591          9.215855  -0.034821
    592          9.234008  -0.032381
    593          9.241074  -0.031089
    594          9.249280  -0.029427
    595          9.262740  -0.026456
    596          9.279650  -0.022556
    597          9.284293  -0.021490
    598          9.294656  -0.019158
    599          9.297279  -0.018583
    600          9.299752  -0.018047
    601          9.308940  -0.016117
    602          9.310946  -0.015711
    603          9.316605  -0.014593
    604          9.317666  -0.014388
    605          9.321595  -0.013646
    606          9.327580  -0.012560
    607          9.332503  -0.011709
    608          9.340137  -0.010466
    609          9.343990  -0.009875
    610          9.352811  -0.008609
    611          9.374424  -0.006018
    612          9.414907  -0.002839
    613          9.421206  -0.002503
    614          9.461428  -0.001059
    615          9.482492  -0.000650
    616          9.488362  -0.000565
    617          9.500781  -0.000417
    618          9.505406  -0.000371
    619          9.507297  -0.000354
    620          9.517669  -0.000272
    621          9.527567  -0.000210
    622          9.532597  -0.000184
    623          9.550721  -0.000113
    624          9.558394  -0.000091
    625          9.568969  -0.000067
    626          9.578005  -0.000052
    627          9.582891  -0.000045
    628          9.586304  -0.000041
    629          9.600698  -0.000026
    630          9.607196  -0.000022
    631          9.615444  -0.000017
    632          9.619364  -0.000015
    633          9.623872  -0.000013
    634          9.635846  -0.000009
    635          9.663379  -0.000004
    636          9.689564  -0.000001
    637          9.698749  -0.000001
    638          9.712773  -0.000001
    639          9.724523  -0.000000
    640          9.739743  -0.000000
    641          9.749974  -0.000000
    642          9.759873  -0.000000
    643          9.764160  -0.000000
    644          9.785823  -0.000000
    645          9.797613  -0.000000
    646          9.806780  -0.000000
    647          9.813064  -0.000000
    648          9.831204  -0.000000
    649          9.841124  -0.000000
    650          9.855775  -0.000000
    651          9.877204  -0.000000
    652          9.881048  -0.000000
    653          9.882872  -0.000000
    654          9.896112  -0.000000
    655          9.899867  -0.000000
    656          9.907468  -0.000000
    657          9.917715  -0.000000
    658          9.924544  -0.000000
    659          9.944009  -0.000000
    660          9.952242  -0.000000
    661          9.961805  -0.000000
    662          9.994222  -0.000000
    663         10.005596  -0.000000
    664         10.021895  -0.000000
    665         10.031562  -0.000000
    666         10.042873  -0.000000
    667         10.050246  -0.000000
    668         10.063923  -0.000000
    669         10.067334  -0.000000
    670         10.070032  -0.000000
    671         10.078222  -0.000000
    672         10.082104  -0.000000
    673         10.087443  -0.000000
    674         10.098390  -0.000000
    675         10.101639  -0.000000
    676         10.113036  -0.000000
    677         10.119034  -0.000000
    678         10.123456  -0.000000
    679         10.129784  -0.000000
    680         10.134960  -0.000000
    681         10.137245  -0.000000
    682         10.147498  -0.000000
    683         10.160148  -0.000000
    684         10.167563  -0.000000
    685         10.169876  -0.000000
    686         10.175371  -0.000000
    687         10.177590  -0.000000
    688         10.187653  -0.000000
    689         10.190687  -0.000000
    690         10.195554  -0.000000
    691         10.207569  -0.000000
