       N       E                     dE             d eps       ncg     rms          rms(c)
DAV:   1     0.127818526263E+05    0.12782E+05   -0.55793E+05 35948   0.151E+03
DAV:   2     0.512550847668E+03   -0.12269E+05   -0.11963E+05 37764   0.500E+02
DAV:   3    -0.665830128986E+03   -0.11784E+04   -0.11234E+04 56632   0.111E+02
DAV:   4    -0.840196625469E+03   -0.17437E+03   -0.17153E+03 55136   0.349E+01
DAV:   5    -0.856420246359E+03   -0.16224E+02   -0.16129E+02 50248   0.883E+00    0.991E+01
DAV:   6    -0.826993735828E+03    0.29427E+02   -0.52092E+01 41528   0.104E+01    0.383E+01
DAV:   7    -0.821474291256E+03    0.55194E+01   -0.29698E+01 44960   0.691E+00    0.777E+00
DAV:   8    -0.822778578246E+03   -0.13043E+01   -0.50358E+00 55488   0.426E+00    0.786E+00
DAV:   9    -0.821888523385E+03    0.89005E+00   -0.30841E+00 52072   0.333E+00    0.291E+00
DAV:  10    -0.821863495125E+03    0.25028E-01   -0.12997E+00 50760   0.212E+00    0.129E+00
DAV:  11    -0.821809326845E+03    0.54168E-01   -0.33739E-01 46472   0.111E+00    0.647E-01
DAV:  12    -0.821809946894E+03   -0.62005E-03   -0.85403E-02 49264   0.398E-01    0.422E-01
DAV:  13    -0.821813221704E+03   -0.32748E-02   -0.24710E-02 48144   0.312E-01    0.322E-01
DAV:  14    -0.821809061789E+03    0.41599E-02   -0.12637E-02 48568   0.274E-01    0.170E-01
DAV:  15    -0.821808731275E+03    0.33051E-03   -0.36007E-03 53416   0.109E-01    0.118E-01
DAV:  16    -0.821808716960E+03    0.14315E-04   -0.94042E-04 48536   0.460E-02    0.719E-02
DAV:  17    -0.821808695154E+03    0.21805E-04   -0.22514E-04 49216   0.245E-02    0.323E-02
DAV:  18    -0.821808685561E+03    0.95935E-05   -0.96016E-05 48768   0.163E-02    0.112E-02
DAV:  19    -0.821808686431E+03   -0.86965E-06   -0.24243E-05 40776   0.840E-03    0.753E-03
DAV:  20    -0.821808687276E+03   -0.84544E-06   -0.64337E-06 37664   0.447E-03
   1 F= -.82180869E+03 E0= -.82186980E+03  d E =-.821809E+03
       N       E                     dE             d eps       ncg     rms          rms(c)
DAV:   1    -0.821812919653E+03   -0.42332E-02   -0.25083E-01 37728   0.737E-01    0.662E-02
DAV:   2    -0.821813414355E+03   -0.49470E-03   -0.53613E-03 41328   0.109E-01    0.440E-02
DAV:   3    -0.821813465063E+03   -0.50708E-04   -0.42175E-04 56104   0.357E-02    0.409E-02
DAV:   4    -0.821813426087E+03    0.38976E-04   -0.11231E-04 47920   0.262E-02    0.258E-02
DAV:   5    -0.821813425072E+03    0.10148E-05   -0.50729E-05 45312   0.137E-02    0.129E-02
DAV:   6    -0.821813421138E+03    0.39344E-05   -0.19033E-05 43576   0.973E-03    0.485E-03
DAV:   7    -0.821813420780E+03    0.35740E-06   -0.52329E-06 35536   0.413E-03
   2 F= -.82181342E+03 E0= -.82187453E+03  d E =-.473350E-02
       N       E                     dE             d eps       ncg     rms          rms(c)
DAV:   1    -0.821817035403E+03   -0.36143E-02   -0.21411E-01 37248   0.682E-01    0.609E-02
DAV:   2    -0.821817462832E+03   -0.42743E-03   -0.45960E-03 41344   0.101E-01    0.418E-02
DAV:   3    -0.821817508157E+03   -0.45324E-04   -0.37936E-04 56248   0.358E-02    0.403E-02
DAV:   4    -0.821817468053E+03    0.40104E-04   -0.10453E-04 47952   0.250E-02    0.241E-02
DAV:   5    -0.821817468180E+03   -0.12739E-06   -0.43578E-05 45264   0.124E-02    0.119E-02
DAV:   6    -0.821817465071E+03    0.31094E-05   -0.16833E-05 42968   0.910E-03    0.469E-03
DAV:   7    -0.821817464695E+03    0.37596E-06   -0.45930E-06 34456   0.392E-03
   3 F= -.82181746E+03 E0= -.82187856E+03  d E =-.404391E-02
       N       E                     dE             d eps       ncg     rms          rms(c)
DAV:   1    -0.821820483766E+03   -0.30187E-02   -0.17853E-01 37104   0.624E-01    0.552E-02
DAV:   2    -0.821820843511E+03   -0.35975E-03   -0.38452E-03 41312   0.923E-02    0.381E-02
DAV:   3    -0.821820880937E+03   -0.37426E-04   -0.31965E-04 56256   0.330E-02    0.370E-02
DAV:   4    -0.821820846816E+03    0.34121E-04   -0.87223E-05 47400   0.227E-02    0.218E-02
DAV:   5    -0.821820847211E+03   -0.39510E-06   -0.35831E-05 45344   0.112E-02    0.108E-02
DAV:   6    -0.821820844572E+03    0.26395E-05   -0.14061E-05 41760   0.829E-03    0.425E-03
DAV:   7    -0.821820844278E+03    0.29424E-06   -0.37613E-06 33248   0.354E-03
   4 F= -.82182084E+03 E0= -.82188192E+03  d E =-.337958E-02
       N       E                     dE             d eps       ncg     rms          rms(c)
DAV:   1    -0.821823476032E+03   -0.26315E-02   -0.15271E-01 37056   0.579E-01    0.504E-02
DAV:   2    -0.821823787063E+03   -0.31103E-03   -0.33048E-03 41392   0.856E-02    0.350E-02
DAV:   3    -0.821823818131E+03   -0.31068E-04   -0.27552E-04 56392   0.307E-02    0.342E-02
DAV:   4    -0.821823789107E+03    0.29024E-04   -0.73266E-05 46640   0.206E-02    0.200E-02
DAV:   5    -0.821823789615E+03   -0.50721E-06   -0.29924E-05 45520   0.102E-02    0.100E-02
DAV:   6    -0.821823787332E+03    0.22822E-05   -0.11970E-05 40168   0.763E-03    0.389E-03
DAV:   7    -0.821823787102E+03    0.23065E-06   -0.31762E-06 32448   0.323E-03
   5 F= -.82182379E+03 E0= -.82188484E+03  d E =-.294282E-02
       N       E                     dE             d eps       ncg     rms          rms(c)
DAV:   1    -0.821826087073E+03   -0.22997E-02   -0.13548E-01 36872   0.546E-01    0.470E-02
DAV:   2    -0.821826365073E+03   -0.27800E-03   -0.29385E-03 41344   0.808E-02    0.329E-02
DAV:   3    -0.821826391898E+03   -0.26826E-04   -0.24773E-04 56576   0.292E-02    0.322E-02
DAV:   4    -0.821826366371E+03    0.25528E-04   -0.63758E-05 46080   0.192E-02    0.188E-02
DAV:   5    -0.821826366937E+03   -0.56655E-06   -0.25974E-05 45136   0.949E-03    0.943E-03
DAV:   6    -0.821826364896E+03    0.20417E-05   -0.10610E-05 39152   0.718E-03    0.364E-03
DAV:   7    -0.821826364701E+03    0.19415E-06   -0.27290E-06 31016   0.301E-03
   6 F= -.82182636E+03 E0= -.82188740E+03  d E =-.257760E-02
       N       E                     dE             d eps       ncg     rms          rms(c)
DAV:   1    -0.821828361449E+03   -0.19966E-02   -0.11576E-01 36976   0.506E-01    0.431E-02
DAV:   2    -0.821828600823E+03   -0.23937E-03   -0.25192E-03 41400   0.748E-02    0.302E-02
DAV:   3    -0.821828623117E+03   -0.22293E-04   -0.21273E-04 56600   0.270E-02    0.296E-02
DAV:   4    -0.821828601666E+03    0.21451E-04   -0.53096E-05 45360   0.175E-02    0.172E-02
DAV:   5    -0.821828602220E+03   -0.55454E-06   -0.21776E-05 44408   0.870E-03    0.870E-03
DAV:   6    -0.821828600439E+03    0.17817E-05   -0.90561E-06 37744   0.664E-03    0.331E-03
DAV:   7    -0.821828600291E+03    0.14721E-06   -0.22479E-06 29384   0.279E-03
   7 F= -.82182860E+03 E0= -.82188961E+03  d E =-.223559E-02
       N       E                     dE             d eps       ncg     rms          rms(c)
DAV:   1    -0.821830334338E+03   -0.17339E-02   -0.10039E-01 36848   0.473E-01    0.395E-02
DAV:   2    -0.821830545016E+03   -0.21068E-03   -0.22020E-03 41568   0.700E-02    0.281E-02
DAV:   3    -0.821830562905E+03   -0.17889E-04   -0.18580E-04 56400   0.254E-02    0.274E-02
DAV:   4    -0.821830545043E+03    0.17862E-04   -0.43705E-05 44800   0.158E-02    0.160E-02
DAV:   5    -0.821830545562E+03   -0.51961E-06   -0.18321E-05 42992   0.798E-03    0.810E-03
DAV:   6    -0.821830544000E+03    0.15628E-05   -0.79156E-06 36704   0.620E-03    0.306E-03
DAV:   7    -0.821830543918E+03    0.81796E-07   -0.18818E-06 27792   0.269E-03
   8 F= -.82183054E+03 E0= -.82189153E+03  d E =-.194363E-02
       N       E                     dE             d eps       ncg     rms          rms(c)
DAV:   1    -0.821832070152E+03   -0.15262E-02   -0.88011E-02 36776   0.444E-01    0.365E-02
DAV:   2    -0.821832254454E+03   -0.18430E-03   -0.19384E-03 41616   0.655E-02    0.256E-02
DAV:   3    -0.821832271686E+03   -0.17232E-04   -0.16009E-04 56296   0.229E-02    0.253E-02
DAV:   4    -0.821832256269E+03    0.15416E-04   -0.37200E-05 43784   0.147E-02    0.149E-02
DAV:   5    -0.821832256707E+03   -0.43765E-06   -0.15832E-05 42008   0.739E-03    0.762E-03
DAV:   6    -0.821832255308E+03    0.13993E-05   -0.70113E-06 35928   0.583E-03    0.281E-03
DAV:   7    -0.821832255231E+03    0.76208E-07   -0.15649E-06 26320   0.250E-03
   9 F= -.82183226E+03 E0= -.82189321E+03  d E =-.171131E-02
       N       E                     dE             d eps       ncg     rms          rms(c)
DAV:   1    -0.821833592224E+03   -0.13369E-02   -0.76314E-02 36704   0.415E-01    0.336E-02
DAV:   2    -0.821833753423E+03   -0.16120E-03   -0.16896E-03 41640   0.612E-02    0.237E-02
DAV:   3    -0.821833768020E+03   -0.14597E-04   -0.13928E-04 56304   0.212E-02    0.234E-02
DAV:   4    -0.821833754977E+03    0.13044E-04   -0.31418E-05 42864   0.134E-02    0.139E-02
DAV:   5    -0.821833755383E+03   -0.40651E-06   -0.13433E-05 40792   0.681E-03    0.709E-03
DAV:   6    -0.821833754150E+03    0.12329E-05   -0.61020E-06 34928   0.546E-03    0.260E-03
DAV:   7    -0.821833754119E+03    0.30908E-07   -0.13385E-06 25680   0.241E-03
  10 F= -.82183375E+03 E0= -.82189469E+03  d E =-.149889E-02
       N       E                     dE             d eps       ncg     rms          rms(c)
DAV:   1    -0.821834929234E+03   -0.11751E-02   -0.67240E-02 36680   0.391E-01    0.313E-02
DAV:   2    -0.821835072284E+03   -0.14305E-03   -0.14957E-03 41784   0.577E-02    0.222E-02
DAV:   3    -0.821835084823E+03   -0.12539E-04   -0.12333E-04 56232   0.199E-02    0.219E-02
DAV:   4    -0.821835073522E+03    0.11301E-04   -0.27303E-05 41512   0.124E-02    0.130E-02
DAV:   5    -0.821835073885E+03   -0.36276E-06   -0.11699E-05 40392   0.637E-03    0.668E-03
DAV:   6    -0.821835072792E+03    0.10926E-05   -0.54111E-06 34480   0.513E-03    0.242E-03
DAV:   7    -0.821835072766E+03    0.26019E-07   -0.11671E-06 25136   0.226E-03
  11 F= -.82183507E+03 E0= -.82189598E+03  d E =-.131865E-02
       N       E                     dE             d eps       ncg     rms          rms(c)
DAV:   1    -0.821836121233E+03   -0.10484E-02   -0.59375E-02 36618   0.369E-01    0.293E-02
DAV:   2    -0.821836248809E+03   -0.12758E-03   -0.13275E-03 41896   0.545E-02    0.209E-02
DAV:   3    -0.821836259278E+03   -0.10469E-04   -0.11022E-04 56205   0.189E-02    0.206E-02
DAV:   4    -0.821836249458E+03    0.98200E-05   -0.23783E-05 40256   0.115E-02    0.122E-02
DAV:   5    -0.821836249777E+03   -0.31850E-06   -0.10206E-05 39104   0.598E-03    0.631E-03
DAV:   6    -0.821836248811E+03    0.96518E-06   -0.47946E-06 33880   0.485E-03
  12 F= -.82183625E+03 E0= -.82189714E+03  d E =-.117605E-02
       N       E                     dE             d eps       ncg     rms          rms(c)
DAV:   1    -0.821837160637E+03   -0.91086E-03   -0.51684E-02 36586   0.345E-01    0.271E-02
DAV:   2    -0.821837276258E+03   -0.11562E-03   -0.11632E-03 42056   0.517E-02    0.210E-02
DAV:   3    -0.821837279757E+03   -0.34986E-05   -0.10250E-04 57128   0.191E-02    0.190E-02
DAV:   4    -0.821837272870E+03    0.68872E-05   -0.19554E-05 39888   0.982E-03    0.115E-02
DAV:   5    -0.821837273162E+03   -0.29238E-06   -0.84735E-06 37200   0.559E-03
  13 F= -.82183727E+03 E0= -.82189813E+03  d E =-.102435E-02
       N       E                     dE             d eps       ncg     rms          rms(c)
DAV:   1    -0.821838089620E+03   -0.81675E-03   -0.46537E-02 36538   0.328E-01    0.251E-02
DAV:   2    -0.821838190865E+03   -0.10125E-03   -0.10461E-03 42064   0.482E-02    0.180E-02
DAV:   3    -0.821838199024E+03   -0.81587E-05   -0.85845E-05 55824   0.161E-02    0.179E-02
DAV:   4    -0.821838191903E+03    0.71211E-05   -0.16784E-05 36584   0.951E-03    0.107E-02
DAV:   5    -0.821838192360E+03   -0.45769E-06   -0.78942E-06 37280   0.549E-03
  14 F= -.82183819E+03 E0= -.82189903E+03  d E =-.919198E-03
       N       E                     dE             d eps       ncg     rms          rms(c)
DAV:   1    -0.821838915292E+03   -0.72339E-03   -0.40818E-02 36546   0.308E-01    0.232E-02
DAV:   2    -0.821839004581E+03   -0.89289E-04   -0.92200E-04 42208   0.452E-02    0.167E-02
DAV:   3    -0.821839011612E+03   -0.70309E-05   -0.75225E-05 55608   0.150E-02    0.166E-02
DAV:   4    -0.821839005509E+03    0.61024E-05   -0.14221E-05 36160   0.871E-03    0.985E-03
DAV:   5    -0.821839005893E+03   -0.38318E-06   -0.68755E-06 36912   0.491E-03
  15 F= -.82183901E+03 E0= -.82189982E+03  d E =-.813532E-03
       N       E                     dE             d eps       ncg     rms          rms(c)
DAV:   1    -0.821839658686E+03   -0.65318E-03   -0.35486E-02 36514   0.288E-01    0.215E-02
DAV:   2    -0.821839736592E+03   -0.77905E-04   -0.80438E-04 42112   0.424E-02    0.154E-02
DAV:   3    -0.821839742845E+03   -0.62536E-05   -0.66228E-05 55608   0.140E-02    0.154E-02
DAV:   4    -0.821839737558E+03    0.52871E-05   -0.12375E-05 35816   0.811E-03    0.923E-03
DAV:   5    -0.821839737894E+03   -0.33599E-06   -0.58518E-06 35496   0.467E-03
  16 F= -.82183974E+03 E0= -.82190054E+03  d E =-.732002E-03
       N       E                     dE             d eps       ncg     rms          rms(c)
DAV:   1    -0.821840342541E+03   -0.60498E-03   -0.33206E-02 36466   0.279E-01    0.206E-02
DAV:   2    -0.821840415772E+03   -0.73230E-04   -0.75479E-04 42232   0.410E-02    0.149E-02
DAV:   3    -0.821840421327E+03   -0.55558E-05   -0.61595E-05 55512   0.135E-02    0.148E-02
DAV:   4    -0.821840416532E+03    0.47951E-05   -0.11202E-05 35656   0.769E-03    0.887E-03
DAV:   5    -0.821840416807E+03   -0.27446E-06   -0.53351E-06 35224   0.439E-03
  17 F= -.82184042E+03 E0= -.82190120E+03  d E =-.678913E-03
       N       E                     dE             d eps       ncg     rms          rms(c)
DAV:   1    -0.821840986052E+03   -0.56952E-03   -0.30167E-02 36434   0.267E-01    0.196E-02
DAV:   2    -0.821841052737E+03   -0.66685E-04   -0.68765E-04 42176   0.393E-02    0.141E-02
DAV:   3    -0.821841057826E+03   -0.50895E-05   -0.56195E-05 55552   0.129E-02    0.141E-02
DAV:   4    -0.821841053467E+03    0.43589E-05   -0.10219E-05 35544   0.733E-03    0.849E-03
DAV:   5    -0.821841053717E+03   -0.25035E-06   -0.47825E-06 34576   0.423E-03
  18 F= -.82184105E+03 E0= -.82190182E+03  d E =-.636911E-03
       N       E                     dE             d eps       ncg     rms          rms(c)
DAV:   1    -0.821841592153E+03   -0.53869E-03   -0.28671E-02 36434   0.260E-01    0.190E-02
DAV:   2    -0.821841655606E+03   -0.63454E-04   -0.65413E-04 42248   0.383E-02    0.137E-02
DAV:   3    -0.821841660379E+03   -0.47730E-05   -0.53090E-05 55512   0.125E-02    0.137E-02
DAV:   4    -0.821841656307E+03    0.40722E-05   -0.95097E-06 35312   0.706E-03    0.824E-03
DAV:   5    -0.821841656526E+03   -0.21956E-06   -0.44445E-06 34160   0.406E-03
  19 F= -.82184166E+03 E0= -.82190241E+03  d E =-.602809E-03
       N       E                     dE             d eps       ncg     rms          rms(c)
DAV:   1    -0.821842157913E+03   -0.50161E-03   -0.26271E-02 36420   0.250E-01    0.179E-02
DAV:   2    -0.821842216221E+03   -0.58307E-04   -0.60040E-04 42272   0.367E-02    0.130E-02
DAV:   3    -0.821842220506E+03   -0.42857E-05   -0.48589E-05 55469   0.119E-02    0.130E-02
DAV:   4    -0.821842216888E+03    0.36183E-05   -0.84792E-06 34968   0.664E-03    0.787E-03
DAV:   5    -0.821842217073E+03   -0.18459E-06   -0.39240E-06 33344   0.386E-03
  20 F= -.82184222E+03 E0= -.82190295E+03  d E =-.560546E-03
       N       E                     dE             d eps       ncg     rms          rms(c)
DAV:   1    -0.821842681767E+03   -0.46488E-03   -0.24224E-02 36364   0.240E-01    0.171E-02
DAV:   2    -0.821842735629E+03   -0.53862E-04   -0.55478E-04 42304   0.353E-02    0.124E-02
DAV:   3    -0.821842739558E+03   -0.39283E-05   -0.44612E-05 55432   0.114E-02    0.124E-02
DAV:   4    -0.821842736247E+03    0.33106E-05   -0.77408E-06 34832   0.634E-03    0.755E-03
DAV:   5    -0.821842736402E+03   -0.15507E-06   -0.35176E-06 32712   0.366E-03
  21 F= -.82184274E+03 E0= -.82190346E+03  d E =-.519330E-03
       N       E                     dE             d eps       ncg     rms          rms(c)
DAV:   1    -0.821843172839E+03   -0.43659E-03   -0.22768E-02 36362   0.233E-01    0.165E-02
DAV:   2    -0.821843223444E+03   -0.50605E-04   -0.52116E-04 42264   0.342E-02    0.119E-02
DAV:   3    -0.821843227138E+03   -0.36945E-05   -0.42011E-05 55448   0.110E-02    0.120E-02
DAV:   4    -0.821843224077E+03    0.30615E-05   -0.71617E-06 34592   0.608E-03    0.728E-03
DAV:   5    -0.821843224208E+03   -0.13137E-06   -0.31971E-06 32144   0.352E-03
  22 F= -.82184322E+03 E0= -.82190393E+03  d E =-.487806E-03
       N       E                     dE             d eps       ncg     rms          rms(c)
DAV:   1    -0.821843627231E+03   -0.40315E-03   -0.20489E-02 36356   0.221E-01    0.155E-02
DAV:   2    -0.821843672854E+03   -0.45624E-04   -0.46977E-04 42280   0.325E-02    0.113E-02
DAV:   3    -0.821843676156E+03   -0.33019E-05   -0.37873E-05 55453   0.104E-02    0.113E-02
DAV:   4    -0.821843673447E+03    0.27094E-05   -0.63319E-06 34232   0.572E-03    0.691E-03
DAV:   5    -0.821843673551E+03   -0.10360E-06   -0.27908E-06 31296   0.331E-03
  23 F= -.82184367E+03 E0= -.82190437E+03  d E =-.449342E-03
       N       E                     dE             d eps       ncg     rms          rms(c)
DAV:   1    -0.821844056950E+03   -0.38350E-03   -0.19128E-02 36356   0.214E-01    0.150E-02
DAV:   2    -0.821844099644E+03   -0.42694E-04   -0.43960E-04 42288   0.315E-02    0.109E-02
DAV:   3    -0.821844102719E+03   -0.30750E-05   -0.35347E-05 55376   0.100E-02    0.109E-02
DAV:   4    -0.821844100211E+03    0.25079E-05   -0.58366E-06 33816   0.550E-03    0.668E-03
DAV:   5    -0.821844100296E+03   -0.85478E-07   -0.25314E-06 30560   0.318E-03
  24 F= -.82184410E+03 E0= -.82190479E+03  d E =-.426746E-03
       N       E                     dE             d eps       ncg     rms          rms(c)
DAV:   1    -0.821844462919E+03   -0.36271E-03   -0.17844E-02 36386   0.207E-01    0.145E-02
DAV:   2    -0.821844502817E+03   -0.39898E-04   -0.41097E-04 42376   0.305E-02    0.105E-02
DAV:   3    -0.821844505675E+03   -0.28584E-05   -0.32904E-05 55128   0.974E-03    0.106E-02
DAV:   4    -0.821844503321E+03    0.23545E-05   -0.54588E-06 33664   0.534E-03    0.647E-03
DAV:   5    -0.821844503401E+03   -0.80501E-07   -0.23371E-06 30072   0.308E-03
  25 F= -.82184450E+03 E0= -.82190518E+03  d E =-.403105E-03
       N       E                     dE             d eps       ncg     rms          rms(c)
DAV:   1    -0.821844836112E+03   -0.33279E-03   -0.16314E-02 36372   0.198E-01    0.138E-02
DAV:   2    -0.821844872463E+03   -0.36351E-04   -0.37573E-04 42320   0.291E-02    0.994E-03
DAV:   3    -0.821844875253E+03   -0.27906E-05   -0.29799E-05 54261   0.913E-03    0.101E-02
DAV:   4    -0.821844873095E+03    0.21583E-05   -0.48898E-06 32984   0.509E-03    0.618E-03
DAV:   5    -0.821844873154E+03   -0.59270E-07   -0.20794E-06 29464   0.292E-03
  26 F= -.82184487E+03 E0= -.82190554E+03  d E =-.369753E-03
       N       E                     dE             d eps       ncg     rms          rms(c)
DAV:   1    -0.821845194626E+03   -0.32153E-03   -0.15009E-02 36372   0.190E-01    0.132E-02
DAV:   2    -0.821845227941E+03   -0.33315E-04   -0.34624E-04 42376   0.279E-02    0.938E-03
DAV:   3    -0.821845230717E+03   -0.27761E-05   -0.26921E-05 53576   0.855E-03    0.959E-03
DAV:   4    -0.821845228703E+03    0.20143E-05   -0.44852E-06 32688   0.493E-03    0.593E-03
DAV:   5    -0.821845228746E+03   -0.43336E-07   -0.18378E-06 28664   0.278E-03
  27 F= -.82184523E+03 E0= -.82190588E+03  d E =-.355592E-03
       N       E                     dE             d eps       ncg     rms          rms(c)
DAV:   1    -0.821845519895E+03   -0.29119E-03   -0.13643E-02 36378   0.181E-01    0.125E-02
DAV:   2    -0.821845550034E+03   -0.30139E-04   -0.31480E-04 42408   0.265E-02    0.877E-03
DAV:   3    -0.821845552714E+03   -0.26801E-05   -0.23849E-05 53200   0.787E-03    0.904E-03
DAV:   4    -0.821845550887E+03    0.18265E-05   -0.40314E-06 32344   0.472E-03    0.565E-03
DAV:   5    -0.821845550917E+03   -0.30181E-07   -0.15793E-06 27880   0.263E-03
  28 F= -.82184555E+03 E0= -.82190619E+03  d E =-.322171E-03
       N       E                     dE             d eps       ncg     rms          rms(c)
DAV:   1    -0.821845826546E+03   -0.27566E-03   -0.12859E-02 36356   0.176E-01    0.120E-02
DAV:   2    -0.821845854896E+03   -0.28350E-04   -0.29640E-04 42376   0.257E-02    0.843E-03
DAV:   3    -0.821845857437E+03   -0.25413E-05   -0.22236E-05 52341   0.752E-03    0.869E-03
DAV:   4    -0.821845855748E+03    0.16897E-05   -0.37694E-06 32096   0.455E-03    0.546E-03
DAV:   5    -0.821845855766E+03   -0.17884E-07   -0.14298E-06 27248   0.252E-03
  29 F= -.82184586E+03 E0= -.82190649E+03  d E =-.304848E-03
