TT_c image 01
1.0
      6.46831269532822    -11.20344622755126      0.00000000000000
      6.46831269532822     11.20344622755126      0.00000000000000
      0.00000000000000      0.00000000000000     15.49806442517753
  Zr  H
  96  1
Direct
      0.08320970910213      0.16623496063884      0.08323424991081
      0.16696858072923      0.08367229557500      0.25015027174091
      0.08277578872146      0.16674238874844      0.41617803606037
      0.16641491222698      0.08304302636585      0.58356637455804
      0.08264724324243      0.16600355528029      0.75054726951048
      0.16675172088698      0.08335078249243      0.91677355936417
      0.08320971149113      0.41697475027380      0.08323425081559
      0.16552020090815      0.33276009807474      0.24918560377277
      0.08277578427248      0.41603340152104      0.41617803391088
      0.16291830358098      0.33145915042752      0.58475460950175
      0.08264723978423      0.41664368678934      0.75054727451583
      0.16624112847358      0.33312056376386      0.91711077416363
      0.08331029497741      0.66668570611809      0.08345992920043
      0.16696858042402      0.58329628846858      0.25015027651511
      0.08339660915751      0.66663372722571      0.41669358715767
      0.16641491338315      0.58337188857610      0.58356637395200
      0.08341619474147      0.66667616313924      0.75017875859392
      0.16675172268789      0.58340094415043      0.91677355787567
      0.08331029423041      0.91662458744796      0.08345993013600
      0.16663028208825      0.83331513826123      0.24998538354182
      0.08339661315842      0.91676288495173      0.41669358447742
      0.16668813042149      0.83334406579549      0.58334556428351
      0.08341619235910      0.91674003063188      0.75017875851144
      0.16662763272582      0.83331381481486      0.91673330044468
      0.33315465691075      0.16638268984984      0.08328200276360
      0.41673236809382      0.08302514735895      0.24967103848572
      0.33406960266648      0.16666701049284      0.41628365893260
      0.41678349048714      0.08251697064517      0.58324447879906
      0.33341373226620      0.16618537661996      0.75040454505569
      0.41680897999171      0.08314344188459      0.91680486537711
      0.33324458063999      0.41662228568520      0.08309184806973
      0.41708112752466      0.33262538481767      0.24915489638067
      0.33342369722955      0.41671185019993      0.41202738215732
      0.41842654044701      0.33151946203012      0.58472710765149
      0.33340189233165      0.41670094589953      0.75308035934901
      0.41680943025231      0.33302191941626      0.91725037187361
      0.33315465582529      0.66677197508344      0.08328200411030
      0.41708113059282      0.58445574153535      0.24915489254879
      0.33406960289907      0.66740259542725      0.41628365726195
      0.41842652739788      0.58690707058575      0.58472710837972
      0.33341372950954      0.66722835752569      0.75040454742062
      0.41680943712200      0.58378751178084      0.91725037457911
      0.33302194719192      0.91651097143943      0.08311066025038
      0.41673237543716      0.83370722960922      0.24967103740309
      0.33348385217185      0.91674192494390      0.41627735109589
      0.41678348010136      0.83426651372069      0.58324447975707
      0.33350081148570      0.91675040283424      0.75023530446790
      0.41680898638738      0.83366554275755      0.91680486460252
      0.58335957742155      0.16667967703102      0.08326720293544
      0.66675156145770      0.08337577565405      0.24986932210309
      0.58352440977191      0.16637391947395      0.41651992988308
      0.66673439842995      0.08336719600427      0.58331636874361
      0.58338497069779      0.16668530678102      0.74967234147742
      0.66666234771240      0.08333116643128      0.91652140334303
      0.58363733423636      0.41684850272391      0.08321457307465
      0.66684873908558      0.33332378245181      0.24975105985996
      0.58331537186206      0.41587494818883      0.41616464457328
      0.66740684392016      0.33327527362370      0.58323130741129
      0.58390037504789      0.41652534421511      0.75050272150085
      0.66680157844121      0.33324857364016      0.91677953803147
      0.58363733837788      0.66678884171696      0.08321457253898
      0.66608806514171      0.58304403277458      0.25012695120226
      0.58331536927042      0.66744041982206      0.41616464469495
      0.66696723214914      0.58348361891281      0.58352922777393
      0.58390037430366      0.66737502941630      0.75050271902823
      0.66659000868938      0.58329500499597      0.91674349828229
      0.58335958515160      0.91667989701741      0.08326720033963
      0.66684874234411      0.83352495728246      0.24975106026059
      0.58352441439974      0.91715049087998      0.41651992915213
      0.66740684296022      0.83413157333209      0.58323130978419
      0.58338497394717      0.91669966225000      0.74967234325280
      0.66680158506743      0.83355301216542      0.91677953436971
      0.83334831604657      0.16667415542445      0.08329311820808
      0.91645679792296      0.08305620827850      0.24963361054421
      0.83307543546730      0.16653771384519      0.41654954740080
      0.91580260899288      0.08256865388282      0.58327195244863
      0.83337103658497      0.16668550917054      0.74980776877764
      0.91643770468835      0.08317451678612      0.91688417153560
      0.83342870867844      0.41688213802904      0.08312673583675
      0.91645679910595      0.33340058717172      0.24963361221423
      0.83324221878979      0.41648046202762      0.41628936179861
      0.91580260996869      0.33323396001221      0.58327195110686
      0.83325583218636      0.41650685813662      0.75023407602726
      0.91643771154485      0.33326318830207      0.91688416959934
      0.83335943763079      0.66667972128283      0.08339802146046
      0.91665856539972      0.58334095409228      0.24995775807157
      0.83324512150256      0.66662256292507      0.41661104719073
      0.91665657120709      0.58335299684886      0.58332336798301
      0.83327352982200      0.66663676756320      0.75010751255865
      0.91667757136266      0.58336159043519      0.91668014443097
      0.83342869989067      0.91654656414996      0.08312673419077
      0.91665856346663      0.83331760827304      0.24995775529970
      0.83324221078622      0.91676175817312      0.41628936098241
      0.91665657214926      0.83330357757898      0.58332336779660
      0.83325582321485      0.91674897440905      0.75023407425463
      0.91667756973191      0.83331597866874      0.91668014765758
      0.33323085856690      0.41661543273845      0.55930241305348
