TT_c image 04                           
   1.00000000000000     
     6.4683126953282200  -11.2034462275512592    0.0000000000000000
     6.4683126953282200   11.2034462275512592    0.0000000000000000
     0.0000000000000000    0.0000000000000000   15.4980644251775299
   Zr   H 
    96     1
Direct
  0.0832409141116859  0.1662854131060451  0.0833765738972519
  0.1667313387921002  0.0833377598336102  0.2498667762576579
  0.0826417477135631  0.1659766709332144  0.4161348677318340
  0.1666438648518677  0.0834092049115861  0.5831567661887018
  0.0827736149924533  0.1667269023132472  0.7503820614571031
  0.1669391127233507  0.0836032423214852  0.9165688698255678
  0.0832409161035360  0.4169555021273665  0.0833765733849727
  0.1665751736520726  0.3332875890758893  0.2496416443081071
  0.0826417477552259  0.4166650754744498  0.4161348658261038
  0.1593096428809950  0.3296548196844095  0.5815855227116428
  0.0827736179943845  0.4160467133342468  0.7503820637436464
  0.1664892109033581  0.3332446059839727  0.9168830680851324
  0.0833164445789345  0.6666730631435647  0.0832132330828883
  0.1667313420721765  0.5833935794649298  0.2498667759797976
  0.0833826362198787  0.6666577311429058  0.4165480662334807
  0.1666438629755034  0.5832346599605562  0.5831567651147356
  0.0833753077375723  0.6666181302226698  0.7499094582068100
  0.1669391170874408  0.5833358725496703  0.9165688702158477
  0.0833164426070298  0.9166433812500872  0.0832132323669776
  0.1666516601647630  0.8333258300025481  0.2499561420106291
  0.0833826341158253  0.9167249044503303  0.4165480667032202
  0.1666767511699716  0.8333383792599757  0.5833187224831462
  0.0833753056994462  0.9167571797199987  0.7499094581193761
  0.1666375986766278  0.8333187993239306  0.9166538351852506
  0.3331567679361056  0.1664144433431926  0.0833703758712876
  0.4168262979876689  0.0831794863333217  0.2498829603644782
  0.3333937187482194  0.1661712444703235  0.4162728418870733
  0.4166552201013077  0.0818853478159718  0.5833812750230138
  0.3340405612118333  0.1666459566216234  0.7503173089859660
  0.4167965507815726  0.0831270865033391  0.9169707365131239
  0.3332824274541345  0.4166412142411223  0.0834575082539109
  0.4166540415263678  0.3332097561088104  0.2495079345968505
  0.3333958433968965  0.4166979214384416  0.4131682167289292
  0.4202355957030025  0.3296817572181493  0.5816643414467186
  0.3333944963490308  0.4166972476959159  0.7519822538013123
  0.4166641624818839  0.3331070017020921  0.9169579355294842
  0.3331567716252931  0.6667423267680229  0.0833703752796026
  0.4166540425434465  0.5834442858218912  0.2495079337470594
  0.3333937199044812  0.6672224739117875  0.4162728394114895
  0.4202355956444472  0.5905538373313919  0.5816643411426192
  0.3340405623891033  0.6673946058899423  0.7503173129644177
  0.4166641637746998  0.5835571612944064  0.9169579366481255
  0.3330309377576468  0.9165154681098540  0.0834909261422887
  0.4168263005591135  0.8336468096531490  0.2498829593718767
  0.3334404596945219  0.9167202304244838  0.4162986359591536
  0.4166552228350278  0.8347698759302206  0.5833812738691012
  0.3334547873446919  0.9167273937431880  0.7504538002686468
  0.4167965558241500  0.8336694654202467  0.9169707384922519
  0.5833248689150696  0.1666808733448561  0.0834415740055428
  0.6666972840271455  0.0833486399804183  0.2502449362697385
  0.5833630658830493  0.1667018285863097  0.4171268381390181
  0.6667476332752011  0.0833738142782450  0.5833991405842752
  0.5835136513275962  0.1663818033094993  0.7500236045856353
  0.6667508718509542  0.0833754321207105  0.9167817267576345
  0.5836153244495222  0.4168663003101803  0.0833988398378441
  0.6667503126549178  0.3332409746666837  0.2498967366004853
  0.5839227483733789  0.4165262316802263  0.4161660451786245
  0.6680251721722442  0.3334178996524391  0.5833785516820394
  0.5833523413308873  0.4159027599660792  0.7504080651539560
  0.6667733406115502  0.3332670315284676  0.9168855470665102
  0.5836153246122433  0.6667490306695053  0.0833988406655261
  0.6665889710588301  0.5832944876263287  0.2499017045462956
  0.5839227493758019  0.6673965180864372  0.4161660445356494
  0.6665408241973820  0.5832704127658226  0.5831846855105639
  0.5833523466253731  0.6674495870305098  0.7504080665888908
  0.6661983313665873  0.5830991693725441  0.9166134832972512
  0.5833248709975675  0.9166439905891417  0.0834415746531788
  0.6667503153846209  0.8335093379089490  0.2498967363465354
  0.5833630670844147  0.9166612348951844  0.4171268365312935
  0.6680251723680863  0.8346072749505206  0.5833785522413348
  0.5835136533899744  0.9171318459546907  0.7500236065525381
  0.6667733375330273  0.8335063056859967  0.9168855475818815
  0.8333895775270566  0.1666947865469411  0.0833684794096227
  0.9164647775335798  0.0832230922221412  0.2497952863692410
  0.8333981353576265  0.1666990647796547  0.4169628682060889
  0.9153182238636357  0.0819146131747669  0.5833487199287216
  0.8330876792579396  0.1665438354048365  0.7500196361778211
  0.9165021054051712  0.0831700284187433  0.9169619117336835
  0.8333668066117351  0.4168014529586047  0.0834894105881966
  0.9164647798766343  0.3332416840875193  0.2497952864823194
  0.8332805351345739  0.4165749250160282  0.4163024262791358
  0.9153182206796701  0.3334036070003761  0.5833487184064325
  0.8332609740626249  0.4165288710142013  0.7504374086403335
  0.9165021073993546  0.3333320727097172  0.9169619127267997
  0.8333134817083646  0.6666567442857163  0.0832903752265221
  0.9166648170302103  0.5833404131460226  0.2499588980206403
  0.8332735829800927  0.6666367942817902  0.4166121361939482
  0.9166499123418522  0.5833506010587046  0.5833422661796575
  0.8332383088930384  0.6666191576976380  0.7500003487867480
  0.9166508152048164  0.5833347799443026  0.9166955012087747
  0.8333668050840062  0.9165653517004244  0.0834894092589476
  0.9166648152174233  0.8333244052874383  0.2499588969671952
  0.8332805357565005  0.9167056119499271  0.4163024286529124
  0.9166499121719125  0.8332993162739292  0.5833422660745083
  0.8332609737365685  0.9167321052617482  0.7504374071912258
  0.9166508126507651  0.8333160375650003  0.9166955006262676
  0.3332342498283534  0.4166171225391809  0.6078004980878856
 
  0.00000000E+00  0.00000000E+00  0.00000000E+00
  0.00000000E+00  0.00000000E+00  0.00000000E+00
  0.00000000E+00  0.00000000E+00  0.00000000E+00
  0.00000000E+00  0.00000000E+00  0.00000000E+00
  0.00000000E+00  0.00000000E+00  0.00000000E+00
  0.00000000E+00  0.00000000E+00  0.00000000E+00
  0.00000000E+00  0.00000000E+00  0.00000000E+00
  0.00000000E+00  0.00000000E+00  0.00000000E+00
  0.00000000E+00  0.00000000E+00  0.00000000E+00
  0.00000000E+00  0.00000000E+00  0.00000000E+00
  0.00000000E+00  0.00000000E+00  0.00000000E+00
  0.00000000E+00  0.00000000E+00  0.00000000E+00
  0.00000000E+00  0.00000000E+00  0.00000000E+00
  0.00000000E+00  0.00000000E+00  0.00000000E+00
  0.00000000E+00  0.00000000E+00  0.00000000E+00
  0.00000000E+00  0.00000000E+00  0.00000000E+00
  0.00000000E+00  0.00000000E+00  0.00000000E+00
  0.00000000E+00  0.00000000E+00  0.00000000E+00
  0.00000000E+00  0.00000000E+00  0.00000000E+00
  0.00000000E+00  0.00000000E+00  0.00000000E+00
  0.00000000E+00  0.00000000E+00  0.00000000E+00
  0.00000000E+00  0.00000000E+00  0.00000000E+00
  0.00000000E+00  0.00000000E+00  0.00000000E+00
  0.00000000E+00  0.00000000E+00  0.00000000E+00
  0.00000000E+00  0.00000000E+00  0.00000000E+00
  0.00000000E+00  0.00000000E+00  0.00000000E+00
  0.00000000E+00  0.00000000E+00  0.00000000E+00
  0.00000000E+00  0.00000000E+00  0.00000000E+00
  0.00000000E+00  0.00000000E+00  0.00000000E+00
  0.00000000E+00  0.00000000E+00  0.00000000E+00
  0.00000000E+00  0.00000000E+00  0.00000000E+00
  0.00000000E+00  0.00000000E+00  0.00000000E+00
  0.00000000E+00  0.00000000E+00  0.00000000E+00
  0.00000000E+00  0.00000000E+00  0.00000000E+00
  0.00000000E+00  0.00000000E+00  0.00000000E+00
  0.00000000E+00  0.00000000E+00  0.00000000E+00
  0.00000000E+00  0.00000000E+00  0.00000000E+00
  0.00000000E+00  0.00000000E+00  0.00000000E+00
  0.00000000E+00  0.00000000E+00  0.00000000E+00
  0.00000000E+00  0.00000000E+00  0.00000000E+00
  0.00000000E+00  0.00000000E+00  0.00000000E+00
  0.00000000E+00  0.00000000E+00  0.00000000E+00
  0.00000000E+00  0.00000000E+00  0.00000000E+00
  0.00000000E+00  0.00000000E+00  0.00000000E+00
  0.00000000E+00  0.00000000E+00  0.00000000E+00
  0.00000000E+00  0.00000000E+00  0.00000000E+00
  0.00000000E+00  0.00000000E+00  0.00000000E+00
  0.00000000E+00  0.00000000E+00  0.00000000E+00
  0.00000000E+00  0.00000000E+00  0.00000000E+00
  0.00000000E+00  0.00000000E+00  0.00000000E+00
  0.00000000E+00  0.00000000E+00  0.00000000E+00
  0.00000000E+00  0.00000000E+00  0.00000000E+00
  0.00000000E+00  0.00000000E+00  0.00000000E+00
  0.00000000E+00  0.00000000E+00  0.00000000E+00
  0.00000000E+00  0.00000000E+00  0.00000000E+00
  0.00000000E+00  0.00000000E+00  0.00000000E+00
  0.00000000E+00  0.00000000E+00  0.00000000E+00
  0.00000000E+00  0.00000000E+00  0.00000000E+00
  0.00000000E+00  0.00000000E+00  0.00000000E+00
  0.00000000E+00  0.00000000E+00  0.00000000E+00
  0.00000000E+00  0.00000000E+00  0.00000000E+00
  0.00000000E+00  0.00000000E+00  0.00000000E+00
  0.00000000E+00  0.00000000E+00  0.00000000E+00
  0.00000000E+00  0.00000000E+00  0.00000000E+00
  0.00000000E+00  0.00000000E+00  0.00000000E+00
  0.00000000E+00  0.00000000E+00  0.00000000E+00
  0.00000000E+00  0.00000000E+00  0.00000000E+00
  0.00000000E+00  0.00000000E+00  0.00000000E+00
  0.00000000E+00  0.00000000E+00  0.00000000E+00
  0.00000000E+00  0.00000000E+00  0.00000000E+00
  0.00000000E+00  0.00000000E+00  0.00000000E+00
  0.00000000E+00  0.00000000E+00  0.00000000E+00
  0.00000000E+00  0.00000000E+00  0.00000000E+00
  0.00000000E+00  0.00000000E+00  0.00000000E+00
  0.00000000E+00  0.00000000E+00  0.00000000E+00
  0.00000000E+00  0.00000000E+00  0.00000000E+00
  0.00000000E+00  0.00000000E+00  0.00000000E+00
  0.00000000E+00  0.00000000E+00  0.00000000E+00
  0.00000000E+00  0.00000000E+00  0.00000000E+00
  0.00000000E+00  0.00000000E+00  0.00000000E+00
  0.00000000E+00  0.00000000E+00  0.00000000E+00
  0.00000000E+00  0.00000000E+00  0.00000000E+00
  0.00000000E+00  0.00000000E+00  0.00000000E+00
  0.00000000E+00  0.00000000E+00  0.00000000E+00
  0.00000000E+00  0.00000000E+00  0.00000000E+00
  0.00000000E+00  0.00000000E+00  0.00000000E+00
  0.00000000E+00  0.00000000E+00  0.00000000E+00
  0.00000000E+00  0.00000000E+00  0.00000000E+00
  0.00000000E+00  0.00000000E+00  0.00000000E+00
  0.00000000E+00  0.00000000E+00  0.00000000E+00
  0.00000000E+00  0.00000000E+00  0.00000000E+00
  0.00000000E+00  0.00000000E+00  0.00000000E+00
  0.00000000E+00  0.00000000E+00  0.00000000E+00
  0.00000000E+00  0.00000000E+00  0.00000000E+00
  0.00000000E+00  0.00000000E+00  0.00000000E+00
  0.00000000E+00  0.00000000E+00  0.00000000E+00
  0.00000000E+00  0.00000000E+00  0.00000000E+00
