       N       E                     dE             d eps       ncg     rms          rms(c)
DAV:   1     0.127817276883E+05    0.12782E+05   -0.55793E+05 35948   0.151E+03
DAV:   2     0.514488428474E+03   -0.12267E+05   -0.11962E+05 37684   0.500E+02
DAV:   3    -0.665025117876E+03   -0.11795E+04   -0.11243E+04 56592   0.112E+02
DAV:   4    -0.840141657140E+03   -0.17512E+03   -0.17229E+03 55144   0.349E+01
DAV:   5    -0.856415925065E+03   -0.16274E+02   -0.16179E+02 50248   0.886E+00    0.991E+01
DAV:   6    -0.826990642548E+03    0.29425E+02   -0.52120E+01 41480   0.104E+01    0.383E+01
DAV:   7    -0.821477505676E+03    0.55131E+01   -0.29706E+01 45024   0.692E+00    0.778E+00
DAV:   8    -0.822762234800E+03   -0.12847E+01   -0.50426E+00 55440   0.425E+00    0.788E+00
DAV:   9    -0.821888566080E+03    0.87367E+00   -0.30621E+00 51952   0.332E+00    0.293E+00
DAV:  10    -0.821864195105E+03    0.24371E-01   -0.13059E+00 50688   0.213E+00    0.129E+00
DAV:  11    -0.821809391824E+03    0.54803E-01   -0.33791E-01 46496   0.112E+00    0.646E-01
DAV:  12    -0.821810945929E+03   -0.15541E-02   -0.85023E-02 49240   0.416E-01    0.444E-01
DAV:  13    -0.821815329684E+03   -0.43838E-02   -0.28965E-02 48688   0.381E-01    0.401E-01
DAV:  14    -0.821808751620E+03    0.65781E-02   -0.15083E-02 48168   0.292E-01    0.157E-01
DAV:  15    -0.821808710499E+03    0.41121E-04   -0.44869E-03 50504   0.105E-01    0.121E-01
DAV:  16    -0.821808716971E+03   -0.64723E-05   -0.10287E-03 48816   0.452E-02    0.748E-02
DAV:  17    -0.821808696248E+03    0.20722E-04   -0.20539E-04 49176   0.232E-02    0.357E-02
DAV:  18    -0.821808686721E+03    0.95273E-05   -0.91043E-05 49296   0.162E-02    0.119E-02
DAV:  19    -0.821808686778E+03   -0.57102E-07   -0.27971E-05 40544   0.938E-03    0.770E-03
DAV:  20    -0.821808687513E+03   -0.73521E-06   -0.76908E-06 38608   0.482E-03
   1 F= -.82180869E+03 E0= -.82186981E+03  d E =-.821809E+03
       N       E                     dE             d eps       ncg     rms          rms(c)
DAV:   1    -0.821812920113E+03   -0.42333E-02   -0.25090E-01 37736   0.737E-01    0.661E-02
DAV:   2    -0.821813414553E+03   -0.49444E-03   -0.53645E-03 41392   0.108E-01    0.439E-02
DAV:   3    -0.821813464223E+03   -0.49671E-04   -0.41889E-04 56136   0.353E-02    0.405E-02
DAV:   4    -0.821813426899E+03    0.37324E-04   -0.11033E-04 47856   0.260E-02    0.258E-02
DAV:   5    -0.821813425702E+03    0.11969E-05   -0.50669E-05 45312   0.138E-02    0.129E-02
DAV:   6    -0.821813421724E+03    0.39776E-05   -0.19028E-05 43656   0.974E-03    0.484E-03
DAV:   7    -0.821813421367E+03    0.35785E-06   -0.52308E-06 35568   0.412E-03
   2 F= -.82181342E+03 E0= -.82187453E+03  d E =-.473385E-02
       N       E                     dE             d eps       ncg     rms          rms(c)
DAV:   1    -0.821817035927E+03   -0.36142E-02   -0.21411E-01 37248   0.682E-01    0.609E-02
DAV:   2    -0.821817463225E+03   -0.42730E-03   -0.45961E-03 41328   0.101E-01    0.418E-02
DAV:   3    -0.821817508580E+03   -0.45356E-04   -0.37936E-04 56256   0.358E-02    0.402E-02
DAV:   4    -0.821817468604E+03    0.39976E-04   -0.10446E-04 47976   0.250E-02    0.241E-02
DAV:   5    -0.821817468708E+03   -0.10371E-06   -0.43607E-05 45240   0.124E-02    0.119E-02
DAV:   6    -0.821817465604E+03    0.31040E-05   -0.16825E-05 42976   0.909E-03    0.469E-03
DAV:   7    -0.821817465227E+03    0.37672E-06   -0.45981E-06 34488   0.393E-03
   3 F= -.82181747E+03 E0= -.82187856E+03  d E =-.404386E-02
       N       E                     dE             d eps       ncg     rms          rms(c)
DAV:   1    -0.821820484180E+03   -0.30186E-02   -0.17851E-01 37120   0.624E-01    0.552E-02
DAV:   2    -0.821820844133E+03   -0.35995E-03   -0.38456E-03 41336   0.924E-02    0.381E-02
DAV:   3    -0.821820881403E+03   -0.37270E-04   -0.32046E-04 56280   0.331E-02    0.370E-02
DAV:   4    -0.821820847191E+03    0.34212E-04   -0.87585E-05 47344   0.227E-02    0.218E-02
DAV:   5    -0.821820847596E+03   -0.40521E-06   -0.35855E-05 45328   0.112E-02    0.108E-02
DAV:   6    -0.821820844968E+03    0.26277E-05   -0.14069E-05 41808   0.828E-03    0.426E-03
DAV:   7    -0.821820844672E+03    0.29587E-06   -0.37608E-06 33296   0.354E-03
   4 F= -.82182084E+03 E0= -.82188192E+03  d E =-.337945E-02
       N       E                     dE             d eps       ncg     rms          rms(c)
DAV:   1    -0.821823476361E+03   -0.26314E-02   -0.15269E-01 36960   0.579E-01    0.504E-02
DAV:   2    -0.821823787569E+03   -0.31121E-03   -0.33051E-03 41368   0.856E-02    0.351E-02
DAV:   3    -0.821823818414E+03   -0.30844E-04   -0.27602E-04 56376   0.308E-02    0.342E-02
DAV:   4    -0.821823789382E+03    0.29032E-04   -0.73561E-05 46632   0.206E-02    0.200E-02
DAV:   5    -0.821823789895E+03   -0.51285E-06   -0.29954E-05 45552   0.102E-02    0.100E-02
DAV:   6    -0.821823787625E+03    0.22705E-05   -0.11985E-05 40248   0.763E-03    0.390E-03
DAV:   7    -0.821823787393E+03    0.23203E-06   -0.31723E-06 32416   0.324E-03
   5 F= -.82182379E+03 E0= -.82188484E+03  d E =-.294272E-02
       N       E                     dE             d eps       ncg     rms          rms(c)
DAV:   1    -0.821826087323E+03   -0.22997E-02   -0.13547E-01 36824   0.546E-01    0.470E-02
DAV:   2    -0.821826365140E+03   -0.27782E-03   -0.29394E-03 41336   0.808E-02    0.329E-02
DAV:   3    -0.821826392047E+03   -0.26907E-04   -0.24687E-04 56528   0.290E-02    0.321E-02
DAV:   4    -0.821826366612E+03    0.25435E-04   -0.64077E-05 46112   0.191E-02    0.188E-02
DAV:   5    -0.821826367167E+03   -0.55533E-06   -0.26047E-05 45224   0.948E-03    0.943E-03
DAV:   6    -0.821826365135E+03    0.20325E-05   -0.10617E-05 39136   0.718E-03    0.364E-03
DAV:   7    -0.821826364950E+03    0.18437E-06   -0.27500E-06 31200   0.305E-03
   6 F= -.82182636E+03 E0= -.82188740E+03  d E =-.257756E-02
       N       E                     dE             d eps       ncg     rms          rms(c)
DAV:   1    -0.821828361861E+03   -0.19967E-02   -0.11573E-01 36960   0.506E-01    0.430E-02
DAV:   2    -0.821828601732E+03   -0.23987E-03   -0.25220E-03 41440   0.749E-02    0.305E-02
DAV:   3    -0.821828623076E+03   -0.21344E-04   -0.21265E-04 56560   0.271E-02    0.296E-02
DAV:   4    -0.821828601871E+03    0.21205E-04   -0.53227E-05 45480   0.174E-02    0.173E-02
DAV:   5    -0.821828602406E+03   -0.53504E-06   -0.21890E-05 44368   0.868E-03    0.869E-03
DAV:   6    -0.821828600673E+03    0.17328E-05   -0.91378E-06 37912   0.664E-03    0.336E-03
DAV:   7    -0.821828600595E+03    0.77751E-07   -0.23049E-06 29720   0.306E-03
   7 F= -.82182860E+03 E0= -.82188961E+03  d E =-.223565E-02
       N       E                     dE             d eps       ncg     rms          rms(c)
DAV:   1    -0.821830334321E+03   -0.17336E-02   -0.10031E-01 36864   0.473E-01    0.394E-02
DAV:   2    -0.821830542788E+03   -0.20847E-03   -0.22019E-03 41576   0.698E-02    0.276E-02
DAV:   3    -0.821830562704E+03   -0.19916E-04   -0.18138E-04 56312   0.243E-02    0.271E-02
DAV:   4    -0.821830544882E+03    0.17822E-04   -0.44397E-05 44688   0.159E-02    0.161E-02
DAV:   5    -0.821830545344E+03   -0.46131E-06   -0.18588E-05 43264   0.796E-03    0.814E-03
DAV:   6    -0.821830543785E+03    0.15584E-05   -0.80122E-06 36768   0.620E-03    0.304E-03
DAV:   7    -0.821830543672E+03    0.11355E-06   -0.18650E-06 27616   0.266E-03
   8 F= -.82183054E+03 E0= -.82189152E+03  d E =-.194308E-02
       N       E                     dE             d eps       ncg     rms          rms(c)
DAV:   1    -0.821832069940E+03   -0.15262E-02   -0.88017E-02 36776   0.444E-01    0.365E-02
DAV:   2    -0.821832254971E+03   -0.18503E-03   -0.19403E-03 41632   0.656E-02    0.259E-02
DAV:   3    -0.821832271402E+03   -0.16431E-04   -0.16062E-04 56344   0.230E-02    0.253E-02
DAV:   4    -0.821832256099E+03    0.15303E-04   -0.37824E-05 43824   0.146E-02    0.149E-02
DAV:   5    -0.821832256565E+03   -0.46541E-06   -0.15867E-05 42248   0.738E-03    0.760E-03
DAV:   6    -0.821832255193E+03    0.13719E-05   -0.69892E-06 35816   0.582E-03    0.286E-03
DAV:   7    -0.821832255181E+03    0.12180E-07   -0.16344E-06 26976   0.275E-03
   9 F= -.82183226E+03 E0= -.82189321E+03  d E =-.171151E-02
       N       E                     dE             d eps       ncg     rms          rms(c)
DAV:   1    -0.821833592060E+03   -0.13369E-02   -0.76283E-02 36682   0.415E-01    0.336E-02
DAV:   2    -0.821833753495E+03   -0.16143E-03   -0.16902E-03 41680   0.612E-02    0.239E-02
DAV:   3    -0.821833767634E+03   -0.14139E-04   -0.13990E-04 56357   0.212E-02    0.234E-02
DAV:   4    -0.821833754683E+03    0.12950E-04   -0.32040E-05 42888   0.133E-02    0.139E-02
DAV:   5    -0.821833755098E+03   -0.41455E-06   -0.13493E-05 40952   0.680E-03    0.710E-03
DAV:   6    -0.821833753885E+03    0.12130E-05   -0.61371E-06 35080   0.543E-03    0.260E-03
DAV:   7    -0.821833753808E+03    0.76645E-07   -0.13088E-06 25384   0.230E-03
  10 F= -.82183375E+03 E0= -.82189469E+03  d E =-.149863E-02
       N       E                     dE             d eps       ncg     rms          rms(c)
DAV:   1    -0.821834928938E+03   -0.11751E-02   -0.67234E-02 36652   0.391E-01    0.313E-02
DAV:   2    -0.821835073191E+03   -0.14425E-03   -0.14980E-03 41840   0.578E-02    0.226E-02
DAV:   3    -0.821835084222E+03   -0.11030E-04   -0.12397E-04 56474   0.203E-02    0.220E-02
DAV:   4    -0.821835073189E+03    0.11032E-04   -0.27332E-05 41976   0.122E-02    0.130E-02
DAV:   5    -0.821835073575E+03   -0.38590E-06   -0.11663E-05 40056   0.636E-03    0.667E-03
DAV:   6    -0.821835072508E+03    0.10671E-05   -0.53952E-06 34440   0.512E-03    0.248E-03
DAV:   7    -0.821835072534E+03   -0.25408E-07   -0.12175E-06 25784   0.251E-03
  11 F= -.82183507E+03 E0= -.82189598E+03  d E =-.131873E-02
       N       E                     dE             d eps       ncg     rms          rms(c)
DAV:   1    -0.821836120853E+03   -0.10483E-02   -0.59357E-02 36580   0.369E-01    0.293E-02
DAV:   2    -0.821836248462E+03   -0.12761E-03   -0.13279E-03 41896   0.545E-02    0.210E-02
DAV:   3    -0.821836258812E+03   -0.10350E-04   -0.11021E-04 56274   0.188E-02    0.206E-02
DAV:   4    -0.821836249032E+03    0.97802E-05   -0.23988E-05 40344   0.115E-02    0.123E-02
DAV:   5    -0.821836249360E+03   -0.32794E-06   -0.10220E-05 39048   0.597E-03    0.632E-03
DAV:   6    -0.821836248395E+03    0.96529E-06   -0.48116E-06 34016   0.483E-03
  12 F= -.82183625E+03 E0= -.82189714E+03  d E =-.117586E-02
       N       E                     dE             d eps       ncg     rms          rms(c)
DAV:   1    -0.821837160220E+03   -0.91086E-03   -0.51690E-02 36540   0.345E-01    0.271E-02
DAV:   2    -0.821837273964E+03   -0.11374E-03   -0.11617E-03 42048   0.514E-02    0.203E-02
DAV:   3    -0.821837280153E+03   -0.61891E-05   -0.10007E-04 56760   0.185E-02    0.192E-02
DAV:   4    -0.821837272518E+03    0.76351E-05   -0.19889E-05 38920   0.102E-02    0.114E-02
DAV:   5    -0.821837272808E+03   -0.29043E-06   -0.86170E-06 37568   0.559E-03
  13 F= -.82183727E+03 E0= -.82189813E+03  d E =-.102441E-02
       N       E                     dE             d eps       ncg     rms          rms(c)
DAV:   1    -0.821838089187E+03   -0.81667E-03   -0.46523E-02 36544   0.328E-01    0.251E-02
DAV:   2    -0.821838190518E+03   -0.10133E-03   -0.10452E-03 42048   0.482E-02    0.181E-02
DAV:   3    -0.821838198530E+03   -0.80115E-05   -0.86913E-05 56008   0.163E-02    0.179E-02
DAV:   4    -0.821838191442E+03    0.70881E-05   -0.16830E-05 36648   0.952E-03    0.107E-02
DAV:   5    -0.821838191887E+03   -0.44495E-06   -0.78756E-06 37200   0.548E-03
  14 F= -.82183819E+03 E0= -.82189903E+03  d E =-.919079E-03
       N       E                     dE             d eps       ncg     rms          rms(c)
DAV:   1    -0.821838914890E+03   -0.72345E-03   -0.40817E-02 36552   0.308E-01    0.232E-02
DAV:   2    -0.821839004262E+03   -0.89371E-04   -0.92162E-04 42184   0.452E-02    0.167E-02
DAV:   3    -0.821839011168E+03   -0.69064E-05   -0.75715E-05 55680   0.151E-02    0.166E-02
DAV:   4    -0.821839005095E+03    0.60729E-05   -0.14221E-05 36128   0.871E-03    0.985E-03
DAV:   5    -0.821839005478E+03   -0.38317E-06   -0.68797E-06 36904   0.492E-03
  15 F= -.82183901E+03 E0= -.82189982E+03  d E =-.813591E-03
       N       E                     dE             d eps       ncg     rms          rms(c)
DAV:   1    -0.821839658275E+03   -0.65318E-03   -0.35487E-02 36488   0.288E-01    0.215E-02
DAV:   2    -0.821839736271E+03   -0.77996E-04   -0.80457E-04 42112   0.424E-02    0.154E-02
DAV:   3    -0.821839742431E+03   -0.61597E-05   -0.66296E-05 55640   0.140E-02    0.154E-02
DAV:   4    -0.821839737156E+03    0.52745E-05   -0.12356E-05 35880   0.811E-03    0.923E-03
DAV:   5    -0.821839737490E+03   -0.33354E-06   -0.58595E-06 35544   0.467E-03
  16 F= -.82183974E+03 E0= -.82190054E+03  d E =-.732012E-03
       N       E                     dE             d eps       ncg     rms          rms(c)
DAV:   1    -0.821840342167E+03   -0.60501E-03   -0.33204E-02 36472   0.279E-01    0.206E-02
DAV:   2    -0.821840415381E+03   -0.73215E-04   -0.75472E-04 42224   0.410E-02    0.148E-02
DAV:   3    -0.821840420968E+03   -0.55864E-05   -0.61604E-05 55584   0.135E-02    0.148E-02
DAV:   4    -0.821840416161E+03    0.48064E-05   -0.11218E-05 35632   0.770E-03    0.887E-03
DAV:   5    -0.821840416435E+03   -0.27375E-06   -0.53438E-06 35240   0.439E-03
  17 F= -.82184042E+03 E0= -.82190120E+03  d E =-.678945E-03
       N       E                     dE             d eps       ncg     rms          rms(c)
DAV:   1    -0.821840985699E+03   -0.56954E-03   -0.30168E-02 36472   0.267E-01    0.196E-02
DAV:   2    -0.821841052358E+03   -0.66659E-04   -0.68770E-04 42192   0.393E-02    0.141E-02
DAV:   3    -0.821841057501E+03   -0.51426E-05   -0.56166E-05 55584   0.129E-02    0.141E-02
DAV:   4    -0.821841053125E+03    0.43755E-05   -0.10234E-05 35520   0.735E-03    0.849E-03
DAV:   5    -0.821841053373E+03   -0.24735E-06   -0.47882E-06 34568   0.423E-03
  18 F= -.82184105E+03 E0= -.82190182E+03  d E =-.636938E-03
       N       E                     dE             d eps       ncg     rms          rms(c)
DAV:   1    -0.821841591802E+03   -0.53868E-03   -0.28670E-02 36456   0.260E-01    0.190E-02
DAV:   2    -0.821841655251E+03   -0.63449E-04   -0.65413E-04 42240   0.383E-02    0.137E-02
DAV:   3    -0.821841660037E+03   -0.47858E-05   -0.53120E-05 55520   0.125E-02    0.137E-02
DAV:   4    -0.821841655960E+03    0.40769E-05   -0.95259E-06 35264   0.707E-03    0.824E-03
DAV:   5    -0.821841656177E+03   -0.21717E-06   -0.44495E-06 34152   0.406E-03
  19 F= -.82184166E+03 E0= -.82190241E+03  d E =-.602804E-03
       N       E                     dE             d eps       ncg     rms          rms(c)
DAV:   1    -0.821842157613E+03   -0.50165E-03   -0.26271E-02 36432   0.250E-01    0.179E-02
DAV:   2    -0.821842215905E+03   -0.58292E-04   -0.60031E-04 42240   0.367E-02    0.130E-02
DAV:   3    -0.821842220216E+03   -0.43113E-05   -0.48703E-05 55512   0.119E-02    0.130E-02
DAV:   4    -0.821842216593E+03    0.36228E-05   -0.85092E-06 34936   0.665E-03    0.787E-03
DAV:   5    -0.821842216776E+03   -0.18328E-06   -0.39313E-06 33408   0.386E-03
  20 F= -.82184222E+03 E0= -.82190295E+03  d E =-.560599E-03
       N       E                     dE             d eps       ncg     rms          rms(c)
DAV:   1    -0.821842681547E+03   -0.46495E-03   -0.24226E-02 36408   0.240E-01    0.171E-02
DAV:   2    -0.821842735460E+03   -0.53913E-04   -0.55486E-04 42296   0.353E-02    0.124E-02
DAV:   3    -0.821842739338E+03   -0.38781E-05   -0.44750E-05 55432   0.114E-02    0.124E-02
DAV:   4    -0.821842736038E+03    0.33006E-05   -0.77529E-06 34792   0.633E-03    0.755E-03
DAV:   5    -0.821842736189E+03   -0.15175E-06   -0.35256E-06 32808   0.367E-03
  21 F= -.82184274E+03 E0= -.82190346E+03  d E =-.519413E-03
       N       E                     dE             d eps       ncg     rms          rms(c)
DAV:   1    -0.821843172800E+03   -0.43676E-03   -0.22779E-02 36400   0.233E-01    0.165E-02
DAV:   2    -0.821843223472E+03   -0.50672E-04   -0.52149E-04 42288   0.342E-02    0.120E-02
DAV:   3    -0.821843227125E+03   -0.36537E-05   -0.42122E-05 55440   0.110E-02    0.120E-02
DAV:   4    -0.821843224071E+03    0.30548E-05   -0.71798E-06 34552   0.608E-03    0.729E-03
DAV:   5    -0.821843224200E+03   -0.12900E-06   -0.32039E-06 32168   0.352E-03
  22 F= -.82184322E+03 E0= -.82190393E+03  d E =-.488010E-03
       N       E                     dE             d eps       ncg     rms          rms(c)
DAV:   1    -0.821843627195E+03   -0.40312E-03   -0.20491E-02 36416   0.221E-01    0.155E-02
DAV:   2    -0.821843672881E+03   -0.45686E-04   -0.46994E-04 42304   0.325E-02    0.113E-02
DAV:   3    -0.821843676113E+03   -0.32323E-05   -0.37907E-05 55384   0.104E-02    0.113E-02
DAV:   4    -0.821843673412E+03    0.27016E-05   -0.63437E-06 34184   0.571E-03    0.691E-03
DAV:   5    -0.821843673517E+03   -0.10485E-06   -0.27939E-06 31280   0.332E-03
  23 F= -.82184367E+03 E0= -.82190437E+03  d E =-.449317E-03
       N       E                     dE             d eps       ncg     rms          rms(c)
DAV:   1    -0.821844054801E+03   -0.38139E-03   -0.19126E-02 36400   0.214E-01    0.150E-02
DAV:   2    -0.821844097557E+03   -0.42756E-04   -0.43965E-04 42296   0.315E-02    0.109E-02
DAV:   3    -0.821844100554E+03   -0.29974E-05   -0.35467E-05 55400   0.101E-02    0.109E-02
DAV:   4    -0.821844098059E+03    0.24951E-05   -0.58535E-06 33800   0.548E-03    0.668E-03
DAV:   5    -0.821844098143E+03   -0.84314E-07   -0.25341E-06 30632   0.319E-03
  24 F= -.82184410E+03 E0= -.82190478E+03  d E =-.424627E-03
       N       E                     dE             d eps       ncg     rms          rms(c)
DAV:   1    -0.821844462947E+03   -0.36489E-03   -0.17843E-02 36408   0.207E-01    0.145E-02
DAV:   2    -0.821844502907E+03   -0.39960E-04   -0.41079E-04 42352   0.305E-02    0.106E-02
DAV:   3    -0.821844505680E+03   -0.27728E-05   -0.33257E-05 55256   0.981E-03    0.106E-02
DAV:   4    -0.821844503340E+03    0.23399E-05   -0.54855E-06 33608   0.531E-03    0.647E-03
DAV:   5    -0.821844503419E+03   -0.79061E-07   -0.23328E-06 30032   0.309E-03
  25 F= -.82184450E+03 E0= -.82190518E+03  d E =-.405276E-03
       N       E                     dE             d eps       ncg     rms          rms(c)
DAV:   1    -0.821844836192E+03   -0.33285E-03   -0.16313E-02 36400   0.198E-01    0.138E-02
DAV:   2    -0.821844872668E+03   -0.36476E-04   -0.37562E-04 42296   0.291E-02    0.100E-02
DAV:   3    -0.821844875289E+03   -0.26214E-05   -0.30246E-05 54816   0.927E-03    0.101E-02
DAV:   4    -0.821844873165E+03    0.21244E-05   -0.49060E-06 33032   0.504E-03    0.618E-03
DAV:   5    -0.821844873226E+03   -0.60914E-07   -0.20839E-06 29504   0.293E-03
  26 F= -.82184487E+03 E0= -.82190554E+03  d E =-.369806E-03
       N       E                     dE             d eps       ncg     rms          rms(c)
DAV:   1    -0.821845196864E+03   -0.32370E-03   -0.15007E-02 36400   0.190E-01    0.132E-02
DAV:   2    -0.821845230326E+03   -0.33462E-04   -0.34613E-04 42376   0.279E-02    0.951E-03
DAV:   3    -0.821845232907E+03   -0.25816E-05   -0.27377E-05 53736   0.874E-03    0.963E-03
DAV:   4    -0.821845230924E+03    0.19835E-05   -0.45002E-06 32712   0.488E-03    0.593E-03
DAV:   5    -0.821845230970E+03   -0.46726E-07   -0.18524E-06 28696   0.280E-03
  27 F= -.82184523E+03 E0= -.82190588E+03  d E =-.357745E-03
       N       E                     dE             d eps       ncg     rms          rms(c)
DAV:   1    -0.821845519948E+03   -0.28902E-03   -0.13639E-02 36400   0.181E-01    0.125E-02
DAV:   2    -0.821845550224E+03   -0.30276E-04   -0.31478E-04 42368   0.266E-02    0.890E-03
DAV:   3    -0.821845552747E+03   -0.25229E-05   -0.24225E-05 53152   0.810E-03    0.912E-03
DAV:   4    -0.821845550924E+03    0.18226E-05   -0.40579E-06 32392   0.470E-03    0.565E-03
DAV:   5    -0.821845550958E+03   -0.34270E-07   -0.15979E-06 27904   0.265E-03
  28 F= -.82184555E+03 E0= -.82190619E+03  d E =-.319988E-03
       N       E                     dE             d eps       ncg     rms          rms(c)
DAV:   1    -0.821845826549E+03   -0.27562E-03   -0.12853E-02 36400   0.176E-01    0.120E-02
DAV:   2    -0.821845854948E+03   -0.28399E-04   -0.29646E-04 42416   0.257E-02    0.848E-03
DAV:   3    -0.821845857437E+03   -0.24897E-05   -0.22294E-05 52528   0.761E-03    0.873E-03
DAV:   4    -0.821845855740E+03    0.16972E-05   -0.37602E-06 32056   0.455E-03    0.546E-03
DAV:   5    -0.821845855759E+03   -0.19267E-07   -0.14367E-06 27240   0.253E-03
  29 F= -.82184586E+03 E0= -.82190649E+03  d E =-.304801E-03
