TT_c image 04
1.0
      6.46831269532822    -11.20344622755126      0.00000000000000
      6.46831269532822     11.20344622755126      0.00000000000000
      0.00000000000000      0.00000000000000     15.49806442517753
  Zr  H
  96  1
Direct
      0.08320970910213      0.16623496063884      0.08343241675586
      0.16675172088698      0.08335078249243      0.24989310730250
      0.08264724324243      0.16600355528029      0.41611939715619
      0.16641491222698      0.08304302636585      0.58310029210862
      0.08277578872146      0.16674238874844      0.75048863060630
      0.16696858072923      0.08367229557500      0.91651639492575
      0.08320971149113      0.41697475027380      0.08343241585107
      0.16624112847358      0.33312056376386      0.24955589250304
      0.08264723978423      0.41664368678934      0.41611939215083
      0.16291830358098      0.33145915042752      0.58191205716491
      0.08277578427248      0.41603340152104      0.75048863275579
      0.16552020090815      0.33276009807474      0.91748106289390
      0.08331029497741      0.66668570611809      0.08320673746624
      0.16675172268789      0.58340094415043      0.24989310879099
      0.08341619474147      0.66667616313924      0.41648790807274
      0.16641491338315      0.58337188857610      0.58310029271467
      0.08339660915751      0.66663372722571      0.74997307950900
      0.16696858042402      0.58329628846858      0.91651639015156
      0.08331029423041      0.91662458744796      0.08320673653066
      0.16662763272582      0.83331381481486      0.24993336622199
      0.08341619235910      0.91674003063188      0.41648790815523
      0.16668813042149      0.83334406579549      0.58332110238316
      0.08339661315842      0.91676288495173      0.74997308218925
      0.16663028208825      0.83331513826123      0.91668128312485
      0.33315465691075      0.16638268984984      0.08338466390306
      0.41680897999171      0.08314344188459      0.24986180128955
      0.33341373226620      0.16618537661996      0.41626212161097
      0.41678349048714      0.08251697064517      0.58342218786761
      0.33406960266648      0.16666701049284      0.75038300773406
      0.41673236809382      0.08302514735895      0.91699562818095
      0.33324458063999      0.41662228568520      0.08357481859694
      0.41680943025231      0.33302191941626      0.24941629479305
      0.33340189233165      0.41670094589953      0.41358630731766
      0.41842654044701      0.33151946203012      0.58193955901517
      0.33342369722955      0.41671185019993      0.75463928450934
      0.41708112752466      0.33262538481767      0.91751177028600
      0.33315465582529      0.66677197508344      0.08338466255637
      0.41680943712200      0.58378751178084      0.24941629208756
      0.33341372950954      0.66722835752569      0.41626211924604
      0.41842652739788      0.58690707058575      0.58193955828695
      0.33406960289907      0.66740259542725      0.75038300940472
      0.41708113059282      0.58445574153535      0.91751177411788
      0.33302194719192      0.91651097143943      0.08355600641629
      0.41680898638738      0.83366554275755      0.24986180206415
      0.33350081148570      0.91675040283424      0.41643136219877
      0.41678348010136      0.83426651372069      0.58342218690959
      0.33348385217185      0.91674192494390      0.75038931557078
      0.41673237543716      0.83370722960922      0.91699562926357
      0.58335957742155      0.16667967703102      0.08339946373123
      0.66666234771240      0.08333116643128      0.25014526332363
      0.58338497069779      0.16668530678102      0.41699432518925
      0.66673439842995      0.08336719600427      0.58335029792306
      0.58352440977191      0.16637391947395      0.75014673678359
      0.66675156145770      0.08337577565405      0.91679734456358
      0.58363733423636      0.41684850272391      0.08345209359201
      0.66680157844121      0.33324857364016      0.24988712863519
      0.58390037504789      0.41652534421511      0.41616394516582
      0.66740684392016      0.33327527362370      0.58343535925538
      0.58331537186206      0.41587494818883      0.75050202209338
      0.66684873908558      0.33332378245181      0.91691560680670
      0.58363733837788      0.66678884171696      0.08345209412769
      0.66659000868938      0.58329500499597      0.24992316838437
      0.58390037430366      0.66737502941630      0.41616394763844
      0.66696723214914      0.58348361891281      0.58313743889273
      0.58331536927042      0.66744041982206      0.75050202197171
      0.66608806514171      0.58304403277458      0.91653971546441
      0.58335958515160      0.91667989701741      0.08339946632704
      0.66680158506743      0.83355301216542      0.24988713229696
      0.58338497394717      0.91669966225000      0.41699432341386
      0.66740684296022      0.83413157333209      0.58343535688248
      0.58352441439974      0.91715049087998      0.75014673751454
      0.66684874234411      0.83352495728246      0.91691560640608
      0.83334831604657      0.16667415542445      0.08337354845859
      0.91643770468835      0.08317451678612      0.24978249513107
      0.83337103658497      0.16668550917054      0.41685889788903
      0.91580260899288      0.08256865388282      0.58339471421804
      0.83307543546730      0.16653771384519      0.75011711926586
      0.91645679792296      0.08305620827850      0.91703305612246
      0.83342870867844      0.41688213802904      0.08353993082991
      0.91643771154485      0.33326318830207      0.24978249706733
      0.83325583218636      0.41650685813662      0.41643259063941
      0.91580260996869      0.33323396001221      0.58339471555980
      0.83324221878979      0.41648046202762      0.75037730486805
      0.91645679910595      0.33340058717172      0.91703305445244
      0.83335943763079      0.66667972128283      0.08326864520620
      0.91667757136266      0.58336159043519      0.24998652223570
      0.83327352982200      0.66663676756320      0.41655915410801
      0.91665657120709      0.58335299684886      0.58334329868366
      0.83324512150256      0.66662256292507      0.75005561947594
      0.91665856539972      0.58334095409228      0.91670890859509
      0.83342869989067      0.91654656414996      0.08353993247589
      0.91667756973191      0.83331597866874      0.24998651900908
      0.83325582321485      0.91674897440905      0.41643259241204
      0.91665657214926      0.83330357757898      0.58334329887006
      0.83324221078622      0.91676175817312      0.75037730568425
      0.91665856346663      0.83331760827304      0.91670891136697
      0.33323085856690      0.41661543273845      0.60736425361319
