TO image 01                             
   1.00000000000000     
     6.4683126953282200  -11.2034462275512592    0.0000000000000000
     6.4683126953282200   11.2034462275512592    0.0000000000000000
     0.0000000000000000    0.0000000000000000   15.4980644251775299
   Zr   H 
    96     1
Direct
  0.0831221962358503  0.1661879492873983  0.0830575176574035
  0.1669459650534876  0.0837756360782977  0.2502586722804238
  0.0831995959346199  0.1674922315044276  0.4160909582947754
  0.1671454133413374  0.0834856892619878  0.5839196428703429
  0.0828570861311558  0.1661822608176770  0.7503199785030661
  0.1665360407335388  0.0832067882145884  0.9169373939244072
  0.0831221964931029  0.4169342485157963  0.0830575168421268
  0.1647373247589766  0.3323686630125022  0.2483675615301665
  0.0831995937013184  0.4157073679438925  0.4160909585499078
  0.1690550650111862  0.3345275387091396  0.5848501252215804
  0.0828570832794948  0.4166748179265711  0.7503199796670581
  0.1665299583925431  0.3332649792121289  0.9168634464096455
  0.0833600103394048  0.6667231554297094  0.0835340993920870
  0.1669459659199594  0.5831703304817610  0.2502586740120060
  0.0833354813601269  0.6663587907971636  0.4167548892007545
  0.1671454062697809  0.5836597244916949  0.5839196474113966
  0.0833707334628717  0.6667115979590595  0.7503070248807095
  0.1665360420047968  0.5833292477073599  0.9169373980796159
  0.0833600092045917  0.9166368563745992  0.0835340955238908
  0.1665965222121684  0.8332982604402422  0.2501609705015778
  0.0833354836492398  0.9169766913875721  0.4167548861954763
  0.1668011488743728  0.8334005637451075  0.5833193618229949
  0.0833707573686183  0.9166591258726358  0.7503070069296395
  0.1666592461440233  0.8333296220177333  0.9167281693501247
  0.3332596866809687  0.1665746769959446  0.0833137508195726
  0.4167394676818703  0.0830479265244165  0.2496430201270084
  0.3338185633262337  0.1666751234040940  0.4163600719475933
  0.4166889491474089  0.0821305947081471  0.5833194868648094
  0.3328842077639846  0.1655718140132445  0.7507846355060432
  0.4168349246524713  0.0831714597764501  0.9168814666542012
  0.3334609519513814  0.4167304775709815  0.0828572088698534
  0.4173704431965139  0.3324998821957997  0.2491361469342836
  0.3317889292288648  0.4158944667287352  0.4097729804854638
  0.4199642090197085  0.3307325214843174  0.5863089707567276
  0.3335894355190392  0.4167947196683198  0.7513670325869953
  0.4167721908717390  0.3333072663506331  0.9170255915589584
  0.3332596865658856  0.6666850111396849  0.0833137522463171
  0.4173704417097390  0.5848705620754588  0.2491361457766519
  0.3338185603833004  0.6671434398851942  0.4163600736043590
  0.4199642103851309  0.5892316926812872  0.5863089716099509
  0.3328841986531232  0.6673123899554472  0.7507846352993727
  0.4167721924568102  0.5834649282406168  0.9170255904341647
  0.3329695880152393  0.9164847942613125  0.0830849389108194
  0.4167394682180892  0.8336915414631960  0.2496430196511621
  0.3336459966942138  0.9168229990008383  0.4162768181136102
  0.4166889523856653  0.8345583561559542  0.5833194836552779
  0.3333103428750075  0.9166551633283510  0.7502847194722430
  0.4168349232720615  0.8336634637483540  0.9168814681184621
  0.5833418375645928  0.1666493289135165  0.0831487394096654
  0.6667942720326848  0.0833971361535326  0.2497493238188672
  0.5836579327222935  0.1665759872973792  0.4162777718148453
  0.6670525537148780  0.0835262799460520  0.5832204981550591
  0.5830851646156349  0.1666798019161636  0.7495565373760353
  0.6666974428199712  0.0833487221159908  0.9163799629969626
  0.5835231972019692  0.4168836869904585  0.0831860951706757
  0.6670810115590082  0.3333773528936149  0.2495976974325903
  0.5842365851088929  0.4155991756595000  0.4157724774663224
  0.6679348691287318  0.3331326452673531  0.5832820038935784
  0.5840236216368927  0.4167221192023182  0.7504725887595033
  0.6667168084460287  0.3332997618779707  0.9166465227015479
  0.5835231958689496  0.6666395114685423  0.0831860952866614
  0.6661101703357452  0.5830550867060847  0.2501471199529929
  0.5842365806114328  0.6686374070176830  0.4157724756035847
  0.6690375786260279  0.5845187874186248  0.5837700524912527
  0.5840236197033658  0.6673014969409953  0.7504725872297329
  0.6667393292646588  0.5833696657383017  0.9167709432027168
  0.5833418393174076  0.9166925088043544  0.0831487387417362
  0.6670810117960949  0.8337036580374088  0.2495976970647484
  0.5836579334658628  0.9170819478166583  0.4162777691553608
  0.6679348683083337  0.8348022248458477  0.5832820042330588
  0.5830851609729619  0.9164053584234180  0.7495565372442328
  0.6667168100679256  0.8334170458577732  0.9166465209818255
  0.8333779195061513  0.1666889616011612  0.0832905627660724
  0.9164952594810126  0.0830697773313201  0.2496092977090188
  0.8329393079384398  0.1664696547525758  0.4163979388283319
  0.9171356882591413  0.0837802640175443  0.5831027267574844
  0.8331315253656566  0.1665657634933168  0.7496895525576347
  0.9164005392878204  0.0833186947017316  0.9167290906474159
  0.8334250302484076  0.4167891834322317  0.0829489784035427
  0.9164952595247717  0.3334254826580252  0.2496092976470536
  0.8334155792985057  0.4164452938682140  0.4163047505095731
  0.9171356895933238  0.3333554329657817  0.5831027273606090
  0.8333194889222827  0.4164843671275404  0.7500954561623149
  0.9164005406411401  0.3330818495663190  0.9167290876240748
  0.8333288567120298  0.6666644307544871  0.0834385620264986
  0.9166571223556338  0.5833035801347223  0.2498812407884605
  0.8336330668544689  0.6668165334182716  0.4165634844593607
  0.9169585916721384  0.5834938168784741  0.5834345699884481
  0.8333830677621279  0.6666915293826556  0.7502707196506015
  0.9167562742865691  0.5833434883755534  0.9167539344949113
  0.8334250290727678  0.9166358463168472  0.0829489773634954
  0.9166571263688564  0.8333535459564847  0.2498812392793825
  0.8334155764009983  0.9169702862276701  0.4163047500257303
  0.9169585939968613  0.8334647741871554  0.5834345676296658
  0.8333194976639660  0.9168351234714797  0.7500954565234048
  0.9167562847179240  0.8334127887789089  0.9167539263948908
  0.3662193863227598  0.4331096965836890  0.5337882532445698
 
  0.00000000E+00  0.00000000E+00  0.00000000E+00
  0.00000000E+00  0.00000000E+00  0.00000000E+00
  0.00000000E+00  0.00000000E+00  0.00000000E+00
  0.00000000E+00  0.00000000E+00  0.00000000E+00
  0.00000000E+00  0.00000000E+00  0.00000000E+00
  0.00000000E+00  0.00000000E+00  0.00000000E+00
  0.00000000E+00  0.00000000E+00  0.00000000E+00
  0.00000000E+00  0.00000000E+00  0.00000000E+00
  0.00000000E+00  0.00000000E+00  0.00000000E+00
  0.00000000E+00  0.00000000E+00  0.00000000E+00
  0.00000000E+00  0.00000000E+00  0.00000000E+00
  0.00000000E+00  0.00000000E+00  0.00000000E+00
  0.00000000E+00  0.00000000E+00  0.00000000E+00
  0.00000000E+00  0.00000000E+00  0.00000000E+00
  0.00000000E+00  0.00000000E+00  0.00000000E+00
  0.00000000E+00  0.00000000E+00  0.00000000E+00
  0.00000000E+00  0.00000000E+00  0.00000000E+00
  0.00000000E+00  0.00000000E+00  0.00000000E+00
  0.00000000E+00  0.00000000E+00  0.00000000E+00
  0.00000000E+00  0.00000000E+00  0.00000000E+00
  0.00000000E+00  0.00000000E+00  0.00000000E+00
  0.00000000E+00  0.00000000E+00  0.00000000E+00
  0.00000000E+00  0.00000000E+00  0.00000000E+00
  0.00000000E+00  0.00000000E+00  0.00000000E+00
  0.00000000E+00  0.00000000E+00  0.00000000E+00
  0.00000000E+00  0.00000000E+00  0.00000000E+00
  0.00000000E+00  0.00000000E+00  0.00000000E+00
  0.00000000E+00  0.00000000E+00  0.00000000E+00
  0.00000000E+00  0.00000000E+00  0.00000000E+00
  0.00000000E+00  0.00000000E+00  0.00000000E+00
  0.00000000E+00  0.00000000E+00  0.00000000E+00
  0.00000000E+00  0.00000000E+00  0.00000000E+00
  0.00000000E+00  0.00000000E+00  0.00000000E+00
  0.00000000E+00  0.00000000E+00  0.00000000E+00
  0.00000000E+00  0.00000000E+00  0.00000000E+00
  0.00000000E+00  0.00000000E+00  0.00000000E+00
  0.00000000E+00  0.00000000E+00  0.00000000E+00
  0.00000000E+00  0.00000000E+00  0.00000000E+00
  0.00000000E+00  0.00000000E+00  0.00000000E+00
  0.00000000E+00  0.00000000E+00  0.00000000E+00
  0.00000000E+00  0.00000000E+00  0.00000000E+00
  0.00000000E+00  0.00000000E+00  0.00000000E+00
  0.00000000E+00  0.00000000E+00  0.00000000E+00
  0.00000000E+00  0.00000000E+00  0.00000000E+00
  0.00000000E+00  0.00000000E+00  0.00000000E+00
  0.00000000E+00  0.00000000E+00  0.00000000E+00
  0.00000000E+00  0.00000000E+00  0.00000000E+00
  0.00000000E+00  0.00000000E+00  0.00000000E+00
  0.00000000E+00  0.00000000E+00  0.00000000E+00
  0.00000000E+00  0.00000000E+00  0.00000000E+00
  0.00000000E+00  0.00000000E+00  0.00000000E+00
  0.00000000E+00  0.00000000E+00  0.00000000E+00
  0.00000000E+00  0.00000000E+00  0.00000000E+00
  0.00000000E+00  0.00000000E+00  0.00000000E+00
  0.00000000E+00  0.00000000E+00  0.00000000E+00
  0.00000000E+00  0.00000000E+00  0.00000000E+00
  0.00000000E+00  0.00000000E+00  0.00000000E+00
  0.00000000E+00  0.00000000E+00  0.00000000E+00
  0.00000000E+00  0.00000000E+00  0.00000000E+00
  0.00000000E+00  0.00000000E+00  0.00000000E+00
  0.00000000E+00  0.00000000E+00  0.00000000E+00
  0.00000000E+00  0.00000000E+00  0.00000000E+00
  0.00000000E+00  0.00000000E+00  0.00000000E+00
  0.00000000E+00  0.00000000E+00  0.00000000E+00
  0.00000000E+00  0.00000000E+00  0.00000000E+00
  0.00000000E+00  0.00000000E+00  0.00000000E+00
  0.00000000E+00  0.00000000E+00  0.00000000E+00
  0.00000000E+00  0.00000000E+00  0.00000000E+00
  0.00000000E+00  0.00000000E+00  0.00000000E+00
  0.00000000E+00  0.00000000E+00  0.00000000E+00
  0.00000000E+00  0.00000000E+00  0.00000000E+00
  0.00000000E+00  0.00000000E+00  0.00000000E+00
  0.00000000E+00  0.00000000E+00  0.00000000E+00
  0.00000000E+00  0.00000000E+00  0.00000000E+00
  0.00000000E+00  0.00000000E+00  0.00000000E+00
  0.00000000E+00  0.00000000E+00  0.00000000E+00
  0.00000000E+00  0.00000000E+00  0.00000000E+00
  0.00000000E+00  0.00000000E+00  0.00000000E+00
  0.00000000E+00  0.00000000E+00  0.00000000E+00
  0.00000000E+00  0.00000000E+00  0.00000000E+00
  0.00000000E+00  0.00000000E+00  0.00000000E+00
  0.00000000E+00  0.00000000E+00  0.00000000E+00
  0.00000000E+00  0.00000000E+00  0.00000000E+00
  0.00000000E+00  0.00000000E+00  0.00000000E+00
  0.00000000E+00  0.00000000E+00  0.00000000E+00
  0.00000000E+00  0.00000000E+00  0.00000000E+00
  0.00000000E+00  0.00000000E+00  0.00000000E+00
  0.00000000E+00  0.00000000E+00  0.00000000E+00
  0.00000000E+00  0.00000000E+00  0.00000000E+00
  0.00000000E+00  0.00000000E+00  0.00000000E+00
  0.00000000E+00  0.00000000E+00  0.00000000E+00
  0.00000000E+00  0.00000000E+00  0.00000000E+00
  0.00000000E+00  0.00000000E+00  0.00000000E+00
  0.00000000E+00  0.00000000E+00  0.00000000E+00
  0.00000000E+00  0.00000000E+00  0.00000000E+00
  0.00000000E+00  0.00000000E+00  0.00000000E+00
  0.00000000E+00  0.00000000E+00  0.00000000E+00
