TO endpoint 05
1.0
      6.46831269532822    -11.20344622755126      0.00000000000000
      6.46831269532822     11.20344622755126      0.00000000000000
      0.00000000000000      0.00000000000000     15.49806442517753
  Zr  H
  96  1
Direct
      0.08318968966399      0.16646138661347      0.08298728776842
      0.16629190473837      0.08310110694690      0.24980232725456
      0.08355394832383      0.16713091084845      0.41613254411088
      0.16713103482111      0.08355412046559      0.58386868646026
      0.08310116731742      0.16629193549329      0.75019765799071
      0.16646137730661      0.08318970037808      0.91701147484526
      0.08318969658668      0.41672830380996      0.08298728091299
      0.16658366326481      0.33329184041939      0.24946743297840
      0.08355394567319      0.41642304241698      0.41613253796102
      0.16553273459812      0.33276636950935      0.58379750714433
      0.08310116483603      0.41680923619511      0.75019766866240
      0.16691675938508      0.33345838396883      0.91653601472669
      0.08345420637533      0.66690839971702      0.08343557411729
      0.16629191290644      0.58319080261641      0.24980232849194
      0.08309506820543      0.66619013654556      0.41685813261538
      0.16713102713394      0.58357691139861      0.58386868832118
      0.08355654214996      0.66711307191555      0.75027705031520
      0.16646138384883      0.58327166961350      0.91701147227624
      0.08345420086082      0.91654580981415      0.08343556999091
      0.16666666588442      0.83333332958373      0.25052822685698
      0.08309507909843      0.91690493563412      0.41685813884267
      0.16666667095426      0.83333333614517      0.58332596600970
      0.08355654314353      0.91644346055119      0.75027705090002
      0.16666666224305      0.83333333113250      0.91681695162265
      0.33345834413211      0.16691669138506      0.08346267295991
      0.41680919615174      0.08310110455134      0.24980232764710
      0.33276637440020      0.16553273691567      0.41620397882843
      0.41642307867511      0.08355410543767      0.58386869226049
      0.33329189635172      0.16658378912405      0.75053259473701
      0.41672833087693      0.08318970545029      0.91701147184733
      0.33369523944427      0.41684761861947      0.08336987071601
      0.41679096386844      0.33358192652769      0.25033166019087
      0.33029688270500      0.41514844369225      0.41688304850817
      0.41514833287649      0.33029667050201      0.58311814401193
      0.33358205567907      0.41679102675412      0.74966834507506
      0.41684764183223      0.33369528552311      0.91662894986176
      0.33345834216314      0.66654165381751      0.08346267135119
      0.41679095945578      0.58320904034751      0.25033166811978
      0.33276637330530      0.66723362337219      0.41620397780594
      0.41514832725075      0.58485166423689      0.58311813699691
      0.33329188903568      0.66670809942202      0.75053259698260
      0.41684764001683      0.58315235341145      0.91662895199125
      0.33309160191628      0.91654580304028      0.08343557324778
      0.41680919951844      0.83370808972909      0.24980232899240
      0.33380985431895      0.91690493087773      0.41685814099907
      0.41642308169255      0.83286897420812      0.58386868510537
      0.33288692472524      0.91644346388610      0.75027704498922
      0.41672832446464      0.83353861779690      0.91701147313210
      0.58327169911010      0.16646138885289      0.08298728089861
      0.66711294478854      0.08355647392641      0.24972293298633
      0.58357696059294      0.16713090480607      0.41613254158686
      0.66619010624178      0.08309505722258      0.58314303823308
      0.58319075889709      0.16629192631778      0.75019766166348
      0.66690836737501      0.08345417914166      0.91656309579979
      0.58315238071288      0.41684762151801      0.08336986912654
      0.66670816836449      0.33329183248875      0.24946743826630
      0.58485155323609      0.41514843769509      0.41688304462990
      0.66723363365600      0.33276636214623      0.58379750555717
      0.58320896941840      0.41679102679822      0.74966834722006
      0.66654162093774      0.33345838494723      0.91653601319931
      0.58315237442148      0.66630476029661      0.08336985986831
      0.66641807427174      0.58320903010856      0.25033165928752
      0.58485155455214      0.66970311684276      0.41688305117640
      0.66970333171907      0.58485166535170      0.58311814441399
      0.58320896944751      0.66641793984735      0.74966834821075
      0.66630471260220      0.58315234903840      0.91662895410462
      0.58327169022621      0.91681030546740      0.08298728024044
      0.66670815979294      0.83341633648843      0.24946744010082
      0.58357695882376      0.91644605218673      0.41613253023584
      0.66723362964950      0.83446726112529      0.58379750127406
      0.58319075866303      0.91689883960433      0.75019767254036
      0.66654161024495      0.83308323971132      0.91653601073916
      0.83333333819548      0.16666667434063      0.08318152168827
      0.91644353862111      0.08355647460643      0.24972293013365
      0.83333333537826      0.16666667135416      0.41667520734334
      0.91690495113394      0.08309506026420      0.58314303896647
      0.83333333713765      0.16666667037961      0.74947169990309
      0.91654581260384      0.08345418829054      0.91656309898438
      0.83353860796973      0.41672830162873      0.08298728274593
      0.91644353004667      0.33288705507620      0.24972292734254
      0.83286909882259      0.41642303753376      0.41613254523677
      0.91690494745925      0.33380989378924      0.58314304500069
      0.83370807667414      0.41680923338634      0.75019766152931
      0.91654582013801      0.33309162573085      0.91656309926565
      0.83308331087947      0.66654165279615      0.08346267396412
      0.91689889404335      0.58319080013156      0.24980232926349
      0.83446726325594      0.66723362956410      0.41620397625411
      0.91644588915774      0.58357690837178      0.58386868823570
      0.83341620992964      0.66670810591778      0.75053259373538
      0.91681028867748      0.58327167206505      0.91701147562722
      0.83353861887942      0.91681031467125      0.08298727782841
      0.91689890069007      0.83370810206569      0.24980233178263
      0.83286908729350      0.91644605333222      0.41613254061427
      0.91644587908481      0.83286897003776      0.58386868441385
      0.83370807120776      0.91689883696536      0.75019766789345
      0.91681030152682      0.83353862484280      0.91701147139011
      0.49999999927115      0.50000000056659      0.50000043196370
