  97  97   0   0
  0.2315679E+02  0.1293663E-08  0.1293663E-08  0.1549806E-08  0.1000000E-15
  1.000000000000000E-004
  CAR 
 Zr96H TO pre-NEB, four intermediate imag
     12.88410541    -42.41714550  301      8.95503377      1.00000000
    -42.417  0.0000E+00  0.0000E+00
    -42.233  0.0000E+00  0.0000E+00
    -42.048  0.0000E+00  0.0000E+00
    -41.864  0.0000E+00  0.0000E+00
    -41.680 -0.6700E-36 -0.1235E-36
    -41.495 -0.1792E-28 -0.3302E-29
    -41.311 -0.1954E-22 -0.3603E-23
    -41.127 -0.3958E-17 -0.7296E-18
    -40.942 -0.1448E-12 -0.2669E-13
    -40.758 -0.1023E-08 -0.1886E-09
    -40.574 -0.1381E-05 -0.2547E-06
    -40.389 -0.3602E-03 -0.6666E-04
    -40.205 -0.1726E-01 -0.3249E-02
    -40.021 -0.7858E-01 -0.1773E-01
    -39.836  0.9090E+00  0.1498E+00
    -39.652  0.2259E+01  0.5662E+00
    -39.468  0.4959E+00  0.6576E+00
    -39.283 -0.8797E-01  0.6414E+00
    -39.099 -0.7542E-02  0.6400E+00
    -38.915 -0.7500E-04  0.6400E+00
    -38.730 -0.1221E-06  0.6400E+00
    -38.546 -0.3480E-10  0.6400E+00
    -38.362 -0.1806E-14  0.6400E+00
    -38.177  0.0000E+00  0.6400E+00
    -37.993  0.0000E+00  0.6400E+00
    -37.809  0.0000E+00  0.6400E+00
    -37.624  0.0000E+00  0.6400E+00
    -37.440  0.0000E+00  0.6400E+00
    -37.256  0.0000E+00  0.6400E+00
    -37.071  0.0000E+00  0.6400E+00
    -36.887  0.0000E+00  0.6400E+00
    -36.703  0.0000E+00  0.6400E+00
    -36.518  0.0000E+00  0.6400E+00
    -36.334  0.0000E+00  0.6400E+00
    -36.150  0.0000E+00  0.6400E+00
    -35.965  0.0000E+00  0.6400E+00
    -35.781  0.0000E+00  0.6400E+00
    -35.597  0.0000E+00  0.6400E+00
    -35.412  0.0000E+00  0.6400E+00
    -35.228  0.0000E+00  0.6400E+00
    -35.044  0.0000E+00  0.6400E+00
    -34.859  0.0000E+00  0.6400E+00
    -34.675  0.0000E+00  0.6400E+00
    -34.491  0.0000E+00  0.6400E+00
    -34.306  0.0000E+00  0.6400E+00
    -34.122  0.0000E+00  0.6400E+00
    -33.938  0.0000E+00  0.6400E+00
    -33.753  0.0000E+00  0.6400E+00
    -33.569  0.0000E+00  0.6400E+00
    -33.385  0.0000E+00  0.6400E+00
    -33.200  0.0000E+00  0.6400E+00
    -33.016  0.0000E+00  0.6400E+00
    -32.832  0.0000E+00  0.6400E+00
    -32.647  0.0000E+00  0.6400E+00
    -32.463  0.0000E+00  0.6400E+00
    -32.279  0.0000E+00  0.6400E+00
    -32.094  0.0000E+00  0.6400E+00
    -31.910  0.0000E+00  0.6400E+00
    -31.726  0.0000E+00  0.6400E+00
    -31.541  0.0000E+00  0.6400E+00
    -31.357  0.0000E+00  0.6400E+00
    -31.173  0.0000E+00  0.6400E+00
    -30.988  0.0000E+00  0.6400E+00
    -30.804  0.0000E+00  0.6400E+00
    -30.620  0.0000E+00  0.6400E+00
    -30.435  0.0000E+00  0.6400E+00
    -30.251  0.0000E+00  0.6400E+00
    -30.067  0.0000E+00  0.6400E+00
    -29.882  0.0000E+00  0.6400E+00
    -29.698  0.0000E+00  0.6400E+00
    -29.514  0.0000E+00  0.6400E+00
    -29.329  0.0000E+00  0.6400E+00
    -29.145  0.0000E+00  0.6400E+00
    -28.961  0.0000E+00  0.6400E+00
    -28.776  0.0000E+00  0.6400E+00
    -28.592  0.0000E+00  0.6400E+00
    -28.407  0.0000E+00  0.6400E+00
    -28.223  0.0000E+00  0.6400E+00
    -28.039  0.0000E+00  0.6400E+00
    -27.854  0.0000E+00  0.6400E+00
    -27.670  0.0000E+00  0.6400E+00
    -27.486  0.0000E+00  0.6400E+00
    -27.301  0.0000E+00  0.6400E+00
    -27.117  0.0000E+00  0.6400E+00
    -26.933  0.0000E+00  0.6400E+00
    -26.748  0.0000E+00  0.6400E+00
    -26.564  0.0000E+00  0.6400E+00
    -26.380  0.0000E+00  0.6400E+00
    -26.195  0.0000E+00  0.6400E+00
    -26.011  0.0000E+00  0.6400E+00
    -25.827  0.0000E+00  0.6400E+00
    -25.642  0.0000E+00  0.6400E+00
    -25.458  0.0000E+00  0.6400E+00
    -25.274  0.0000E+00  0.6400E+00
    -25.089  0.0000E+00  0.6400E+00
    -24.905  0.0000E+00  0.6400E+00
    -24.721  0.0000E+00  0.6400E+00
    -24.536  0.0000E+00  0.6400E+00
    -24.352  0.0000E+00  0.6400E+00
    -24.168  0.0000E+00  0.6400E+00
    -23.983  0.0000E+00  0.6400E+00
    -23.799  0.0000E+00  0.6400E+00
    -23.615  0.0000E+00  0.6400E+00
    -23.430  0.0000E+00  0.6400E+00
    -23.246  0.0000E+00  0.6400E+00
    -23.062  0.0000E+00  0.6400E+00
    -22.877  0.0000E+00  0.6400E+00
    -22.693  0.0000E+00  0.6400E+00
    -22.509  0.0000E+00  0.6400E+00
    -22.324  0.0000E+00  0.6400E+00
    -22.140  0.0000E+00  0.6400E+00
    -21.956  0.0000E+00  0.6400E+00
    -21.771  0.0000E+00  0.6400E+00
    -21.587  0.0000E+00  0.6400E+00
    -21.403  0.0000E+00  0.6400E+00
    -21.218  0.0000E+00  0.6400E+00
    -21.034  0.0000E+00  0.6400E+00
    -20.850  0.0000E+00  0.6400E+00
    -20.665  0.0000E+00  0.6400E+00
    -20.481  0.0000E+00  0.6400E+00
    -20.297  0.0000E+00  0.6400E+00
    -20.112 -0.4623E-33  0.6400E+00
    -19.928 -0.1294E-26  0.6400E+00
    -19.744 -0.6706E-21  0.6400E+00
    -19.559 -0.6353E-16  0.6400E+00
    -19.375 -0.1171E-11  0.6400E+00
    -19.191 -0.4228E-08  0.6400E+00
    -19.006 -0.3107E-05  0.6400E+00
    -18.822 -0.4804E-03  0.6399E+00
    -18.638 -0.1478E-01  0.6372E+00
    -18.453 -0.3436E-01  0.6309E+00
    -18.269  0.6241E+00  0.7459E+00
    -18.085  0.1650E+01  0.1050E+01
    -17.900  0.1475E+01  0.1322E+01
    -17.716  0.2185E+01  0.1725E+01
    -17.532  0.3190E+01  0.2313E+01
    -17.347  0.1411E+01  0.2573E+01
    -17.163 -0.3326E-01  0.2567E+01
    -16.979 -0.3572E-01  0.2560E+01
    -16.794 -0.1305E-02  0.2560E+01
    -16.610 -0.8224E-05  0.2560E+01
    -16.426 -0.9683E-08  0.2560E+01
    -16.241 -0.2136E-11  0.2560E+01
    -16.057 -0.7144E-16  0.2560E+01
    -15.873  0.0000E+00  0.2560E+01
    -15.688  0.0000E+00  0.2560E+01
    -15.504  0.0000E+00  0.2560E+01
    -15.320  0.0000E+00  0.2560E+01
    -15.135  0.0000E+00  0.2560E+01
    -14.951  0.0000E+00  0.2560E+01
    -14.767  0.0000E+00  0.2560E+01
    -14.582  0.0000E+00  0.2560E+01
    -14.398  0.0000E+00  0.2560E+01
    -14.214  0.0000E+00  0.2560E+01
    -14.029  0.0000E+00  0.2560E+01
    -13.845  0.0000E+00  0.2560E+01
    -13.660  0.0000E+00  0.2560E+01
    -13.476  0.0000E+00  0.2560E+01
    -13.292  0.0000E+00  0.2560E+01
    -13.107  0.0000E+00  0.2560E+01
    -12.923  0.0000E+00  0.2560E+01
    -12.739  0.0000E+00  0.2560E+01
    -12.554  0.0000E+00  0.2560E+01
    -12.370  0.0000E+00  0.2560E+01
    -12.186  0.0000E+00  0.2560E+01
    -12.001  0.0000E+00  0.2560E+01
    -11.817  0.0000E+00  0.2560E+01
    -11.633  0.0000E+00  0.2560E+01
    -11.448  0.0000E+00  0.2560E+01
    -11.264  0.0000E+00  0.2560E+01
    -11.080  0.0000E+00  0.2560E+01
    -10.895  0.0000E+00  0.2560E+01
    -10.711  0.0000E+00  0.2560E+01
    -10.527  0.0000E+00  0.2560E+01
    -10.342  0.0000E+00  0.2560E+01
    -10.158  0.0000E+00  0.2560E+01
     -9.974  0.0000E+00  0.2560E+01
     -9.789  0.0000E+00  0.2560E+01
     -9.605  0.0000E+00  0.2560E+01
     -9.421  0.0000E+00  0.2560E+01
     -9.236  0.0000E+00  0.2560E+01
     -9.052  0.0000E+00  0.2560E+01
     -8.868  0.0000E+00  0.2560E+01
     -8.683  0.0000E+00  0.2560E+01
     -8.499  0.0000E+00  0.2560E+01
     -8.315  0.0000E+00  0.2560E+01
     -8.130  0.0000E+00  0.2560E+01
     -7.946  0.0000E+00  0.2560E+01
     -7.762  0.0000E+00  0.2560E+01
     -7.577  0.0000E+00  0.2560E+01
     -7.393  0.0000E+00  0.2560E+01
     -7.209  0.0000E+00  0.2560E+01
     -7.024  0.0000E+00  0.2560E+01
     -6.840  0.0000E+00  0.2560E+01
     -6.656  0.0000E+00  0.2560E+01
     -6.471  0.0000E+00  0.2560E+01
     -6.287  0.0000E+00  0.2560E+01
     -6.103  0.0000E+00  0.2560E+01
     -5.918  0.0000E+00  0.2560E+01
     -5.734  0.0000E+00  0.2560E+01
     -5.550  0.0000E+00  0.2560E+01
     -5.365  0.0000E+00  0.2560E+01
     -5.181  0.0000E+00  0.2560E+01
     -4.997  0.0000E+00  0.2560E+01
     -4.812  0.0000E+00  0.2560E+01
     -4.628  0.0000E+00  0.2560E+01
     -4.444  0.0000E+00  0.2560E+01
     -4.259  0.0000E+00  0.2560E+01
     -4.075  0.0000E+00  0.2560E+01
     -3.891  0.0000E+00  0.2560E+01
     -3.706  0.0000E+00  0.2560E+01
     -3.522  0.0000E+00  0.2560E+01
     -3.338  0.0000E+00  0.2560E+01
     -3.153  0.0000E+00  0.2560E+01
     -2.969  0.0000E+00  0.2560E+01
     -2.785  0.0000E+00  0.2560E+01
     -2.600  0.0000E+00  0.2560E+01
     -2.416  0.0000E+00  0.2560E+01
     -2.232  0.0000E+00  0.2560E+01
     -2.047  0.0000E+00  0.2560E+01
     -1.863  0.0000E+00  0.2560E+01
     -1.679  0.0000E+00  0.2560E+01
     -1.494  0.0000E+00  0.2560E+01
     -1.310  0.0000E+00  0.2560E+01
     -1.126  0.0000E+00  0.2560E+01
     -0.941  0.0000E+00  0.2560E+01
     -0.757  0.0000E+00  0.2560E+01
     -0.573  0.0000E+00  0.2560E+01
     -0.388  0.0000E+00  0.2560E+01
     -0.204  0.0000E+00  0.2560E+01
     -0.020  0.0000E+00  0.2560E+01
      0.165  0.0000E+00  0.2560E+01
      0.349  0.0000E+00  0.2560E+01
      0.533  0.0000E+00  0.2560E+01
      0.718  0.0000E+00  0.2560E+01
      0.902 -0.1770E-35  0.2560E+01
      1.087 -0.1223E-28  0.2560E+01
      1.271 -0.1154E-22  0.2560E+01
      1.455 -0.1972E-17  0.2560E+01
      1.640 -0.5849E-13  0.2560E+01
      1.824 -0.3155E-09  0.2560E+01
      2.008 -0.2941E-06  0.2560E+01
      2.193 -0.4451E-04  0.2560E+01
      2.377 -0.8456E-03  0.2560E+01
      2.561  0.3124E-02  0.2560E+01
      2.746  0.2396E-01  0.2565E+01
      2.930  0.1124E-01  0.2567E+01
      3.114 -0.1186E-02  0.2567E+01
      3.299 -0.5280E-03  0.2567E+01
      3.483  0.4396E-02  0.2567E+01
      3.667  0.1409E-01  0.2570E+01
      3.852  0.2181E-01  0.2574E+01
      4.036  0.2437E-01  0.2579E+01
      4.220  0.3204E-01  0.2584E+01
      4.405  0.3323E-01  0.2591E+01
      4.589  0.4186E-01  0.2598E+01
      4.773  0.4829E-01  0.2607E+01
      4.958  0.5310E-01  0.2617E+01
      5.142  0.5452E-01  0.2627E+01
      5.326  0.8083E-01  0.2642E+01
      5.511  0.7492E-01  0.2656E+01
      5.695  0.8844E-01  0.2672E+01
      5.879  0.1685E+00  0.2703E+01
      6.064  0.2558E+00  0.2750E+01
      6.248  0.3144E+00  0.2808E+01
      6.432  0.3372E+00  0.2870E+01
      6.617  0.3640E+00  0.2937E+01
      6.801  0.3980E+00  0.3011E+01
      6.985  0.4698E+00  0.3097E+01
      7.170  0.3810E+00  0.3168E+01
      7.354  0.3389E+00  0.3230E+01
      7.538  0.3081E+00  0.3287E+01
      7.723  0.3902E+00  0.3359E+01
      7.907  0.4345E+00  0.3439E+01
      8.091  0.4749E+00  0.3526E+01
      8.276  0.5442E+00  0.3627E+01
      8.460  0.5321E+00  0.3725E+01
      8.644  0.2668E+00  0.3774E+01
      8.829  0.1901E+00  0.3809E+01
      9.013  0.2994E+00  0.3864E+01
      9.197  0.5355E+00  0.3963E+01
      9.382  0.5912E+00  0.4072E+01
      9.566  0.5201E+00  0.4168E+01
      9.750  0.5496E+00  0.4269E+01
      9.935  0.5829E+00  0.4377E+01
     10.119  0.6381E+00  0.4494E+01
     10.303  0.5005E+00  0.4586E+01
     10.488  0.1261E+00  0.4610E+01
     10.672 -0.1349E-01  0.4607E+01
     10.856 -0.3018E-02  0.4607E+01
     11.041 -0.7099E-04  0.4607E+01
     11.225 -0.2986E-06  0.4607E+01
     11.409 -0.2375E-09  0.4607E+01
     11.594 -0.3590E-13  0.4607E+01
     11.778  0.0000E+00  0.4607E+01
     11.962  0.0000E+00  0.4607E+01
     12.147  0.0000E+00  0.4607E+01
     12.331  0.0000E+00  0.4607E+01
     12.515  0.0000E+00  0.4607E+01
     12.700  0.0000E+00  0.4607E+01
     12.884  0.0000E+00  0.4607E+01
