   97   97  300    1
  0.2315679E+02  0.1293663E-08  0.1293663E-08  0.1549806E-08  0.1000000E-15
  1.000000000000000E-004
  CAR 
 Zr96H TO pre-NEB, four intermediate imag
   1153     26    691
 
  0.0000000E+00  0.0000000E+00  0.0000000E+00  0.2083333E-01
      1        -39.903452   1.000000
      2        -39.868858   1.000000
      3        -39.865358   1.000000
      4        -39.848413   1.000000
      5        -39.845385   1.000000
      6        -39.843615   1.000000
      7        -39.842563   1.000000
      8        -39.841849   1.000000
      9        -39.840626   1.000000
     10        -39.824573   1.000000
     11        -39.823908   1.000000
     12        -39.819590   1.000000
     13        -39.815521   1.000000
     14        -39.815062   1.000000
     15        -39.814477   1.000000
     16        -39.814099   1.000000
     17        -39.813504   1.000000
     18        -39.813005   1.000000
     19        -39.812593   1.000000
     20        -39.812435   1.000000
     21        -39.811637   1.000000
     22        -39.794205   1.000000
     23        -39.789703   1.000000
     24        -39.786007   1.000000
     25        -39.777412   1.000000
     26        -39.774940   1.000000
     27        -39.770752   1.000000
     28        -39.770173   1.000000
     29        -39.769838   1.000000
     30        -39.769736   1.000000
     31        -39.768737   1.000000
     32        -39.768653   1.000000
     33        -39.766570   1.000000
     34        -39.766448   1.000000
     35        -39.765412   1.000000
     36        -39.762462   1.000000
     37        -39.761156   1.000000
     38        -39.760147   1.000000
     39        -39.760081   1.000000
     40        -39.759947   1.000000
     41        -39.759573   1.000000
     42        -39.759150   1.000000
     43        -39.758574   1.000000
     44        -39.758219   1.000000
     45        -39.758178   1.000000
     46        -39.758018   1.000000
     47        -39.757641   1.000000
     48        -39.757357   1.000000
     49        -39.757346   1.000000
     50        -39.756499   1.000000
     51        -39.756284   1.000000
     52        -39.755966   1.000000
     53        -39.755937   1.000000
     54        -39.754654   1.000000
     55        -39.754514   1.000000
     56        -39.754192   1.000000
     57        -39.753941   1.000000
     58        -39.753567   1.000000
     59        -39.753511   1.000000
     60        -39.751387   1.000000
     61        -39.750008   1.000000
     62        -39.748189   1.000000
     63        -39.747150   1.000000
     64        -39.738061   1.000000
     65        -39.737791   1.000000
     66        -39.735951   1.000000
     67        -39.735340   1.000000
     68        -39.733913   1.000000
     69        -39.733577   1.000000
     70        -39.733495   1.000000
     71        -39.732534   1.000000
     72        -39.732029   1.000000
     73        -39.731918   1.000000
     74        -39.731336   1.000000
     75        -39.730960   1.000000
     76        -39.730763   1.000000
     77        -39.730679   1.000000
     78        -39.730346   1.000000
     79        -39.729402   1.000000
     80        -39.728795   1.000000
     81        -39.728482   1.000000
     82        -39.728364   1.000000
     83        -39.728208   1.000000
     84        -39.726984   1.000000
     85        -39.725662   1.000000
     86        -39.723806   1.000000
     87        -39.721672   1.000000
     88        -39.721226   1.000000
     89        -39.720065   1.000000
     90        -39.718540   1.000000
     91        -39.717954   1.000000
     92        -39.717918   1.000000
     93        -39.716645   1.000000
     94        -39.713616   1.000000
     95        -39.713388   1.000000
     96        -39.712546   1.000000
     97        -18.416215   1.000000
     98        -18.337697   1.000000
     99        -18.333062   1.000000
    100        -18.332495   1.000000
    101        -18.332393   1.000000
    102        -18.331493   1.000000
    103        -18.331464   1.000000
    104        -18.251154   1.000000
    105        -18.247573   1.000000
    106        -18.246638   1.000000
    107        -18.245871   1.000000
    108        -18.245212   1.000000
    109        -18.244332   1.000000
    110        -18.244030   1.000000
    111        -18.243583   1.000000
    112        -18.243147   1.000000
    113        -18.238993   1.000000
    114        -18.238362   1.000000
    115        -18.237090   1.000000
    116        -18.236799   1.000000
    117        -18.234242   1.000000
    118        -18.233573   1.000000
    119        -18.209876   1.000000
    120        -18.206784   1.000000
    121        -18.204882   1.000000
    122        -18.204809   1.000000
    123        -18.203991   1.000000
    124        -18.203680   1.000000
    125        -18.202785   1.000000
    126        -18.202339   1.000000
    127        -18.201790   1.000000
    128        -18.201252   1.000000
    129        -18.200959   1.000000
    130        -18.199177   1.000000
    131        -18.184423   1.000000
    132        -18.181035   1.000000
    133        -18.169307   1.000000
    134        -18.168687   1.000000
    135        -18.168309   1.000000
    136        -18.167233   1.000000
    137        -18.166105   1.000000
    138        -18.166021   1.000000
    139        -18.164730   1.000000
    140        -18.164366   1.000000
    141        -18.163467   1.000000
    142        -18.162739   1.000000
    143        -18.162648   1.000000
    144        -18.162477   1.000000
    145        -18.162160   1.000000
    146        -18.161729   1.000000
    147        -18.161259   1.000000
    148        -18.160968   1.000000
    149        -18.160116   1.000000
    150        -18.160007   1.000000
    151        -18.159295   1.000000
    152        -18.157932   1.000000
    153        -18.157600   1.000000
    154        -18.157401   1.000000
    155        -18.155876   1.000000
    156        -18.155201   1.000000
    157        -18.102681   1.000000
    158        -18.102191   1.000000
    159        -18.100951   1.000000
    160        -18.100300   1.000000
    161        -18.099638   1.000000
    162        -18.099523   1.000000
    163        -18.079884   1.000000
    164        -18.076790   1.000000
    165        -18.076673   1.000000
    166        -18.030365   1.000000
    167        -18.030323   1.000000
    168        -18.026557   1.000000
    169        -18.023997   1.000000
    170        -18.023983   1.000000
    171        -18.022871   1.000000
    172        -17.999040   1.000000
    173        -17.998520   1.000000
    174        -17.995703   1.000000
    175        -17.994883   1.000000
    176        -17.992894   1.000000
    177        -17.992552   1.000000
    178        -17.991059   1.000000
    179        -17.990366   1.000000
    180        -17.990312   1.000000
    181        -17.945382   1.000000
    182        -17.943080   1.000000
    183        -17.941900   1.000000
    184        -17.941405   1.000000
    185        -17.940293   1.000000
    186        -17.938234   1.000000
    187        -17.937907   1.000000
    188        -17.936654   1.000000
    189        -17.936373   1.000000
    190        -17.935784   1.000000
    191        -17.935618   1.000000
    192        -17.934677   1.000000
    193        -17.908322   1.000000
    194        -17.906810   1.000000
    195        -17.903952   1.000000
    196        -17.903860   1.000000
    197        -17.902072   1.000000
    198        -17.900940   1.000000
    199        -17.889648   1.000000
    200        -17.883676   1.000000
    201        -17.883556   1.000000
    202        -17.881580   1.000000
    203        -17.881573   1.000000
    204        -17.880832   1.000000
    205        -17.880075   1.000000
    206        -17.880025   1.000000
    207        -17.879311   1.000000
    208        -17.878230   1.000000
    209        -17.878099   1.000000
    210        -17.875736   1.000000
    211        -17.828655   1.000000
    212        -17.827721   1.000000
    213        -17.825771   1.000000
    214        -17.823205   1.000000
    215        -17.822427   1.000000
    216        -17.821002   1.000000
    217        -17.807467   1.000000
    218        -17.801908   1.000000
    219        -17.801698   1.000000
    220        -17.801630   1.000000
    221        -17.800870   1.000000
    222        -17.799897   1.000000
    223        -17.796983   1.000000
    224        -17.796720   1.000000
    225        -17.795798   1.000000
    226        -17.795152   1.000000
    227        -17.794117   1.000000
    228        -17.794004   1.000000
    229        -17.778441   1.000000
    230        -17.778086   1.000000
    231        -17.777562   1.000000
    232        -17.775764   1.000000
    233        -17.775349   1.000000
    234        -17.772159   1.000000
    235        -17.771227   1.000000
    236        -17.769926   1.000000
    237        -17.766827   1.000000
    238        -17.765667   1.000000
    239        -17.765116   1.000000
    240        -17.763930   1.000000
    241        -17.763824   1.000000
    242        -17.763271   1.000000
    243        -17.762004   1.000000
    244        -17.760860   1.000000
    245        -17.760820   1.000000
    246        -17.760652   1.000000
    247        -17.759807   1.000000
    248        -17.758764   1.000000
    249        -17.758208   1.000000
    250        -17.757507   1.000000
    251        -17.756630   1.000000
    252        -17.756526   1.000000
    253        -17.755197   1.000000
    254        -17.754880   1.000000
    255        -17.751040   1.000000
    256        -17.708082   1.000000
    257        -17.706199   1.000000
    258        -17.705656   1.000000
    259        -17.704054   1.000000
    260        -17.703782   1.000000
    261        -17.703654   1.000000
    262        -17.694089   1.000000
    263        -17.688634   1.000000
    264        -17.686602   1.000000
    265        -17.684630   1.000000
    266        -17.684383   1.000000
    267        -17.680039   1.000000
    268        -17.679791   1.000000
    269        -17.678505   1.000000
    270        -17.678456   1.000000
    271        -17.676827   1.000000
    272        -17.673806   1.000000
    273        -17.671256   1.000000
    274        -17.671065   1.000000
    275        -17.670531   1.000000
    276        -17.670333   1.000000
    277        -17.670270   1.000000
    278        -17.669149   1.000000
    279        -17.668884   1.000000
    280        -17.668788   1.000000
    281        -17.668693   1.000000
    282        -17.668165   1.000000
    283        -17.667625   1.000000
    284        -17.666902   1.000000
    285        -17.666568   1.000000
    286        -17.664871   1.000000
    287        -17.664080   1.000000
    288        -17.663747   1.000000
    289        -17.663199   1.000000
    290        -17.662756   1.000000
    291        -17.661652   1.000000
    292        -17.661266   1.000000
    293        -17.661168   1.000000
    294        -17.660830   1.000000
    295        -17.660054   1.000000
    296        -17.659045   1.000000
    297        -17.631371   1.000000
    298        -17.630924   1.000000
    299        -17.629889   1.000000
    300        -17.628679   1.000000
    301        -17.628148   1.000000
    302        -17.622262   1.000000
    303        -17.621998   1.000000
    304        -17.619770   1.000000
    305        -17.618282   1.000000
    306        -17.617908   1.000000
    307        -17.617840   1.000000
    308        -17.616307   1.000000
    309        -17.614617   1.000000
    310        -17.614465   1.000000
    311        -17.614225   1.000000
    312        -17.614111   1.000000
    313        -17.612434   1.000000
    314        -17.610341   1.000000
    315        -17.590634   1.000000
    316        -17.589311   1.000000
    317        -17.589287   1.000000
    318        -17.586310   1.000000
    319        -17.583597   1.000000
    320        -17.583471   1.000000
    321        -17.577721   1.000000
    322        -17.577197   1.000000
    323        -17.575196   1.000000
    324        -17.574655   1.000000
    325        -17.574537   1.000000
    326        -17.573775   1.000000
    327        -17.573666   1.000000
    328        -17.572896   1.000000
    329        -17.572172   1.000000
    330        -17.572079   1.000000
    331        -17.571037   1.000000
    332        -17.570783   1.000000
    333        -17.569042   1.000000
    334        -17.566890   1.000000
    335        -17.565417   1.000000
    336        -17.564299   1.000000
    337        -17.564296   1.000000
    338        -17.563291   1.000000
    339        -17.563179   1.000000
    340        -17.562743   1.000000
    341        -17.561934   1.000000
    342        -17.561847   1.000000
    343        -17.560872   1.000000
    344        -17.559719   1.000000
    345        -17.555637   1.000000
    346        -17.555168   1.000000
    347        -17.528760   1.000000
    348        -17.526428   1.000000
    349        -17.526361   1.000000
    350        -17.526112   1.000000
    351        -17.525687   1.000000
    352        -17.522791   1.000000
    353        -17.522704   1.000000
    354        -17.521425   1.000000
    355        -17.521290   1.000000
    356        -17.520748   1.000000
    357        -17.519043   1.000000
    358        -17.518984   1.000000
    359        -17.518801   1.000000
    360        -17.517589   1.000000
    361        -17.516961   1.000000
    362        -17.516319   1.000000
    363        -17.515849   1.000000
    364        -17.515742   1.000000
    365        -17.515364   1.000000
    366        -17.513376   1.000000
    367        -17.509862   1.000000
    368        -17.509032   1.000000
    369        -17.508225   1.000000
    370        -17.508045   1.000000
    371        -17.506935   1.000000
    372        -17.471884   1.000000
    373        -17.471599   1.000000
    374        -17.470240   1.000000
    375        -17.468992   1.000000
    376        -17.468706   1.000000
    377        -17.466528   1.000000
    378        -17.455239   1.000000
    379        -17.454804   1.000000
    380        -17.451734   1.000000
    381        -17.451078   1.000000
    382        -17.429250   1.000000
    383        -17.419128   1.000000
    384        -17.418539   1.000000
    385          2.667424   1.000000
    386          3.412487   1.000000
    387          4.152020   1.000000
    388          4.233534   1.000000
    389          4.811077   1.000000
    390          4.812727   1.000000
    391          4.814289   1.000000
    392          4.815129   1.000000
    393          4.815831   1.000000
    394          4.951076   1.000000
    395          5.386709   1.000000
    396          5.390766   1.000000
    397          5.392599   1.000000
    398          5.392822   1.000000
    399          5.393259   1.000000
    400          5.393872   1.000000
    401          5.394067   1.000000
    402          5.394246   1.000000
    403          5.394854   1.000000
    404          5.394907   1.000000
    405          5.395657   1.000000
    406          5.602886   1.000000
    407          5.656318   1.000000
    408          5.724128   1.000000
    409          5.904150   1.000000
    410          5.905204   1.000000
    411          5.907710   1.000000
    412          5.909307   1.000000
    413          5.909553   1.000000
    414          5.921933   1.000000
    415          6.017872   1.000000
    416          6.393061   1.000000
    417          6.397140   1.000000
    418          6.399136   1.000000
    419          6.416975   1.000000
    420          6.421050   1.000000
    421          6.425529   1.000000
    422          6.428116   1.000000
    423          6.429906   1.000000
    424          6.434175   1.000000
    425          6.439530   1.000000
    426          6.442354   1.000000
    427          6.483509   1.000000
    428          6.709329   1.000000
    429          6.714643   1.000000
    430          6.715027   1.000000
    431          6.719073   1.000000
    432          6.719171   1.000000
    433          6.720417   1.000000
    434          6.721943   1.000000
    435          6.722846   1.000000
    436          6.723840   1.000000
    437          6.724580   1.000000
    438          6.724730   1.000000
    439          6.749800   1.000000
    440          6.780776   1.000000
    441          6.783219   1.000000
    442          6.787989   1.000000
    443          6.788001   1.000000
    444          6.788751   1.000000
    445          6.791020   1.000000
    446          6.791661   1.000000
    447          6.792996   1.000000
    448          6.794057   1.000000
    449          6.797772   1.000000
    450          6.798685   1.000000
    451          6.811384   1.000000
    452          6.811650   1.000000
    453          6.814485   1.000000
    454          6.839936   1.000000
    455          6.859175   1.000000
    456          6.859485   1.000000
    457          6.864053   1.000000
    458          6.864324   1.000000
    459          6.866862   1.000000
    460          6.887344   1.000000
    461          6.895029   1.000000
    462          6.897234   1.000000
    463          6.898577   1.000000
    464          6.900410   1.000000
    465          6.901486   1.000000
    466          6.903007   1.000000
    467          6.903142   1.000000
    468          6.904299   1.000000
    469          6.906017   1.000000
    470          6.906269   1.000000
    471          6.906964   1.000000
    472          6.928496   1.000000
    473          6.930166   1.000000
    474          6.930563   1.000000
    475          6.932578   1.000000
    476          6.936396   1.000000
    477          6.937537   1.000000
    478          7.016478   1.000000
    479          7.029925   1.000000
    480          7.036661   1.000000
    481          7.037506   1.000000
    482          7.037576   1.000000
    483          7.039095   1.000000
    484          7.458680   1.000000
    485          7.569501   1.000000
    486          7.572933   1.000000
    487          7.574503   1.000000
    488          7.574971   1.000000
    489          7.577082   1.000000
    490          7.616879   1.000000
    491          7.659430   1.000000
    492          7.674821   1.000000
    493          7.676033   1.000000
    494          7.678020   1.000000
    495          7.678163   1.000000
    496          7.684379   1.000000
    497          7.687949   1.000000
    498          7.689716   1.000000
    499          7.690509   1.000000
    500          7.694750   1.000000
    501          7.696191   1.000000
    502          7.715822   1.000000
    503          7.751742   1.000000
    504          7.758620   1.000000
    505          7.763026   1.000000
    506          7.763277   1.000000
    507          7.764576   1.000000
    508          7.768082   1.000000
    509          7.768152   1.000000
    510          7.770614   1.000000
    511          7.771547   1.000000
    512          7.774337   1.000000
    513          7.786690   1.000000
    514          7.818220   1.000000
    515          7.856092   1.000000
    516          7.859820   1.000000
    517          7.860638   1.000000
    518          7.863175   1.000000
    519          7.864587   1.000000
    520          7.865683   1.000000
    521          7.865899   1.000000
    522          7.868951   1.000000
    523          7.871177   1.000000
    524          7.874378   1.000000
    525          7.881464   1.000000
    526          7.971446   1.000000
    527          8.010242   1.000000
    528          8.011130   1.000000
    529          8.012700   1.000000
    530          8.017552   1.000000
    531          8.018355   1.000000
    532          8.023748   1.000000
    533          8.041665   1.000000
    534          8.043845   1.000000
    535          8.045151   1.000000
    536          8.045184   1.000000
    537          8.047175   1.000000
    538          8.289333   1.000013
    539          8.352656   1.000087
    540          8.354807   1.000093
    541          8.357064   1.000099
    542          8.360234   1.000108
    543          8.362385   1.000115
    544          8.363026   1.000117
    545          8.364338   1.000121
    546          8.365440   1.000125
    547          8.367829   1.000133
    548          8.369079   1.000138
    549          8.369287   1.000138
    550          8.396031   1.000281
    551          8.416480   1.000469
    552          8.419044   1.000499
    553          8.421947   1.000536
    554          8.424569   1.000571
    555          8.429970   1.000650
    556          8.529293   1.005160
    557          8.577505   1.011297
    558          8.581472   1.011964
    559          8.584464   1.012484
    560          8.587171   1.012967
    561          8.593688   1.014174
    562          8.595131   1.014450
    563          8.595977   1.014613
    564          8.598591   1.015125
    565          8.598743   1.015155
    566          8.615304   1.018606
    567          8.620802   1.019821
    568          8.697694   1.034915
    569          8.725492   1.034444
    570          8.727092   1.034210
    571          8.811718   0.965527
    572          8.875010   0.810428
    573          8.880719   0.791678
    574          8.884078   0.780316
    575          8.889621   0.761055
    576          8.890342   0.758503
    577          8.891539   0.754246
    578          8.892665   0.750216
    579          8.893955   0.745569
    580          8.899550   0.725055
    581          8.902675   0.713354
    582          8.904388   0.706869
    583          9.001293   0.309945
    584          9.045240   0.157972
    585          9.051028   0.141100
    586          9.064134   0.105942
    587          9.066856   0.099178
    588          9.076203   0.077380
    589          9.081074   0.066893
    590          9.082083   0.064796
    591          9.098877   0.033596
    592          9.101048   0.030065
    593          9.110585   0.015864
    594          9.114944   0.010068
    595          9.116707   0.007843
    596          9.118765   0.005332
    597          9.119539   0.004412
    598          9.119686   0.004238
    599          9.120388   0.003417
    600          9.125757  -0.002521
    601          9.127667  -0.004489
    602          9.133039  -0.009632
    603          9.150572  -0.022655
    604          9.161778  -0.028282
    605          9.165783  -0.029843
    606          9.167137  -0.030321
    607          9.168287  -0.030708
    608          9.170025  -0.031259
    609          9.170865  -0.031512
    610          9.173502  -0.032247
    611          9.179838  -0.033672
    612          9.180699  -0.033830
    613          9.194022  -0.035315
    614          9.199280  -0.035456
    615          9.323671  -0.012827
    616          9.350071  -0.008655
    617          9.481228  -0.000632
    618          9.494006  -0.000464
    619          9.499974  -0.000400
    620          9.576908  -0.000050
    621          9.615764  -0.000015
    622          9.617558  -0.000015
    623          9.618613  -0.000014
    624          9.622247  -0.000013
    625          9.622481  -0.000013
    626          9.626846  -0.000011
    627          9.630058  -0.000010
    628          9.631397  -0.000009
    629          9.641384  -0.000007
    630          9.680168  -0.000002
    631          9.694157  -0.000001
    632          9.707625  -0.000001
    633          9.735722  -0.000000
    634          9.761256  -0.000000
    635          9.764611  -0.000000
    636          9.771874  -0.000000
    637          9.780972  -0.000000
    638          9.785818  -0.000000
    639          9.803911  -0.000000
    640          9.809429  -0.000000
    641          9.829209  -0.000000
    642          9.838127  -0.000000
    643          9.845564  -0.000000
    644          9.848082  -0.000000
    645          9.848307  -0.000000
    646          9.852309  -0.000000
    647          9.856941  -0.000000
    648          9.858206  -0.000000
    649          9.859557  -0.000000
    650          9.863578  -0.000000
    651          9.868057  -0.000000
    652          9.881229  -0.000000
    653          9.927334  -0.000000
    654          9.981348  -0.000000
    655          9.990730  -0.000000
    656          9.994633  -0.000000
    657          9.994767  -0.000000
    658         10.014232  -0.000000
    659         10.047847  -0.000000
    660         10.052521  -0.000000
    661         10.053731  -0.000000
    662         10.063083  -0.000000
    663         10.064915  -0.000000
    664         10.074992  -0.000000
    665         10.121298  -0.000000
    666         10.125473  -0.000000
    667         10.131236  -0.000000
    668         10.133615  -0.000000
    669         10.136098  -0.000000
    670         10.137517  -0.000000
    671         10.164224  -0.000000
    672         10.168973  -0.000000
    673         10.183843  -0.000000
    674         10.196242  -0.000000
    675         10.200069  -0.000000
    676         10.205572  -0.000000
    677         10.206267  -0.000000
    678         10.214339  -0.000000
    679         10.218264  -0.000000
    680         10.222009  -0.000000
    681         10.222844  -0.000000
    682         10.231903  -0.000000
    683         10.241130  -0.000000
    684         10.245041  -0.000000
    685         10.248597  -0.000000
    686         10.254130  -0.000000
    687         10.255392  -0.000000
    688         10.258909  -0.000000
    689         10.262926  -0.000000
    690         10.264680  -0.000000
    691         10.267876  -0.000000
 
  0.2500000E+00 -0.8988716E-17  0.0000000E+00  0.4166667E-01
      1        -39.899114   1.000000
      2        -39.868165   1.000000
      3        -39.864611   1.000000
      4        -39.861694   1.000000
      5        -39.853180   1.000000
      6        -39.852882   1.000000
      7        -39.838664   1.000000
      8        -39.834458   1.000000
      9        -39.830844   1.000000
     10        -39.828916   1.000000
     11        -39.826271   1.000000
     12        -39.824802   1.000000
     13        -39.823394   1.000000
     14        -39.820594   1.000000
     15        -39.817554   1.000000
     16        -39.807219   1.000000
     17        -39.806601   1.000000
     18        -39.803602   1.000000
     19        -39.800577   1.000000
     20        -39.797201   1.000000
     21        -39.794214   1.000000
     22        -39.791350   1.000000
     23        -39.791258   1.000000
     24        -39.789060   1.000000
     25        -39.786101   1.000000
     26        -39.781587   1.000000
     27        -39.779840   1.000000
     28        -39.775070   1.000000
     29        -39.774429   1.000000
     30        -39.772211   1.000000
     31        -39.771925   1.000000
     32        -39.770864   1.000000
     33        -39.770062   1.000000
     34        -39.768990   1.000000
     35        -39.768817   1.000000
     36        -39.768025   1.000000
     37        -39.766414   1.000000
     38        -39.766062   1.000000
     39        -39.764409   1.000000
     40        -39.762233   1.000000
     41        -39.762068   1.000000
     42        -39.761459   1.000000
     43        -39.760267   1.000000
     44        -39.759386   1.000000
     45        -39.757836   1.000000
     46        -39.757495   1.000000
     47        -39.756680   1.000000
     48        -39.756595   1.000000
     49        -39.755483   1.000000
     50        -39.755319   1.000000
     51        -39.754153   1.000000
     52        -39.753685   1.000000
     53        -39.752087   1.000000
     54        -39.751711   1.000000
     55        -39.750189   1.000000
     56        -39.749809   1.000000
     57        -39.748416   1.000000
     58        -39.747424   1.000000
     59        -39.746460   1.000000
     60        -39.746397   1.000000
     61        -39.745706   1.000000
     62        -39.743488   1.000000
     63        -39.742527   1.000000
     64        -39.739883   1.000000
     65        -39.738610   1.000000
     66        -39.738417   1.000000
     67        -39.736480   1.000000
     68        -39.735625   1.000000
     69        -39.735154   1.000000
     70        -39.735109   1.000000
     71        -39.733784   1.000000
     72        -39.733447   1.000000
     73        -39.732644   1.000000
     74        -39.732432   1.000000
     75        -39.731228   1.000000
     76        -39.731152   1.000000
     77        -39.730948   1.000000
     78        -39.730067   1.000000
     79        -39.729579   1.000000
     80        -39.729388   1.000000
     81        -39.728196   1.000000
     82        -39.728146   1.000000
     83        -39.726643   1.000000
     84        -39.726557   1.000000
     85        -39.723659   1.000000
     86        -39.723557   1.000000
     87        -39.722349   1.000000
     88        -39.722267   1.000000
     89        -39.719300   1.000000
     90        -39.718896   1.000000
     91        -39.718352   1.000000
     92        -39.717820   1.000000
     93        -39.716418   1.000000
     94        -39.714348   1.000000
     95        -39.713907   1.000000
     96        -39.712628   1.000000
     97        -18.404436   1.000000
     98        -18.323871   1.000000
     99        -18.319517   1.000000
    100        -18.319022   1.000000
    101        -18.318006   1.000000
    102        -18.315365   1.000000
    103        -18.313819   1.000000
    104        -18.312454   1.000000
    105        -18.274452   1.000000
    106        -18.274408   1.000000
    107        -18.238584   1.000000
    108        -18.235591   1.000000
    109        -18.234042   1.000000
    110        -18.231749   1.000000
    111        -18.231649   1.000000
    112        -18.229502   1.000000
    113        -18.226344   1.000000
    114        -18.224960   1.000000
    115        -18.224354   1.000000
    116        -18.222214   1.000000
    117        -18.220029   1.000000
    118        -18.216213   1.000000
    119        -18.213244   1.000000
    120        -18.207623   1.000000
    121        -18.206373   1.000000
    122        -18.204706   1.000000
    123        -18.204416   1.000000
    124        -18.203690   1.000000
    125        -18.203329   1.000000
    126        -18.203014   1.000000
    127        -18.202333   1.000000
    128        -18.201824   1.000000
    129        -18.201703   1.000000
    130        -18.199073   1.000000
    131        -18.197731   1.000000
    132        -18.181429   1.000000
    133        -18.179993   1.000000
    134        -18.178826   1.000000
    135        -18.177748   1.000000
    136        -18.176900   1.000000
    137        -18.175014   1.000000
    138        -18.169130   1.000000
    139        -18.167546   1.000000
    140        -18.167253   1.000000
    141        -18.167102   1.000000
    142        -18.165637   1.000000
    143        -18.164882   1.000000
    144        -18.164559   1.000000
    145        -18.162644   1.000000
    146        -18.161888   1.000000
    147        -18.159271   1.000000
    148        -18.158085   1.000000
    149        -18.157812   1.000000
    150        -18.155369   1.000000
    151        -18.154476   1.000000
    152        -18.154305   1.000000
    153        -18.138203   1.000000
    154        -18.137143   1.000000
    155        -18.130905   1.000000
    156        -18.130799   1.000000
    157        -18.125192   1.000000
    158        -18.124892   1.000000
    159        -18.122850   1.000000
    160        -18.122698   1.000000
    161        -18.070111   1.000000
    162        -18.069794   1.000000
    163        -18.066566   1.000000
    164        -18.064780   1.000000
    165        -18.063710   1.000000
    166        -18.063548   1.000000
    167        -18.056065   1.000000
    168        -18.054487   1.000000
    169        -18.052262   1.000000
    170        -18.035117   1.000000
    171        -18.019809   1.000000
    172        -18.018141   1.000000
    173        -18.015186   1.000000
    174        -18.012958   1.000000
    175        -18.010454   1.000000
    176        -18.004033   1.000000
    177        -18.003855   1.000000
    178        -18.002290   1.000000
    179        -18.002225   1.000000
    180        -17.998509   1.000000
    181        -17.998135   1.000000
    182        -17.994960   1.000000
    183        -17.993969   1.000000
    184        -17.991209   1.000000
    185        -17.991136   1.000000
    186        -17.970772   1.000000
    187        -17.968309   1.000000
    188        -17.950931   1.000000
    189        -17.948363   1.000000
    190        -17.947878   1.000000
    191        -17.947141   1.000000
    192        -17.925814   1.000000
    193        -17.925780   1.000000
    194        -17.894291   1.000000
    195        -17.891294   1.000000
    196        -17.890564   1.000000
    197        -17.890432   1.000000
    198        -17.888522   1.000000
    199        -17.888291   1.000000
    200        -17.886322   1.000000
    201        -17.874369   1.000000
    202        -17.870581   1.000000
    203        -17.870381   1.000000
    204        -17.868431   1.000000
    205        -17.846490   1.000000
    206        -17.845961   1.000000
    207        -17.838668   1.000000
    208        -17.836943   1.000000
    209        -17.832895   1.000000
    210        -17.831374   1.000000
    211        -17.828166   1.000000
    212        -17.827684   1.000000
    213        -17.827008   1.000000
    214        -17.825059   1.000000
    215        -17.824389   1.000000
    216        -17.823996   1.000000
    217        -17.815833   1.000000
    218        -17.814122   1.000000
    219        -17.813788   1.000000
    220        -17.811357   1.000000
    221        -17.800763   1.000000
    222        -17.797326   1.000000
    223        -17.796686   1.000000
    224        -17.794913   1.000000
    225        -17.794827   1.000000
    226        -17.793518   1.000000
    227        -17.785666   1.000000
    228        -17.784934   1.000000
    229        -17.783422   1.000000
    230        -17.783304   1.000000
    231        -17.782850   1.000000
    232        -17.779666   1.000000
    233        -17.776328   1.000000
    234        -17.776203   1.000000
    235        -17.772394   1.000000
    236        -17.770693   1.000000
    237        -17.770364   1.000000
    238        -17.769252   1.000000
    239        -17.769176   1.000000
    240        -17.768348   1.000000
    241        -17.767650   1.000000
    242        -17.766241   1.000000
    243        -17.764787   1.000000
    244        -17.764459   1.000000
    245        -17.761407   1.000000
    246        -17.755112   1.000000
    247        -17.738645   1.000000
    248        -17.733112   1.000000
    249        -17.730679   1.000000
    250        -17.729632   1.000000
    251        -17.728411   1.000000
    252        -17.727759   1.000000
    253        -17.727262   1.000000
    254        -17.725268   1.000000
    255        -17.724474   1.000000
    256        -17.722987   1.000000
    257        -17.704937   1.000000
    258        -17.702551   1.000000
    259        -17.701929   1.000000
    260        -17.701774   1.000000
    261        -17.700488   1.000000
    262        -17.699695   1.000000
    263        -17.698493   1.000000
    264        -17.697601   1.000000
    265        -17.697045   1.000000
    266        -17.690183   1.000000
    267        -17.686295   1.000000
    268        -17.684766   1.000000
    269        -17.681960   1.000000
    270        -17.678875   1.000000
    271        -17.673214   1.000000
    272        -17.671502   1.000000
    273        -17.669647   1.000000
    274        -17.669365   1.000000
    275        -17.669071   1.000000
    276        -17.667961   1.000000
    277        -17.665760   1.000000
    278        -17.661481   1.000000
    279        -17.660118   1.000000
    280        -17.659624   1.000000
    281        -17.658676   1.000000
    282        -17.655305   1.000000
    283        -17.655160   1.000000
    284        -17.653939   1.000000
    285        -17.653369   1.000000
    286        -17.652248   1.000000
    287        -17.651812   1.000000
    288        -17.651144   1.000000
    289        -17.649615   1.000000
    290        -17.648754   1.000000
    291        -17.648603   1.000000
    292        -17.647625   1.000000
    293        -17.647571   1.000000
    294        -17.646033   1.000000
    295        -17.645573   1.000000
    296        -17.644352   1.000000
    297        -17.644215   1.000000
    298        -17.642280   1.000000
    299        -17.634524   1.000000
    300        -17.631128   1.000000
    301        -17.628826   1.000000
    302        -17.624452   1.000000
    303        -17.623027   1.000000
    304        -17.620788   1.000000
    305        -17.618411   1.000000
    306        -17.618110   1.000000
    307        -17.616932   1.000000
    308        -17.616601   1.000000
    309        -17.614601   1.000000
    310        -17.614008   1.000000
    311        -17.611798   1.000000
    312        -17.611679   1.000000
    313        -17.592333   1.000000
    314        -17.591657   1.000000
    315        -17.589666   1.000000
    316        -17.589654   1.000000
    317        -17.586159   1.000000
    318        -17.584524   1.000000
    319        -17.584244   1.000000
    320        -17.583297   1.000000
    321        -17.582648   1.000000
    322        -17.582511   1.000000
    323        -17.581125   1.000000
    324        -17.580687   1.000000
    325        -17.580254   1.000000
    326        -17.578853   1.000000
    327        -17.578289   1.000000
    328        -17.576791   1.000000
    329        -17.575885   1.000000
    330        -17.574310   1.000000
    331        -17.573577   1.000000
    332        -17.572658   1.000000
    333        -17.572449   1.000000
    334        -17.572300   1.000000
    335        -17.570981   1.000000
    336        -17.565240   1.000000
    337        -17.561175   1.000000
    338        -17.560044   1.000000
    339        -17.559481   1.000000
    340        -17.558313   1.000000
    341        -17.555147   1.000000
    342        -17.549279   1.000000
    343        -17.547836   1.000000
    344        -17.547226   1.000000
    345        -17.546308   1.000000
    346        -17.545654   1.000000
    347        -17.545358   1.000000
    348        -17.543139   1.000000
    349        -17.542810   1.000000
    350        -17.542503   1.000000
    351        -17.541956   1.000000
    352        -17.539078   1.000000
    353        -17.537556   1.000000
    354        -17.536897   1.000000
    355        -17.536508   1.000000
    356        -17.535124   1.000000
    357        -17.534811   1.000000
    358        -17.533398   1.000000
    359        -17.532917   1.000000
    360        -17.529956   1.000000
    361        -17.527989   1.000000
    362        -17.522172   1.000000
    363        -17.516255   1.000000
    364        -17.514949   1.000000
    365        -17.512470   1.000000
    366        -17.511579   1.000000
    367        -17.497094   1.000000
    368        -17.495812   1.000000
    369        -17.494224   1.000000
    370        -17.493980   1.000000
    371        -17.493052   1.000000
    372        -17.491995   1.000000
    373        -17.489750   1.000000
    374        -17.474691   1.000000
    375        -17.472909   1.000000
    376        -17.470048   1.000000
    377        -17.468868   1.000000
    378        -17.465915   1.000000
    379        -17.460074   1.000000
    380        -17.456540   1.000000
    381        -17.449193   1.000000
    382        -17.445790   1.000000
    383        -17.434177   1.000000
    384        -17.422567   1.000000
    385          2.680546   1.000000
    386          3.500466   1.000000
    387          4.223275   1.000000
    388          4.251263   1.000000
    389          4.345172   1.000000
    390          4.576019   1.000000
    391          4.644251   1.000000
    392          4.945123   1.000000
    393          4.990330   1.000000
    394          5.201036   1.000000
    395          5.209042   1.000000
    396          5.233584   1.000000
    397          5.234689   1.000000
    398          5.234833   1.000000
    399          5.335631   1.000000
    400          5.465309   1.000000
    401          5.653272   1.000000
    402          5.654958   1.000000
    403          5.656180   1.000000
    404          5.692125   1.000000
    405          5.743793   1.000000
    406          5.756193   1.000000
    407          5.760930   1.000000
    408          5.822616   1.000000
    409          5.915955   1.000000
    410          5.940230   1.000000
    411          5.978684   1.000000
    412          5.980717   1.000000
    413          5.982826   1.000000
    414          6.019229   1.000000
    415          6.055641   1.000000
    416          6.269309   1.000000
    417          6.305563   1.000000
    418          6.319327   1.000000
    419          6.393449   1.000000
    420          6.396399   1.000000
    421          6.399258   1.000000
    422          6.409936   1.000000
    423          6.433023   1.000000
    424          6.434090   1.000000
    425          6.440363   1.000000
    426          6.450451   1.000000
    427          6.461760   1.000000
    428          6.479627   1.000000
    429          6.501971   1.000000
    430          6.505407   1.000000
    431          6.506002   1.000000
    432          6.511178   1.000000
    433          6.515843   1.000000
    434          6.518312   1.000000
    435          6.524342   1.000000
    436          6.537134   1.000000
    437          6.553426   1.000000
    438          6.557448   1.000000
    439          6.597962   1.000000
    440          6.671365   1.000000
    441          6.677453   1.000000
    442          6.677718   1.000000
    443          6.681594   1.000000
    444          6.693318   1.000000
    445          6.704649   1.000000
    446          6.736493   1.000000
    447          6.770652   1.000000
    448          6.781412   1.000000
    449          6.801045   1.000000
    450          6.804340   1.000000
    451          6.807911   1.000000
    452          6.823358   1.000000
    453          6.839879   1.000000
    454          6.852694   1.000000
    455          6.863365   1.000000
    456          6.865450   1.000000
    457          6.865729   1.000000
    458          6.882280   1.000000
    459          6.891267   1.000000
    460          6.899015   1.000000
    461          6.900891   1.000000
    462          6.902830   1.000000
    463          6.904558   1.000000
    464          6.908653   1.000000
    465          6.910099   1.000000
    466          6.912673   1.000000
    467          6.914843   1.000000
    468          6.966579   1.000000
    469          6.992122   1.000000
    470          6.993528   1.000000
    471          6.997547   1.000000
    472          6.998985   1.000000
    473          6.999965   1.000000
    474          7.028865   1.000000
    475          7.029861   1.000000
    476          7.152124   1.000000
    477          7.199144   1.000000
    478          7.200286   1.000000
    479          7.203720   1.000000
    480          7.205554   1.000000
    481          7.206475   1.000000
    482          7.213154   1.000000
    483          7.218682   1.000000
    484          7.226486   1.000000
    485          7.227453   1.000000
    486          7.400098   1.000000
    487          7.407288   1.000000
    488          7.442908   1.000000
    489          7.484278   1.000000
    490          7.517105   1.000000
    491          7.579415   1.000000
    492          7.634782   1.000000
    493          7.640468   1.000000
    494          7.648848   1.000000
    495          7.656451   1.000000
    496          7.672869   1.000000
    497          7.677191   1.000000
    498          7.680365   1.000000
    499          7.685615   1.000000
    500          7.687396   1.000000
    501          7.691700   1.000000
    502          7.693145   1.000000
    503          7.703978   1.000000
    504          7.709979   1.000000
    505          7.711935   1.000000
    506          7.714794   1.000000
    507          7.724326   1.000000
    508          7.749191   1.000000
    509          7.771502   1.000000
    510          7.788783   1.000000
    511          7.789976   1.000000
    512          7.796604   1.000000
    513          7.814359   1.000000
    514          7.834635   1.000000
    515          7.836925   1.000000
    516          7.840152   1.000000
    517          7.841284   1.000000
    518          7.845188   1.000000
    519          7.845798   1.000000
    520          7.849302   1.000000
    521          7.855795   1.000000
    522          7.864837   1.000000
    523          7.878522   1.000000
    524          7.882503   1.000000
    525          8.004273   1.000000
    526          8.046145   1.000000
    527          8.054674   1.000000
    528          8.056851   1.000000
    529          8.074535   1.000000
    530          8.082509   1.000000
    531          8.088080   1.000000
    532          8.088399   1.000000
    533          8.091897   1.000000
    534          8.095513   1.000000
    535          8.167948   1.000000
    536          8.206587   1.000001
    537          8.211738   1.000001
    538          8.212146   1.000001
    539          8.247111   1.000003
    540          8.293917   1.000015
    541          8.300158   1.000019
    542          8.302851   1.000020
    543          8.313713   1.000028
    544          8.318706   1.000033
    545          8.322812   1.000037
    546          8.323520   1.000038
    547          8.399059   1.000303
    548          8.412991   1.000430
    549          8.416556   1.000470
    550          8.428802   1.000632
    551          8.441123   1.000844
    552          8.442994   1.000881
    553          8.446977   1.000965
    554          8.448111   1.000991
    555          8.451602   1.001072
    556          8.482747   1.002103
    557          8.490202   1.002450
    558          8.494195   1.002655
    559          8.498588   1.002897
    560          8.599637   1.015332
    561          8.633149   1.022631
    562          8.635476   1.023168
    563          8.642212   1.024727
    564          8.646208   1.025649
    565          8.648310   1.026131
    566          8.649460   1.026394
    567          8.657158   1.028123
    568          8.666899   1.030195
    569          8.777239   1.009441
    570          8.809617   0.968975
    571          8.814972   0.959981
    572          8.815085   0.959784
    573          8.829861   0.931282
    574          8.841837   0.904164
    575          8.847775   0.889376
    576          8.882314   0.786314
    577          8.895465   0.740088
    578          8.903309   0.710959
    579          8.906204   0.699944
    580          8.914445   0.667885
    581          9.032398   0.198219
    582          9.062897   0.109078
    583          9.071408   0.088286
    584          9.085238   0.058402
    585          9.088166   0.052691
    586          9.092489   0.044648
    587          9.096476   0.037635
    588          9.097801   0.035389
    589          9.105759   0.022786
    590          9.105968   0.022476
    591          9.112388   0.013415
    592          9.121828   0.001765
    593          9.123259   0.000166
    594          9.130856  -0.007611
    595          9.135641  -0.011919
    596          9.150411  -0.022559
    597          9.161332  -0.028094
    598          9.164562  -0.029391
    599          9.166314  -0.030034
    600          9.168960  -0.030926
    601          9.185057  -0.034510
    602          9.185809  -0.034607
    603          9.190908  -0.035121
    604          9.198926  -0.035454
    605          9.255862  -0.027466
    606          9.274319  -0.023231
    607          9.281017  -0.021688
    608          9.282464  -0.021358
    609          9.290132  -0.019628
    610          9.296293  -0.018274
    611          9.299501  -0.017585
    612          9.322150  -0.013102
    613          9.359267  -0.007462
    614          9.372532  -0.005965
    615          9.375250  -0.005689
    616          9.379704  -0.005260
    617          9.434610  -0.001805
    618          9.454918  -0.001161
    619          9.485111  -0.000576
    620          9.504125  -0.000361
    621          9.515599  -0.000269
    622          9.515939  -0.000267
    623          9.520988  -0.000234
    624          9.538323  -0.000148
    625          9.595975  -0.000028
    626          9.617942  -0.000014
    627          9.621636  -0.000013
    628          9.627458  -0.000011
    629          9.633794  -0.000009
    630          9.635321  -0.000008
    631          9.682257  -0.000002
    632          9.687703  -0.000001
    633          9.693154  -0.000001
    634          9.696670  -0.000001
    635          9.699786  -0.000001
    636          9.705865  -0.000001
    637          9.710192  -0.000001
    638          9.724501  -0.000000
    639          9.750513  -0.000000
    640          9.754465  -0.000000
    641          9.767852  -0.000000
    642          9.768199  -0.000000
    643          9.775763  -0.000000
    644          9.787601  -0.000000
    645          9.791013  -0.000000
    646          9.793329  -0.000000
    647          9.804049  -0.000000
    648          9.809884  -0.000000
    649          9.812384  -0.000000
    650          9.813282  -0.000000
    651          9.827277  -0.000000
    652          9.838879  -0.000000
    653          9.868887  -0.000000
    654          9.895777  -0.000000
    655          9.903739  -0.000000
    656          9.904544  -0.000000
    657          9.909881  -0.000000
    658          9.914517  -0.000000
    659          9.937489  -0.000000
    660          9.949944  -0.000000
    661          9.970642  -0.000000
    662          9.981435  -0.000000
    663          9.999538  -0.000000
    664         10.011375  -0.000000
    665         10.013339  -0.000000
    666         10.030856  -0.000000
    667         10.031377  -0.000000
    668         10.033894  -0.000000
    669         10.038037  -0.000000
    670         10.072962  -0.000000
    671         10.076953  -0.000000
    672         10.151041  -0.000000
    673         10.158485  -0.000000
    674         10.169346  -0.000000
    675         10.175645  -0.000000
    676         10.181111  -0.000000
    677         10.188755  -0.000000
    678         10.193953  -0.000000
    679         10.243609  -0.000000
    680         10.245625  -0.000000
    681         10.262552  -0.000000
    682         10.264333  -0.000000
    683         10.274873  -0.000000
    684         10.278897  -0.000000
    685         10.288546  -0.000000
    686         10.314891  -0.000000
    687         10.326417  -0.000000
    688         10.337265  -0.000000
    689         10.337567  -0.000000
    690         10.369453  -0.000000
    691         10.370412  -0.000000
 
  0.1345275E-16  0.2500000E+00  0.0000000E+00  0.4166667E-01
      1        -39.899111   1.000000
      2        -39.868158   1.000000
      3        -39.864573   1.000000
      4        -39.861477   1.000000
      5        -39.853804   1.000000
      6        -39.852680   1.000000
      7        -39.838656   1.000000
      8        -39.834627   1.000000
      9        -39.831388   1.000000
     10        -39.829000   1.000000
     11        -39.825749   1.000000
     12        -39.824393   1.000000
     13        -39.822095   1.000000
     14        -39.821426   1.000000
     15        -39.817821   1.000000
     16        -39.808615   1.000000
     17        -39.804778   1.000000
     18        -39.802527   1.000000
     19        -39.801337   1.000000
     20        -39.797386   1.000000
     21        -39.794278   1.000000
     22        -39.792625   1.000000
     23        -39.790800   1.000000
     24        -39.788713   1.000000
     25        -39.786590   1.000000
     26        -39.782380   1.000000
     27        -39.778242   1.000000
     28        -39.775739   1.000000
     29        -39.774815   1.000000
     30        -39.772646   1.000000
     31        -39.772072   1.000000
     32        -39.770622   1.000000
     33        -39.769677   1.000000
     34        -39.769171   1.000000
     35        -39.768769   1.000000
     36        -39.767916   1.000000
     37        -39.767145   1.000000
     38        -39.764861   1.000000
     39        -39.764238   1.000000
     40        -39.763097   1.000000
     41        -39.762380   1.000000
     42        -39.761082   1.000000
     43        -39.759880   1.000000
     44        -39.759365   1.000000
     45        -39.758886   1.000000
     46        -39.757919   1.000000
     47        -39.757007   1.000000
     48        -39.755561   1.000000
     49        -39.755175   1.000000
     50        -39.754632   1.000000
     51        -39.753357   1.000000
     52        -39.752894   1.000000
     53        -39.751610   1.000000
     54        -39.751462   1.000000
     55        -39.750629   1.000000
     56        -39.749635   1.000000
     57        -39.749356   1.000000
     58        -39.748581   1.000000
     59        -39.747048   1.000000
     60        -39.746339   1.000000
     61        -39.745468   1.000000
     62        -39.743029   1.000000
     63        -39.742580   1.000000
     64        -39.739536   1.000000
     65        -39.738897   1.000000
     66        -39.737989   1.000000
     67        -39.736412   1.000000
     68        -39.736228   1.000000
     69        -39.734955   1.000000
     70        -39.734553   1.000000
     71        -39.734035   1.000000
     72        -39.733486   1.000000
     73        -39.732710   1.000000
     74        -39.732472   1.000000
     75        -39.731914   1.000000
     76        -39.731190   1.000000
     77        -39.730878   1.000000
     78        -39.730547   1.000000
     79        -39.729887   1.000000
     80        -39.729013   1.000000
     81        -39.728291   1.000000
     82        -39.727386   1.000000
     83        -39.726617   1.000000
     84        -39.726063   1.000000
     85        -39.724553   1.000000
     86        -39.723444   1.000000
     87        -39.722085   1.000000
     88        -39.721063   1.000000
     89        -39.720435   1.000000
     90        -39.719008   1.000000
     91        -39.718157   1.000000
     92        -39.717895   1.000000
     93        -39.716899   1.000000
     94        -39.714272   1.000000
     95        -39.713739   1.000000
     96        -39.712409   1.000000
     97        -18.404439   1.000000
     98        -18.323447   1.000000
     99        -18.319306   1.000000
    100        -18.318923   1.000000
    101        -18.318010   1.000000
    102        -18.316005   1.000000
    103        -18.314296   1.000000
    104        -18.311962   1.000000
    105        -18.274817   1.000000
    106        -18.273972   1.000000
    107        -18.237457   1.000000
    108        -18.234611   1.000000
    109        -18.232995   1.000000
    110        -18.232783   1.000000
    111        -18.231638   1.000000
    112        -18.230489   1.000000
    113        -18.226188   1.000000
    114        -18.226025   1.000000
    115        -18.223987   1.000000
    116        -18.222279   1.000000
    117        -18.220080   1.000000
    118        -18.216293   1.000000
    119        -18.213360   1.000000
    120        -18.208938   1.000000
    121        -18.206257   1.000000
    122        -18.205030   1.000000
    123        -18.204577   1.000000
    124        -18.203968   1.000000
    125        -18.203472   1.000000
    126        -18.202729   1.000000
    127        -18.202447   1.000000
    128        -18.201188   1.000000
    129        -18.201040   1.000000
    130        -18.198350   1.000000
    131        -18.197931   1.000000
    132        -18.181709   1.000000
    133        -18.180518   1.000000
    134        -18.178696   1.000000
    135        -18.177506   1.000000
    136        -18.176559   1.000000
    137        -18.175328   1.000000
    138        -18.168798   1.000000
    139        -18.167797   1.000000
    140        -18.166889   1.000000
    141        -18.166145   1.000000
    142        -18.165671   1.000000
    143        -18.164759   1.000000
    144        -18.164336   1.000000
    145        -18.163547   1.000000
    146        -18.162413   1.000000
    147        -18.159447   1.000000
    148        -18.157923   1.000000
    149        -18.157124   1.000000
    150        -18.155662   1.000000
    151        -18.155260   1.000000
    152        -18.154177   1.000000
    153        -18.137954   1.000000
    154        -18.136989   1.000000
    155        -18.131435   1.000000
    156        -18.130576   1.000000
    157        -18.125725   1.000000
    158        -18.124511   1.000000
    159        -18.123233   1.000000
    160        -18.122142   1.000000
    161        -18.070463   1.000000
    162        -18.069467   1.000000
    163        -18.066896   1.000000
    164        -18.065385   1.000000
    165        -18.063665   1.000000
    166        -18.062510   1.000000
    167        -18.055440   1.000000
    168        -18.054428   1.000000
    169        -18.052800   1.000000
    170        -18.035622   1.000000
    171        -18.019817   1.000000
    172        -18.018555   1.000000
    173        -18.015228   1.000000
    174        -18.012663   1.000000
    175        -18.010670   1.000000
    176        -18.005265   1.000000
    177        -18.003232   1.000000
    178        -18.002703   1.000000
    179        -18.001637   1.000000
    180        -17.998870   1.000000
    181        -17.998017   1.000000
    182        -17.994840   1.000000
    183        -17.992660   1.000000
    184        -17.991548   1.000000
    185        -17.990449   1.000000
    186        -17.971065   1.000000
    187        -17.967968   1.000000
    188        -17.952046   1.000000
    189        -17.949400   1.000000
    190        -17.947583   1.000000
    191        -17.946281   1.000000
    192        -17.926937   1.000000
    193        -17.925682   1.000000
    194        -17.894671   1.000000
    195        -17.891468   1.000000
    196        -17.891051   1.000000
    197        -17.890871   1.000000
    198        -17.889041   1.000000
    199        -17.887310   1.000000
    200        -17.885988   1.000000
    201        -17.873021   1.000000
    202        -17.871585   1.000000
    203        -17.869301   1.000000
    204        -17.867711   1.000000
    205        -17.847299   1.000000
    206        -17.845583   1.000000
    207        -17.839509   1.000000
    208        -17.837200   1.000000
    209        -17.832595   1.000000
    210        -17.830083   1.000000
    211        -17.828458   1.000000
    212        -17.827834   1.000000
    213        -17.826676   1.000000
    214        -17.825651   1.000000
    215        -17.824490   1.000000
    216        -17.823888   1.000000
    217        -17.816454   1.000000
    218        -17.814948   1.000000
    219        -17.812789   1.000000
    220        -17.810897   1.000000
    221        -17.800838   1.000000
    222        -17.797544   1.000000
    223        -17.796632   1.000000
    224        -17.794789   1.000000
    225        -17.794261   1.000000
    226        -17.792661   1.000000
    227        -17.786105   1.000000
    228        -17.785786   1.000000
    229        -17.783723   1.000000
    230        -17.782799   1.000000
    231        -17.782668   1.000000
    232        -17.780712   1.000000
    233        -17.776541   1.000000
    234        -17.775794   1.000000
    235        -17.772757   1.000000
    236        -17.771394   1.000000
    237        -17.770379   1.000000
    238        -17.769658   1.000000
    239        -17.769064   1.000000
    240        -17.768174   1.000000
    241        -17.767471   1.000000
    242        -17.766488   1.000000
    243        -17.765391   1.000000
    244        -17.763765   1.000000
    245        -17.761100   1.000000
    246        -17.754762   1.000000
    247        -17.738158   1.000000
    248        -17.733379   1.000000
    249        -17.731600   1.000000
    250        -17.730008   1.000000
    251        -17.728061   1.000000
    252        -17.727611   1.000000
    253        -17.725791   1.000000
    254        -17.723930   1.000000
    255        -17.723726   1.000000
    256        -17.722068   1.000000
    257        -17.705109   1.000000
    258        -17.703155   1.000000
    259        -17.702301   1.000000
    260        -17.701537   1.000000
    261        -17.700226   1.000000
    262        -17.699590   1.000000
    263        -17.698244   1.000000
    264        -17.697359   1.000000
    265        -17.696561   1.000000
    266        -17.689519   1.000000
    267        -17.686735   1.000000
    268        -17.684196   1.000000
    269        -17.682130   1.000000
    270        -17.680168   1.000000
    271        -17.672636   1.000000
    272        -17.671639   1.000000
    273        -17.670673   1.000000
    274        -17.669964   1.000000
    275        -17.668775   1.000000
    276        -17.668450   1.000000
    277        -17.665703   1.000000
    278        -17.662306   1.000000
    279        -17.660880   1.000000
    280        -17.659855   1.000000
    281        -17.659255   1.000000
    282        -17.655707   1.000000
    283        -17.654609   1.000000
    284        -17.653600   1.000000
    285        -17.652929   1.000000
    286        -17.651910   1.000000
    287        -17.650987   1.000000
    288        -17.650895   1.000000
    289        -17.649925   1.000000
    290        -17.649580   1.000000
    291        -17.648407   1.000000
    292        -17.647893   1.000000
    293        -17.647332   1.000000
    294        -17.646358   1.000000
    295        -17.645790   1.000000
    296        -17.645096   1.000000
    297        -17.643625   1.000000
    298        -17.642569   1.000000
    299        -17.635359   1.000000
    300        -17.630809   1.000000
    301        -17.628581   1.000000
    302        -17.624712   1.000000
    303        -17.623229   1.000000
    304        -17.620373   1.000000
    305        -17.618870   1.000000
    306        -17.617308   1.000000
    307        -17.616539   1.000000
    308        -17.615324   1.000000
    309        -17.614916   1.000000
    310        -17.613798   1.000000
    311        -17.612867   1.000000
    312        -17.610826   1.000000
    313        -17.592285   1.000000
    314        -17.590824   1.000000
    315        -17.589854   1.000000
    316        -17.589204   1.000000
    317        -17.586506   1.000000
    318        -17.584738   1.000000
    319        -17.583826   1.000000
    320        -17.583159   1.000000
    321        -17.582818   1.000000
    322        -17.582156   1.000000
    323        -17.581480   1.000000
    324        -17.581230   1.000000
    325        -17.580101   1.000000
    326        -17.578755   1.000000
    327        -17.578358   1.000000
    328        -17.575780   1.000000
    329        -17.575279   1.000000
    330        -17.575028   1.000000
    331        -17.573714   1.000000
    332        -17.572811   1.000000
    333        -17.572444   1.000000
    334        -17.572063   1.000000
    335        -17.570665   1.000000
    336        -17.564753   1.000000
    337        -17.560980   1.000000
    338        -17.560198   1.000000
    339        -17.559637   1.000000
    340        -17.558296   1.000000
    341        -17.554738   1.000000
    342        -17.549809   1.000000
    343        -17.547875   1.000000
    344        -17.547142   1.000000
    345        -17.546412   1.000000
    346        -17.545830   1.000000
    347        -17.544396   1.000000
    348        -17.543904   1.000000
    349        -17.543284   1.000000
    350        -17.542271   1.000000
    351        -17.541659   1.000000
    352        -17.539205   1.000000
    353        -17.537892   1.000000
    354        -17.537260   1.000000
    355        -17.536562   1.000000
    356        -17.535774   1.000000
    357        -17.534631   1.000000
    358        -17.534101   1.000000
    359        -17.532839   1.000000
    360        -17.530073   1.000000
    361        -17.528179   1.000000
    362        -17.521935   1.000000
    363        -17.516040   1.000000
    364        -17.514616   1.000000
    365        -17.512938   1.000000
    366        -17.511805   1.000000
    367        -17.497043   1.000000
    368        -17.496420   1.000000
    369        -17.494577   1.000000
    370        -17.493781   1.000000
    371        -17.493094   1.000000
    372        -17.491551   1.000000
    373        -17.489126   1.000000
    374        -17.474451   1.000000
    375        -17.472991   1.000000
    376        -17.470505   1.000000
    377        -17.469071   1.000000
    378        -17.466619   1.000000
    379        -17.459972   1.000000
    380        -17.456370   1.000000
    381        -17.448574   1.000000
    382        -17.446257   1.000000
    383        -17.434162   1.000000
    384        -17.422123   1.000000
    385          2.681556   1.000000
    386          3.500030   1.000000
    387          4.222676   1.000000
    388          4.251239   1.000000
    389          4.341015   1.000000
    390          4.575183   1.000000
    391          4.649548   1.000000
    392          4.945212   1.000000
    393          4.986137   1.000000
    394          5.200378   1.000000
    395          5.210659   1.000000
    396          5.232026   1.000000
    397          5.234506   1.000000
    398          5.234983   1.000000
    399          5.347953   1.000000
    400          5.457914   1.000000
    401          5.651734   1.000000
    402          5.654786   1.000000
    403          5.656063   1.000000
    404          5.700814   1.000000
    405          5.744407   1.000000
    406          5.754321   1.000000
    407          5.760986   1.000000
    408          5.821881   1.000000
    409          5.915601   1.000000
    410          5.933598   1.000000
    411          5.977622   1.000000
    412          5.981454   1.000000
    413          5.982963   1.000000
    414          6.020230   1.000000
    415          6.055868   1.000000
    416          6.262778   1.000000
    417          6.305505   1.000000
    418          6.319101   1.000000
    419          6.392536   1.000000
    420          6.395742   1.000000
    421          6.399777   1.000000
    422          6.412322   1.000000
    423          6.431423   1.000000
    424          6.438984   1.000000
    425          6.441032   1.000000
    426          6.453769   1.000000
    427          6.462069   1.000000
    428          6.476557   1.000000
    429          6.499271   1.000000
    430          6.505104   1.000000
    431          6.507204   1.000000
    432          6.508952   1.000000
    433          6.514819   1.000000
    434          6.518648   1.000000
    435          6.523122   1.000000
    436          6.540041   1.000000
    437          6.550713   1.000000
    438          6.555598   1.000000
    439          6.603909   1.000000
    440          6.671616   1.000000
    441          6.677014   1.000000
    442          6.678572   1.000000
    443          6.681527   1.000000
    444          6.695143   1.000000
    445          6.705050   1.000000
    446          6.732390   1.000000
    447          6.769169   1.000000
    448          6.781225   1.000000
    449          6.800164   1.000000
    450          6.804085   1.000000
    451          6.807844   1.000000
    452          6.827944   1.000000
    453          6.841205   1.000000
    454          6.852460   1.000000
    455          6.861773   1.000000
    456          6.864900   1.000000
    457          6.866866   1.000000
    458          6.879104   1.000000
    459          6.891909   1.000000
    460          6.897199   1.000000
    461          6.899310   1.000000
    462          6.902020   1.000000
    463          6.904416   1.000000
    464          6.908263   1.000000
    465          6.910105   1.000000
    466          6.912399   1.000000
    467          6.914068   1.000000
    468          6.971760   1.000000
    469          6.990898   1.000000
    470          6.995394   1.000000
    471          6.997036   1.000000
    472          6.999122   1.000000
    473          7.000899   1.000000
    474          7.026736   1.000000
    475          7.030408   1.000000
    476          7.146386   1.000000
    477          7.198538   1.000000
    478          7.200658   1.000000
    479          7.204549   1.000000
    480          7.206325   1.000000
    481          7.208802   1.000000
    482          7.214769   1.000000
    483          7.218553   1.000000
    484          7.224773   1.000000
    485          7.227112   1.000000
    486          7.394186   1.000000
    487          7.406450   1.000000
    488          7.465825   1.000000
    489          7.481394   1.000000
    490          7.502230   1.000000
    491          7.581318   1.000000
    492          7.637285   1.000000
    493          7.645340   1.000000
    494          7.648564   1.000000
    495          7.659945   1.000000
    496          7.668642   1.000000
    497          7.678357   1.000000
    498          7.679911   1.000000
    499          7.685437   1.000000
    500          7.688230   1.000000
    501          7.690870   1.000000
    502          7.693965   1.000000
    503          7.701880   1.000000
    504          7.707731   1.000000
    505          7.708984   1.000000
    506          7.714439   1.000000
    507          7.733992   1.000000
    508          7.751099   1.000000
    509          7.777274   1.000000
    510          7.787795   1.000000
    511          7.791584   1.000000
    512          7.796076   1.000000
    513          7.815415   1.000000
    514          7.835062   1.000000
    515          7.836921   1.000000
    516          7.838657   1.000000
    517          7.842038   1.000000
    518          7.843570   1.000000
    519          7.846358   1.000000
    520          7.848463   1.000000
    521          7.854420   1.000000
    522          7.866919   1.000000
    523          7.873965   1.000000
    524          7.882277   1.000000
    525          8.006762   1.000000
    526          8.046273   1.000000
    527          8.051616   1.000000
    528          8.055888   1.000000
    529          8.074746   1.000000
    530          8.081852   1.000000
    531          8.087828   1.000000
    532          8.089258   1.000000
    533          8.094319   1.000000
    534          8.096415   1.000000
    535          8.174354   1.000000
    536          8.205845   1.000001
    537          8.209710   1.000001
    538          8.214083   1.000001
    539          8.259360   1.000005
    540          8.294406   1.000016
    541          8.301429   1.000019
    542          8.302818   1.000020
    543          8.314669   1.000029
    544          8.319881   1.000034
    545          8.323203   1.000037
    546          8.324164   1.000038
    547          8.378719   1.000178
    548          8.413034   1.000431
    549          8.420069   1.000512
    550          8.428975   1.000634
    551          8.437138   1.000769
    552          8.444790   1.000918
    553          8.447679   1.000981
    554          8.452076   1.001084
    555          8.454184   1.001136
    556          8.484028   1.002159
    557          8.491772   1.002529
    558          8.498337   1.002883
    559          8.500019   1.002980
    560          8.580765   1.011844
    561          8.633582   1.022730
    562          8.636083   1.023309
    563          8.642919   1.024890
    564          8.645320   1.025444
    565          8.648803   1.026244
    566          8.651885   1.026944
    567          8.658782   1.028479
    568          8.668676   1.030554
    569          8.777470   1.009231
    570          8.812617   0.964021
    571          8.815034   0.959873
    572          8.817933   0.954711
    573          8.832008   0.926688
    574          8.838661   0.911711
    575          8.843440   0.900260
    576          8.881247   0.789908
    577          8.892169   0.751994
    578          8.898610   0.728539
    579          8.905755   0.701663
    580          8.912180   0.676794
    581          9.020187   0.239863
    582          9.067394   0.097864
    583          9.079758   0.069668
    584          9.085989   0.056918
    585          9.088500   0.052053
    586          9.091199   0.046999
    587          9.094715   0.040684
    588          9.098479   0.034256
    589          9.103525   0.026173
    590          9.107680   0.019966
    591          9.115603   0.009228
    592          9.119916   0.003968
    593          9.124239  -0.000903
    594          9.129862  -0.006659
    595          9.133007  -0.009603
    596          9.147758  -0.020928
    597          9.153197  -0.024148
    598          9.163691  -0.029056
    599          9.168374  -0.030736
    600          9.171055  -0.031568
    601          9.180642  -0.033820
    602          9.188949  -0.034953
    603          9.191622  -0.035173
    604          9.203250  -0.035418
    605          9.259670  -0.026607
    606          9.278130  -0.022351
    607          9.281530  -0.021571
    608          9.287292  -0.020263
    609          9.293453  -0.018893
    610          9.297473  -0.018019
    611          9.300692  -0.017332
    612          9.321109  -0.013291
    613          9.355036  -0.007994
    614          9.368060  -0.006441
    615          9.370785  -0.006148
    616          9.380076  -0.005225
    617          9.443812  -0.001482
    618          9.453011  -0.001211
    619          9.493147  -0.000474
    620          9.504325  -0.000359
    621          9.513743  -0.000283
    622          9.517473  -0.000257
    623          9.522925  -0.000223
    624          9.535778  -0.000158
    625          9.582885  -0.000042
    626          9.610873  -0.000018
    627          9.620713  -0.000013
    628          9.626605  -0.000011
    629          9.632723  -0.000009
    630          9.636506  -0.000008
    631          9.666361  -0.000003
    632          9.682095  -0.000002
    633          9.693151  -0.000001
    634          9.697935  -0.000001
    635          9.701645  -0.000001
    636          9.704613  -0.000001
    637          9.712771  -0.000001
    638          9.731857  -0.000000
    639          9.740406  -0.000000
    640          9.751916  -0.000000
    641          9.766762  -0.000000
    642          9.771377  -0.000000
    643          9.783460  -0.000000
    644          9.787436  -0.000000
    645          9.792306  -0.000000
    646          9.794092  -0.000000
    647          9.800058  -0.000000
    648          9.805010  -0.000000
    649          9.812872  -0.000000
    650          9.813813  -0.000000
    651          9.825154  -0.000000
    652          9.843521  -0.000000
    653          9.869641  -0.000000
    654          9.894803  -0.000000
    655          9.902297  -0.000000
    656          9.907747  -0.000000
    657          9.911526  -0.000000
    658          9.912459  -0.000000
    659          9.942242  -0.000000
    660          9.958780  -0.000000
    661          9.974231  -0.000000
    662          9.980950  -0.000000
    663         10.001991  -0.000000
    664         10.008483  -0.000000
    665         10.023040  -0.000000
    666         10.028318  -0.000000
    667         10.032593  -0.000000
    668         10.033701  -0.000000
    669         10.037797  -0.000000
    670         10.073419  -0.000000
    671         10.077249  -0.000000
    672         10.150907  -0.000000
    673         10.159948  -0.000000
    674         10.169590  -0.000000
    675         10.176257  -0.000000
    676         10.178524  -0.000000
    677         10.187913  -0.000000
    678         10.194716  -0.000000
    679         10.240929  -0.000000
    680         10.244077  -0.000000
    681         10.256553  -0.000000
    682         10.269114  -0.000000
    683         10.273657  -0.000000
    684         10.279690  -0.000000
    685         10.292556  -0.000000
    686         10.326265  -0.000000
    687         10.330266  -0.000000
    688         10.334291  -0.000000
    689         10.336245  -0.000000
    690         10.359241  -0.000000
    691         10.367340  -0.000000
 
 -0.2500000E+00  0.2500000E+00  0.0000000E+00  0.4166667E-01
      1        -39.899111   1.000000
      2        -39.868158   1.000000
      3        -39.864573   1.000000
      4        -39.861477   1.000000
      5        -39.853804   1.000000
      6        -39.852680   1.000000
      7        -39.838656   1.000000
      8        -39.834627   1.000000
      9        -39.831388   1.000000
     10        -39.829000   1.000000
     11        -39.825749   1.000000
     12        -39.824393   1.000000
     13        -39.822095   1.000000
     14        -39.821426   1.000000
     15        -39.817821   1.000000
     16        -39.808615   1.000000
     17        -39.804778   1.000000
     18        -39.802527   1.000000
     19        -39.801337   1.000000
     20        -39.797386   1.000000
     21        -39.794278   1.000000
     22        -39.792625   1.000000
     23        -39.790800   1.000000
     24        -39.788713   1.000000
     25        -39.786590   1.000000
     26        -39.782380   1.000000
     27        -39.778242   1.000000
     28        -39.775739   1.000000
     29        -39.774815   1.000000
     30        -39.772646   1.000000
     31        -39.772072   1.000000
     32        -39.770622   1.000000
     33        -39.769677   1.000000
     34        -39.769171   1.000000
     35        -39.768769   1.000000
     36        -39.767916   1.000000
     37        -39.767145   1.000000
     38        -39.764861   1.000000
     39        -39.764238   1.000000
     40        -39.763097   1.000000
     41        -39.762380   1.000000
     42        -39.761082   1.000000
     43        -39.759881   1.000000
     44        -39.759365   1.000000
     45        -39.758886   1.000000
     46        -39.757919   1.000000
     47        -39.757007   1.000000
     48        -39.755561   1.000000
     49        -39.755175   1.000000
     50        -39.754632   1.000000
     51        -39.753357   1.000000
     52        -39.752894   1.000000
     53        -39.751610   1.000000
     54        -39.751462   1.000000
     55        -39.750629   1.000000
     56        -39.749635   1.000000
     57        -39.749356   1.000000
     58        -39.748582   1.000000
     59        -39.747048   1.000000
     60        -39.746339   1.000000
     61        -39.745468   1.000000
     62        -39.743029   1.000000
     63        -39.742580   1.000000
     64        -39.739536   1.000000
     65        -39.738897   1.000000
     66        -39.737989   1.000000
     67        -39.736412   1.000000
     68        -39.736228   1.000000
     69        -39.734955   1.000000
     70        -39.734553   1.000000
     71        -39.734035   1.000000
     72        -39.733486   1.000000
     73        -39.732710   1.000000
     74        -39.732472   1.000000
     75        -39.731914   1.000000
     76        -39.731190   1.000000
     77        -39.730878   1.000000
     78        -39.730547   1.000000
     79        -39.729887   1.000000
     80        -39.729013   1.000000
     81        -39.728291   1.000000
     82        -39.727386   1.000000
     83        -39.726617   1.000000
     84        -39.726063   1.000000
     85        -39.724553   1.000000
     86        -39.723444   1.000000
     87        -39.722085   1.000000
     88        -39.721063   1.000000
     89        -39.720435   1.000000
     90        -39.719008   1.000000
     91        -39.718157   1.000000
     92        -39.717895   1.000000
     93        -39.716899   1.000000
     94        -39.714272   1.000000
     95        -39.713739   1.000000
     96        -39.712409   1.000000
     97        -18.404439   1.000000
     98        -18.323447   1.000000
     99        -18.319306   1.000000
    100        -18.318923   1.000000
    101        -18.318010   1.000000
    102        -18.316005   1.000000
    103        -18.314296   1.000000
    104        -18.311962   1.000000
    105        -18.274817   1.000000
    106        -18.273972   1.000000
    107        -18.237457   1.000000
    108        -18.234611   1.000000
    109        -18.232995   1.000000
    110        -18.232783   1.000000
    111        -18.231638   1.000000
    112        -18.230489   1.000000
    113        -18.226188   1.000000
    114        -18.226025   1.000000
    115        -18.223987   1.000000
    116        -18.222279   1.000000
    117        -18.220080   1.000000
    118        -18.216293   1.000000
    119        -18.213360   1.000000
    120        -18.208938   1.000000
    121        -18.206257   1.000000
    122        -18.205030   1.000000
    123        -18.204577   1.000000
    124        -18.203968   1.000000
    125        -18.203472   1.000000
    126        -18.202729   1.000000
    127        -18.202447   1.000000
    128        -18.201188   1.000000
    129        -18.201040   1.000000
    130        -18.198350   1.000000
    131        -18.197931   1.000000
    132        -18.181709   1.000000
    133        -18.180518   1.000000
    134        -18.178696   1.000000
    135        -18.177506   1.000000
    136        -18.176559   1.000000
    137        -18.175328   1.000000
    138        -18.168798   1.000000
    139        -18.167797   1.000000
    140        -18.166889   1.000000
    141        -18.166145   1.000000
    142        -18.165671   1.000000
    143        -18.164759   1.000000
    144        -18.164336   1.000000
    145        -18.163547   1.000000
    146        -18.162413   1.000000
    147        -18.159447   1.000000
    148        -18.157923   1.000000
    149        -18.157124   1.000000
    150        -18.155662   1.000000
    151        -18.155260   1.000000
    152        -18.154177   1.000000
    153        -18.137954   1.000000
    154        -18.136989   1.000000
    155        -18.131435   1.000000
    156        -18.130576   1.000000
    157        -18.125725   1.000000
    158        -18.124511   1.000000
    159        -18.123233   1.000000
    160        -18.122142   1.000000
    161        -18.070463   1.000000
    162        -18.069467   1.000000
    163        -18.066896   1.000000
    164        -18.065385   1.000000
    165        -18.063665   1.000000
    166        -18.062510   1.000000
    167        -18.055440   1.000000
    168        -18.054428   1.000000
    169        -18.052800   1.000000
    170        -18.035622   1.000000
    171        -18.019817   1.000000
    172        -18.018555   1.000000
    173        -18.015228   1.000000
    174        -18.012663   1.000000
    175        -18.010670   1.000000
    176        -18.005265   1.000000
    177        -18.003232   1.000000
    178        -18.002703   1.000000
    179        -18.001637   1.000000
    180        -17.998870   1.000000
    181        -17.998017   1.000000
    182        -17.994840   1.000000
    183        -17.992660   1.000000
    184        -17.991548   1.000000
    185        -17.990449   1.000000
    186        -17.971065   1.000000
    187        -17.967968   1.000000
    188        -17.952046   1.000000
    189        -17.949400   1.000000
    190        -17.947583   1.000000
    191        -17.946281   1.000000
    192        -17.926937   1.000000
    193        -17.925682   1.000000
    194        -17.894671   1.000000
    195        -17.891468   1.000000
    196        -17.891051   1.000000
    197        -17.890871   1.000000
    198        -17.889041   1.000000
    199        -17.887310   1.000000
    200        -17.885988   1.000000
    201        -17.873021   1.000000
    202        -17.871585   1.000000
    203        -17.869301   1.000000
    204        -17.867711   1.000000
    205        -17.847299   1.000000
    206        -17.845583   1.000000
    207        -17.839509   1.000000
    208        -17.837200   1.000000
    209        -17.832595   1.000000
    210        -17.830083   1.000000
    211        -17.828458   1.000000
    212        -17.827834   1.000000
    213        -17.826676   1.000000
    214        -17.825651   1.000000
    215        -17.824490   1.000000
    216        -17.823888   1.000000
    217        -17.816454   1.000000
    218        -17.814948   1.000000
    219        -17.812789   1.000000
    220        -17.810897   1.000000
    221        -17.800838   1.000000
    222        -17.797544   1.000000
    223        -17.796632   1.000000
    224        -17.794789   1.000000
    225        -17.794261   1.000000
    226        -17.792661   1.000000
    227        -17.786105   1.000000
    228        -17.785786   1.000000
    229        -17.783723   1.000000
    230        -17.782799   1.000000
    231        -17.782668   1.000000
    232        -17.780712   1.000000
    233        -17.776541   1.000000
    234        -17.775794   1.000000
    235        -17.772757   1.000000
    236        -17.771394   1.000000
    237        -17.770379   1.000000
    238        -17.769658   1.000000
    239        -17.769064   1.000000
    240        -17.768174   1.000000
    241        -17.767471   1.000000
    242        -17.766488   1.000000
    243        -17.765391   1.000000
    244        -17.763765   1.000000
    245        -17.761100   1.000000
    246        -17.754762   1.000000
    247        -17.738158   1.000000
    248        -17.733379   1.000000
    249        -17.731600   1.000000
    250        -17.730008   1.000000
    251        -17.728061   1.000000
    252        -17.727611   1.000000
    253        -17.725791   1.000000
    254        -17.723930   1.000000
    255        -17.723726   1.000000
    256        -17.722068   1.000000
    257        -17.705109   1.000000
    258        -17.703155   1.000000
    259        -17.702301   1.000000
    260        -17.701537   1.000000
    261        -17.700226   1.000000
    262        -17.699590   1.000000
    263        -17.698244   1.000000
    264        -17.697359   1.000000
    265        -17.696561   1.000000
    266        -17.689519   1.000000
    267        -17.686735   1.000000
    268        -17.684196   1.000000
    269        -17.682130   1.000000
    270        -17.680168   1.000000
    271        -17.672636   1.000000
    272        -17.671639   1.000000
    273        -17.670673   1.000000
    274        -17.669964   1.000000
    275        -17.668775   1.000000
    276        -17.668450   1.000000
    277        -17.665703   1.000000
    278        -17.662306   1.000000
    279        -17.660880   1.000000
    280        -17.659855   1.000000
    281        -17.659255   1.000000
    282        -17.655707   1.000000
    283        -17.654609   1.000000
    284        -17.653600   1.000000
    285        -17.652929   1.000000
    286        -17.651910   1.000000
    287        -17.650987   1.000000
    288        -17.650895   1.000000
    289        -17.649925   1.000000
    290        -17.649580   1.000000
    291        -17.648407   1.000000
    292        -17.647893   1.000000
    293        -17.647332   1.000000
    294        -17.646358   1.000000
    295        -17.645790   1.000000
    296        -17.645096   1.000000
    297        -17.643625   1.000000
    298        -17.642569   1.000000
    299        -17.635359   1.000000
    300        -17.630809   1.000000
    301        -17.628581   1.000000
    302        -17.624712   1.000000
    303        -17.623229   1.000000
    304        -17.620373   1.000000
    305        -17.618870   1.000000
    306        -17.617308   1.000000
    307        -17.616539   1.000000
    308        -17.615324   1.000000
    309        -17.614916   1.000000
    310        -17.613798   1.000000
    311        -17.612867   1.000000
    312        -17.610826   1.000000
    313        -17.592285   1.000000
    314        -17.590824   1.000000
    315        -17.589854   1.000000
    316        -17.589204   1.000000
    317        -17.586506   1.000000
    318        -17.584738   1.000000
    319        -17.583826   1.000000
    320        -17.583159   1.000000
    321        -17.582818   1.000000
    322        -17.582156   1.000000
    323        -17.581480   1.000000
    324        -17.581230   1.000000
    325        -17.580101   1.000000
    326        -17.578755   1.000000
    327        -17.578358   1.000000
    328        -17.575780   1.000000
    329        -17.575279   1.000000
    330        -17.575028   1.000000
    331        -17.573714   1.000000
    332        -17.572811   1.000000
    333        -17.572444   1.000000
    334        -17.572063   1.000000
    335        -17.570665   1.000000
    336        -17.564753   1.000000
    337        -17.560980   1.000000
    338        -17.560198   1.000000
    339        -17.559637   1.000000
    340        -17.558296   1.000000
    341        -17.554738   1.000000
    342        -17.549809   1.000000
    343        -17.547875   1.000000
    344        -17.547142   1.000000
    345        -17.546412   1.000000
    346        -17.545830   1.000000
    347        -17.544396   1.000000
    348        -17.543904   1.000000
    349        -17.543284   1.000000
    350        -17.542271   1.000000
    351        -17.541659   1.000000
    352        -17.539205   1.000000
    353        -17.537892   1.000000
    354        -17.537260   1.000000
    355        -17.536562   1.000000
    356        -17.535774   1.000000
    357        -17.534631   1.000000
    358        -17.534101   1.000000
    359        -17.532839   1.000000
    360        -17.530073   1.000000
    361        -17.528179   1.000000
    362        -17.521935   1.000000
    363        -17.516040   1.000000
    364        -17.514616   1.000000
    365        -17.512938   1.000000
    366        -17.511805   1.000000
    367        -17.497043   1.000000
    368        -17.496420   1.000000
    369        -17.494577   1.000000
    370        -17.493781   1.000000
    371        -17.493094   1.000000
    372        -17.491551   1.000000
    373        -17.489126   1.000000
    374        -17.474451   1.000000
    375        -17.472991   1.000000
    376        -17.470505   1.000000
    377        -17.469071   1.000000
    378        -17.466619   1.000000
    379        -17.459972   1.000000
    380        -17.456370   1.000000
    381        -17.448574   1.000000
    382        -17.446257   1.000000
    383        -17.434162   1.000000
    384        -17.422123   1.000000
    385          2.681556   1.000000
    386          3.500030   1.000000
    387          4.222676   1.000000
    388          4.251239   1.000000
    389          4.341015   1.000000
    390          4.575183   1.000000
    391          4.649548   1.000000
    392          4.945212   1.000000
    393          4.986137   1.000000
    394          5.200378   1.000000
    395          5.210659   1.000000
    396          5.232026   1.000000
    397          5.234506   1.000000
    398          5.234983   1.000000
    399          5.347953   1.000000
    400          5.457914   1.000000
    401          5.651734   1.000000
    402          5.654786   1.000000
    403          5.656063   1.000000
    404          5.700814   1.000000
    405          5.744407   1.000000
    406          5.754320   1.000000
    407          5.760986   1.000000
    408          5.821881   1.000000
    409          5.915601   1.000000
    410          5.933598   1.000000
    411          5.977622   1.000000
    412          5.981454   1.000000
    413          5.982963   1.000000
    414          6.020230   1.000000
    415          6.055868   1.000000
    416          6.262778   1.000000
    417          6.305505   1.000000
    418          6.319101   1.000000
    419          6.392536   1.000000
    420          6.395742   1.000000
    421          6.399777   1.000000
    422          6.412322   1.000000
    423          6.431423   1.000000
    424          6.438984   1.000000
    425          6.441032   1.000000
    426          6.453769   1.000000
    427          6.462069   1.000000
    428          6.476557   1.000000
    429          6.499271   1.000000
    430          6.505104   1.000000
    431          6.507204   1.000000
    432          6.508952   1.000000
    433          6.514819   1.000000
    434          6.518648   1.000000
    435          6.523122   1.000000
    436          6.540041   1.000000
    437          6.550713   1.000000
    438          6.555598   1.000000
    439          6.603909   1.000000
    440          6.671616   1.000000
    441          6.677014   1.000000
    442          6.678572   1.000000
    443          6.681527   1.000000
    444          6.695143   1.000000
    445          6.705050   1.000000
    446          6.732390   1.000000
    447          6.769169   1.000000
    448          6.781225   1.000000
    449          6.800164   1.000000
    450          6.804085   1.000000
    451          6.807844   1.000000
    452          6.827944   1.000000
    453          6.841205   1.000000
    454          6.852460   1.000000
    455          6.861773   1.000000
    456          6.864900   1.000000
    457          6.866865   1.000000
    458          6.879104   1.000000
    459          6.891909   1.000000
    460          6.897199   1.000000
    461          6.899310   1.000000
    462          6.902020   1.000000
    463          6.904416   1.000000
    464          6.908263   1.000000
    465          6.910105   1.000000
    466          6.912399   1.000000
    467          6.914068   1.000000
    468          6.971760   1.000000
    469          6.990897   1.000000
    470          6.995394   1.000000
    471          6.997036   1.000000
    472          6.999122   1.000000
    473          7.000899   1.000000
    474          7.026736   1.000000
    475          7.030408   1.000000
    476          7.146386   1.000000
    477          7.198538   1.000000
    478          7.200658   1.000000
    479          7.204549   1.000000
    480          7.206325   1.000000
    481          7.208802   1.000000
    482          7.214769   1.000000
    483          7.218553   1.000000
    484          7.224773   1.000000
    485          7.227112   1.000000
    486          7.394186   1.000000
    487          7.406450   1.000000
    488          7.465825   1.000000
    489          7.481394   1.000000
    490          7.502230   1.000000
    491          7.581318   1.000000
    492          7.637285   1.000000
    493          7.645340   1.000000
    494          7.648564   1.000000
    495          7.659945   1.000000
    496          7.668642   1.000000
    497          7.678357   1.000000
    498          7.679911   1.000000
    499          7.685437   1.000000
    500          7.688230   1.000000
    501          7.690870   1.000000
    502          7.693965   1.000000
    503          7.701880   1.000000
    504          7.707731   1.000000
    505          7.708985   1.000000
    506          7.714439   1.000000
    507          7.733992   1.000000
    508          7.751099   1.000000
    509          7.777274   1.000000
    510          7.787795   1.000000
    511          7.791584   1.000000
    512          7.796076   1.000000
    513          7.815415   1.000000
    514          7.835062   1.000000
    515          7.836921   1.000000
    516          7.838657   1.000000
    517          7.842038   1.000000
    518          7.843570   1.000000
    519          7.846358   1.000000
    520          7.848463   1.000000
    521          7.854420   1.000000
    522          7.866919   1.000000
    523          7.873965   1.000000
    524          7.882277   1.000000
    525          8.006762   1.000000
    526          8.046273   1.000000
    527          8.051616   1.000000
    528          8.055888   1.000000
    529          8.074746   1.000000
    530          8.081852   1.000000
    531          8.087828   1.000000
    532          8.089258   1.000000
    533          8.094319   1.000000
    534          8.096415   1.000000
    535          8.174354   1.000000
    536          8.205845   1.000001
    537          8.209710   1.000001
    538          8.214083   1.000001
    539          8.259360   1.000005
    540          8.294406   1.000016
    541          8.301429   1.000019
    542          8.302818   1.000020
    543          8.314669   1.000029
    544          8.319881   1.000034
    545          8.323203   1.000037
    546          8.324164   1.000038
    547          8.378719   1.000178
    548          8.413034   1.000431
    549          8.420069   1.000512
    550          8.428975   1.000634
    551          8.437138   1.000769
    552          8.444790   1.000918
    553          8.447679   1.000981
    554          8.452076   1.001084
    555          8.454184   1.001136
    556          8.484028   1.002159
    557          8.491772   1.002529
    558          8.498337   1.002883
    559          8.500019   1.002980
    560          8.580765   1.011844
    561          8.633582   1.022730
    562          8.636083   1.023309
    563          8.642919   1.024890
    564          8.645320   1.025444
    565          8.648803   1.026244
    566          8.651885   1.026944
    567          8.658782   1.028479
    568          8.668676   1.030554
    569          8.777470   1.009231
    570          8.812617   0.964021
    571          8.815034   0.959873
    572          8.817933   0.954712
    573          8.832008   0.926688
    574          8.838661   0.911711
    575          8.843440   0.900260
    576          8.881247   0.789908
    577          8.892169   0.751994
    578          8.898610   0.728539
    579          8.905755   0.701663
    580          8.912180   0.676794
    581          9.020187   0.239863
    582          9.067394   0.097864
    583          9.079758   0.069668
    584          9.085989   0.056918
    585          9.088500   0.052053
    586          9.091199   0.046999
    587          9.094715   0.040684
    588          9.098479   0.034256
    589          9.103525   0.026173
    590          9.107680   0.019966
    591          9.115603   0.009228
    592          9.119916   0.003968
    593          9.124239  -0.000903
    594          9.129862  -0.006659
    595          9.133007  -0.009603
    596          9.147758  -0.020928
    597          9.153197  -0.024148
    598          9.163691  -0.029056
    599          9.168374  -0.030736
    600          9.171055  -0.031568
    601          9.180642  -0.033820
    602          9.188949  -0.034953
    603          9.191622  -0.035173
    604          9.203250  -0.035418
    605          9.259670  -0.026607
    606          9.278130  -0.022351
    607          9.281530  -0.021571
    608          9.287292  -0.020263
    609          9.293453  -0.018893
    610          9.297473  -0.018019
    611          9.300692  -0.017332
    612          9.321109  -0.013291
    613          9.355036  -0.007994
    614          9.368060  -0.006441
    615          9.370785  -0.006148
    616          9.380076  -0.005225
    617          9.443812  -0.001482
    618          9.453011  -0.001211
    619          9.493147  -0.000474
    620          9.504325  -0.000359
    621          9.513743  -0.000283
    622          9.517473  -0.000257
    623          9.522925  -0.000223
    624          9.535778  -0.000158
    625          9.582885  -0.000042
    626          9.610873  -0.000018
    627          9.620713  -0.000013
    628          9.626605  -0.000011
    629          9.632723  -0.000009
    630          9.636506  -0.000008
    631          9.666362  -0.000003
    632          9.682095  -0.000002
    633          9.693151  -0.000001
    634          9.697935  -0.000001
    635          9.701645  -0.000001
    636          9.704613  -0.000001
    637          9.712771  -0.000001
    638          9.731857  -0.000000
    639          9.740406  -0.000000
    640          9.751916  -0.000000
    641          9.766762  -0.000000
    642          9.771377  -0.000000
    643          9.783460  -0.000000
    644          9.787436  -0.000000
    645          9.792306  -0.000000
    646          9.794092  -0.000000
    647          9.800058  -0.000000
    648          9.805010  -0.000000
    649          9.812872  -0.000000
    650          9.813813  -0.000000
    651          9.825154  -0.000000
    652          9.843521  -0.000000
    653          9.869641  -0.000000
    654          9.894803  -0.000000
    655          9.902297  -0.000000
    656          9.907747  -0.000000
    657          9.911526  -0.000000
    658          9.912459  -0.000000
    659          9.942242  -0.000000
    660          9.958780  -0.000000
    661          9.974231  -0.000000
    662          9.980950  -0.000000
    663         10.001991  -0.000000
    664         10.008483  -0.000000
    665         10.023040  -0.000000
    666         10.028318  -0.000000
    667         10.032593  -0.000000
    668         10.033701  -0.000000
    669         10.037797  -0.000000
    670         10.073419  -0.000000
    671         10.077249  -0.000000
    672         10.150907  -0.000000
    673         10.159948  -0.000000
    674         10.169590  -0.000000
    675         10.176257  -0.000000
    676         10.178524  -0.000000
    677         10.187913  -0.000000
    678         10.194717  -0.000000
    679         10.240929  -0.000000
    680         10.244077  -0.000000
    681         10.256553  -0.000000
    682         10.269114  -0.000000
    683         10.273657  -0.000000
    684         10.279690  -0.000000
    685         10.292556  -0.000000
    686         10.326265  -0.000000
    687         10.330266  -0.000000
    688         10.334291  -0.000000
    689         10.336245  -0.000000
    690         10.359329  -0.000000
    691         10.367746  -0.000000
 
  0.5000000E+00 -0.1797743E-16  0.0000000E+00  0.2083333E-01
      1        -39.887622   1.000000
      2        -39.885552   1.000000
      3        -39.859229   1.000000
      4        -39.856439   1.000000
      5        -39.855416   1.000000
      6        -39.851955   1.000000
      7        -39.849950   1.000000
      8        -39.849336   1.000000
      9        -39.830922   1.000000
     10        -39.827588   1.000000
     11        -39.826571   1.000000
     12        -39.823904   1.000000
     13        -39.814714   1.000000
     14        -39.813680   1.000000
     15        -39.808438   1.000000
     16        -39.807252   1.000000
     17        -39.800173   1.000000
     18        -39.797597   1.000000
     19        -39.795404   1.000000
     20        -39.791749   1.000000
     21        -39.790244   1.000000
     22        -39.787073   1.000000
     23        -39.786571   1.000000
     24        -39.786338   1.000000
     25        -39.786175   1.000000
     26        -39.784947   1.000000
     27        -39.784520   1.000000
     28        -39.782881   1.000000
     29        -39.780778   1.000000
     30        -39.779692   1.000000
     31        -39.776847   1.000000
     32        -39.775477   1.000000
     33        -39.775336   1.000000
     34        -39.775133   1.000000
     35        -39.772630   1.000000
     36        -39.769717   1.000000
     37        -39.769252   1.000000
     38        -39.768360   1.000000
     39        -39.767484   1.000000
     40        -39.766472   1.000000
     41        -39.764335   1.000000
     42        -39.763109   1.000000
     43        -39.761949   1.000000
     44        -39.760484   1.000000
     45        -39.757608   1.000000
     46        -39.757332   1.000000
     47        -39.756605   1.000000
     48        -39.756088   1.000000
     49        -39.755262   1.000000
     50        -39.754726   1.000000
     51        -39.750819   1.000000
     52        -39.748851   1.000000
     53        -39.748607   1.000000
     54        -39.746156   1.000000
     55        -39.746099   1.000000
     56        -39.744689   1.000000
     57        -39.744115   1.000000
     58        -39.744105   1.000000
     59        -39.743509   1.000000
     60        -39.742282   1.000000
     61        -39.742278   1.000000
     62        -39.741750   1.000000
     63        -39.741196   1.000000
     64        -39.740733   1.000000
     65        -39.740403   1.000000
     66        -39.739294   1.000000
     67        -39.738666   1.000000
     68        -39.736742   1.000000
     69        -39.736630   1.000000
     70        -39.735904   1.000000
     71        -39.735332   1.000000
     72        -39.734787   1.000000
     73        -39.733636   1.000000
     74        -39.732962   1.000000
     75        -39.731683   1.000000
     76        -39.731208   1.000000
     77        -39.731055   1.000000
     78        -39.730486   1.000000
     79        -39.729795   1.000000
     80        -39.729409   1.000000
     81        -39.728147   1.000000
     82        -39.727695   1.000000
     83        -39.727444   1.000000
     84        -39.726495   1.000000
     85        -39.724615   1.000000
     86        -39.724237   1.000000
     87        -39.722389   1.000000
     88        -39.720793   1.000000
     89        -39.719575   1.000000
     90        -39.718894   1.000000
     91        -39.718178   1.000000
     92        -39.717270   1.000000
     93        -39.716258   1.000000
     94        -39.715965   1.000000
     95        -39.713984   1.000000
     96        -39.712829   1.000000
     97        -18.370127   1.000000
     98        -18.369876   1.000000
     99        -18.289835   1.000000
    100        -18.286368   1.000000
    101        -18.285658   1.000000
    102        -18.283394   1.000000
    103        -18.283352   1.000000
    104        -18.281682   1.000000
    105        -18.281385   1.000000
    106        -18.280312   1.000000
    107        -18.279978   1.000000
    108        -18.278204   1.000000
    109        -18.264574   1.000000
    110        -18.264039   1.000000
    111        -18.263109   1.000000
    112        -18.261424   1.000000
    113        -18.208968   1.000000
    114        -18.208208   1.000000
    115        -18.206760   1.000000
    116        -18.206603   1.000000
    117        -18.200965   1.000000
    118        -18.199894   1.000000
    119        -18.197799   1.000000
    120        -18.196595   1.000000
    121        -18.196363   1.000000
    122        -18.195986   1.000000
    123        -18.195071   1.000000
    124        -18.194563   1.000000
    125        -18.194228   1.000000
    126        -18.194060   1.000000
    127        -18.193185   1.000000
    128        -18.193031   1.000000
    129        -18.192901   1.000000
    130        -18.192486   1.000000
    131        -18.191790   1.000000
    132        -18.190917   1.000000
    133        -18.190325   1.000000
    134        -18.190169   1.000000
    135        -18.189943   1.000000
    136        -18.188920   1.000000
    137        -18.170215   1.000000
    138        -18.167701   1.000000
    139        -18.165613   1.000000
    140        -18.164913   1.000000
    141        -18.159009   1.000000
    142        -18.158389   1.000000
    143        -18.156529   1.000000
    144        -18.156049   1.000000
    145        -18.155318   1.000000
    146        -18.155190   1.000000
    147        -18.154335   1.000000
    148        -18.153829   1.000000
    149        -18.152556   1.000000
    150        -18.151885   1.000000
    151        -18.149097   1.000000
    152        -18.148925   1.000000
    153        -18.146259   1.000000
    154        -18.142864   1.000000
    155        -18.142418   1.000000
    156        -18.141651   1.000000
    157        -18.139224   1.000000
    158        -18.138918   1.000000
    159        -18.137312   1.000000
    160        -18.136262   1.000000
    161        -18.086118   1.000000
    162        -18.084359   1.000000
    163        -18.071558   1.000000
    164        -18.071086   1.000000
    165        -18.069610   1.000000
    166        -18.069221   1.000000
    167        -18.067847   1.000000
    168        -18.067820   1.000000
    169        -18.067158   1.000000
    170        -18.066266   1.000000
    171        -18.039097   1.000000
    172        -18.035478   1.000000
    173        -18.035315   1.000000
    174        -18.032771   1.000000
    175        -18.026122   1.000000
    176        -18.023400   1.000000
    177        -18.023370   1.000000
    178        -18.022202   1.000000
    179        -17.994851   1.000000
    180        -17.994490   1.000000
    181        -17.992256   1.000000
    182        -17.992023   1.000000
    183        -17.989179   1.000000
    184        -17.987601   1.000000
    185        -17.983794   1.000000
    186        -17.982499   1.000000
    187        -17.981053   1.000000
    188        -17.978563   1.000000
    189        -17.977804   1.000000
    190        -17.977034   1.000000
    191        -17.937097   1.000000
    192        -17.934188   1.000000
    193        -17.932053   1.000000
    194        -17.930663   1.000000
    195        -17.928933   1.000000
    196        -17.927505   1.000000
    197        -17.889394   1.000000
    198        -17.888455   1.000000
    199        -17.873274   1.000000
    200        -17.872690   1.000000
    201        -17.872665   1.000000
    202        -17.871360   1.000000
    203        -17.847164   1.000000
    204        -17.841467   1.000000
    205        -17.839902   1.000000
    206        -17.838183   1.000000
    207        -17.837031   1.000000
    208        -17.836507   1.000000
    209        -17.835860   1.000000
    210        -17.835094   1.000000
    211        -17.834010   1.000000
    212        -17.833270   1.000000
    213        -17.832825   1.000000
    214        -17.830756   1.000000
    215        -17.810237   1.000000
    216        -17.809586   1.000000
    217        -17.804983   1.000000
    218        -17.804644   1.000000
    219        -17.802867   1.000000
    220        -17.802553   1.000000
    221        -17.801607   1.000000
    222        -17.798073   1.000000
    223        -17.796863   1.000000
    224        -17.795623   1.000000
    225        -17.795143   1.000000
    226        -17.793686   1.000000
    227        -17.792958   1.000000
    228        -17.791531   1.000000
    229        -17.791283   1.000000
    230        -17.790633   1.000000
    231        -17.790524   1.000000
    232        -17.788097   1.000000
    233        -17.759880   1.000000
    234        -17.755007   1.000000
    235        -17.751647   1.000000
    236        -17.749722   1.000000
    237        -17.747224   1.000000
    238        -17.745789   1.000000
    239        -17.744957   1.000000
    240        -17.744675   1.000000
    241        -17.741201   1.000000
    242        -17.740177   1.000000
    243        -17.737043   1.000000
    244        -17.733843   1.000000
    245        -17.723838   1.000000
    246        -17.722137   1.000000
    247        -17.720630   1.000000
    248        -17.720261   1.000000
    249        -17.719050   1.000000
    250        -17.718327   1.000000
    251        -17.717612   1.000000
    252        -17.716119   1.000000
    253        -17.715915   1.000000
    254        -17.715575   1.000000
    255        -17.715510   1.000000
    256        -17.715039   1.000000
    257        -17.714045   1.000000
    258        -17.713811   1.000000
    259        -17.712319   1.000000
    260        -17.711900   1.000000
    261        -17.711740   1.000000
    262        -17.709089   1.000000
    263        -17.709053   1.000000
    264        -17.708680   1.000000
    265        -17.706582   1.000000
    266        -17.705781   1.000000
    267        -17.705562   1.000000
    268        -17.704683   1.000000
    269        -17.682351   1.000000
    270        -17.681046   1.000000
    271        -17.679031   1.000000
    272        -17.677758   1.000000
    273        -17.676246   1.000000
    274        -17.675102   1.000000
    275        -17.674389   1.000000
    276        -17.670941   1.000000
    277        -17.670317   1.000000
    278        -17.669475   1.000000
    279        -17.669270   1.000000
    280        -17.669036   1.000000
    281        -17.668437   1.000000
    282        -17.667735   1.000000
    283        -17.666057   1.000000
    284        -17.665118   1.000000
    285        -17.661544   1.000000
    286        -17.655049   1.000000
    287        -17.651960   1.000000
    288        -17.651403   1.000000
    289        -17.650617   1.000000
    290        -17.649976   1.000000
    291        -17.630606   1.000000
    292        -17.628559   1.000000
    293        -17.628490   1.000000
    294        -17.626231   1.000000
    295        -17.613975   1.000000
    296        -17.611478   1.000000
    297        -17.611369   1.000000
    298        -17.610174   1.000000
    299        -17.608833   1.000000
    300        -17.608442   1.000000
    301        -17.607405   1.000000
    302        -17.606759   1.000000
    303        -17.606138   1.000000
    304        -17.605803   1.000000
    305        -17.605356   1.000000
    306        -17.604923   1.000000
    307        -17.604263   1.000000
    308        -17.603736   1.000000
    309        -17.603283   1.000000
    310        -17.602431   1.000000
    311        -17.601716   1.000000
    312        -17.600756   1.000000
    313        -17.599912   1.000000
    314        -17.599903   1.000000
    315        -17.598881   1.000000
    316        -17.598368   1.000000
    317        -17.597961   1.000000
    318        -17.596805   1.000000
    319        -17.593323   1.000000
    320        -17.589044   1.000000
    321        -17.587815   1.000000
    322        -17.587207   1.000000
    323        -17.586366   1.000000
    324        -17.585047   1.000000
    325        -17.578732   1.000000
    326        -17.577071   1.000000
    327        -17.576774   1.000000
    328        -17.575674   1.000000
    329        -17.575335   1.000000
    330        -17.575332   1.000000
    331        -17.574551   1.000000
    332        -17.573145   1.000000
    333        -17.571353   1.000000
    334        -17.570771   1.000000
    335        -17.570194   1.000000
    336        -17.568457   1.000000
    337        -17.568377   1.000000
    338        -17.567650   1.000000
    339        -17.565865   1.000000
    340        -17.563079   1.000000
    341        -17.553562   1.000000
    342        -17.552742   1.000000
    343        -17.551780   1.000000
    344        -17.551770   1.000000
    345        -17.550733   1.000000
    346        -17.550438   1.000000
    347        -17.549411   1.000000
    348        -17.549151   1.000000
    349        -17.549024   1.000000
    350        -17.548026   1.000000
    351        -17.547461   1.000000
    352        -17.546707   1.000000
    353        -17.546357   1.000000
    354        -17.545478   1.000000
    355        -17.544571   1.000000
    356        -17.544318   1.000000
    357        -17.530930   1.000000
    358        -17.526292   1.000000
    359        -17.526256   1.000000
    360        -17.525949   1.000000
    361        -17.525904   1.000000
    362        -17.524668   1.000000
    363        -17.523386   1.000000
    364        -17.521747   1.000000
    365        -17.519825   1.000000
    366        -17.518057   1.000000
    367        -17.510247   1.000000
    368        -17.508721   1.000000
    369        -17.506568   1.000000
    370        -17.504115   1.000000
    371        -17.501810   1.000000
    372        -17.499629   1.000000
    373        -17.490416   1.000000
    374        -17.488708   1.000000
    375        -17.480391   1.000000
    376        -17.479231   1.000000
    377        -17.475314   1.000000
    378        -17.472916   1.000000
    379        -17.471088   1.000000
    380        -17.469034   1.000000
    381        -17.450113   1.000000
    382        -17.448222   1.000000
    383        -17.433818   1.000000
    384        -17.431936   1.000000
    385          2.693480   1.000000
    386          3.721106   1.000000
    387          3.845560   1.000000
    388          4.496023   1.000000
    389          4.507433   1.000000
    390          4.531950   1.000000
    391          4.532601   1.000000
    392          4.533332   1.000000
    393          4.728112   1.000000
    394          5.180616   1.000000
    395          5.181603   1.000000
    396          5.181924   1.000000
    397          5.278515   1.000000
    398          5.711219   1.000000
    399          5.713413   1.000000
    400          5.717137   1.000000
    401          5.750260   1.000000
    402          5.895621   1.000000
    403          5.899771   1.000000
    404          5.901978   1.000000
    405          5.918313   1.000000
    406          5.945189   1.000000
    407          5.959541   1.000000
    408          5.995149   1.000000
    409          5.995690   1.000000
    410          5.999101   1.000000
    411          6.001456   1.000000
    412          6.002128   1.000000
    413          6.002551   1.000000
    414          6.003931   1.000000
    415          6.039182   1.000000
    416          6.049224   1.000000
    417          6.053032   1.000000
    418          6.053843   1.000000
    419          6.130630   1.000000
    420          6.187889   1.000000
    421          6.190058   1.000000
    422          6.190468   1.000000
    423          6.190570   1.000000
    424          6.190760   1.000000
    425          6.193930   1.000000
    426          6.197325   1.000000
    427          6.293367   1.000000
    428          6.302839   1.000000
    429          6.354793   1.000000
    430          6.564780   1.000000
    431          6.567482   1.000000
    432          6.571562   1.000000
    433          6.578596   1.000000
    434          6.579553   1.000000
    435          6.582913   1.000000
    436          6.585432   1.000000
    437          6.618217   1.000000
    438          6.667446   1.000000
    439          6.669695   1.000000
    440          6.672796   1.000000
    441          6.694727   1.000000
    442          6.707364   1.000000
    443          6.722727   1.000000
    444          6.765640   1.000000
    445          6.765646   1.000000
    446          6.766283   1.000000
    447          6.769729   1.000000
    448          6.770376   1.000000
    449          6.770804   1.000000
    450          6.777498   1.000000
    451          6.809478   1.000000
    452          6.823028   1.000000
    453          6.826452   1.000000
    454          6.830947   1.000000
    455          6.833098   1.000000
    456          6.861772   1.000000
    457          6.862447   1.000000
    458          6.865362   1.000000
    459          6.868306   1.000000
    460          6.868532   1.000000
    461          6.877476   1.000000
    462          6.881518   1.000000
    463          6.883695   1.000000
    464          6.885134   1.000000
    465          6.886072   1.000000
    466          6.886955   1.000000
    467          6.888312   1.000000
    468          6.891090   1.000000
    469          6.904728   1.000000
    470          6.908624   1.000000
    471          6.912052   1.000000
    472          6.912423   1.000000
    473          6.916485   1.000000
    474          6.918413   1.000000
    475          7.124891   1.000000
    476          7.135505   1.000000
    477          7.198421   1.000000
    478          7.198750   1.000000
    479          7.200551   1.000000
    480          7.202409   1.000000
    481          7.267876   1.000000
    482          7.324488   1.000000
    483          7.352890   1.000000
    484          7.424183   1.000000
    485          7.425077   1.000000
    486          7.427348   1.000000
    487          7.427883   1.000000
    488          7.431810   1.000000
    489          7.455186   1.000000
    490          7.469181   1.000000
    491          7.469648   1.000000
    492          7.471767   1.000000
    493          7.591206   1.000000
    494          7.602656   1.000000
    495          7.608340   1.000000
    496          7.617103   1.000000
    497          7.640263   1.000000
    498          7.671499   1.000000
    499          7.673174   1.000000
    500          7.675387   1.000000
    501          7.677721   1.000000
    502          7.679080   1.000000
    503          7.680223   1.000000
    504          7.685051   1.000000
    505          7.697118   1.000000
    506          7.704237   1.000000
    507          7.704512   1.000000
    508          7.706826   1.000000
    509          7.712563   1.000000
    510          7.714050   1.000000
    511          7.716339   1.000000
    512          7.718549   1.000000
    513          7.770567   1.000000
    514          7.801683   1.000000
    515          7.802133   1.000000
    516          7.808896   1.000000
    517          7.852288   1.000000
    518          7.883072   1.000000
    519          7.889126   1.000000
    520          7.898398   1.000000
    521          7.914348   1.000000
    522          7.940878   1.000000
    523          7.941688   1.000000
    524          7.943291   1.000000
    525          7.998752   1.000000
    526          8.009860   1.000000
    527          8.041581   1.000000
    528          8.078917   1.000000
    529          8.080016   1.000000
    530          8.086119   1.000000
    531          8.190935   1.000000
    532          8.243917   1.000003
    533          8.247932   1.000003
    534          8.251647   1.000004
    535          8.259538   1.000005
    536          8.288737   1.000013
    537          8.289200   1.000013
    538          8.290858   1.000014
    539          8.291003   1.000014
    540          8.293209   1.000015
    541          8.293825   1.000015
    542          8.298507   1.000018
    543          8.325178   1.000040
    544          8.378113   1.000175
    545          8.386574   1.000219
    546          8.389903   1.000239
    547          8.390293   1.000242
    548          8.394186   1.000268
    549          8.397254   1.000289
    550          8.398921   1.000302
    551          8.400505   1.000315
    552          8.401804   1.000325
    553          8.407561   1.000376
    554          8.409181   1.000391
    555          8.410296   1.000402
    556          8.410471   1.000404
    557          8.414603   1.000448
    558          8.417012   1.000475
    559          8.443006   1.000881
    560          8.457464   1.001222
    561          8.464586   1.001430
    562          8.481707   1.002058
    563          8.492090   1.002545
    564          8.513514   1.003864
    565          8.629905   1.021884
    566          8.633751   1.022769
    567          8.644479   1.025251
    568          8.649575   1.026420
    569          8.853670   0.873821
    570          8.871266   0.822327
    571          8.877762   0.801478
    572          8.881887   0.787756
    573          8.937136   0.575399
    574          9.051302   0.140321
    575          9.059053   0.119066
    576          9.062556   0.109948
    577          9.063819   0.106737
    578          9.065202   0.103266
    579          9.069514   0.092756
    580          9.073137   0.084287
    581          9.077913   0.073631
    582          9.078865   0.071574
    583          9.084405   0.060066
    584          9.122812   0.000661
    585          9.131776  -0.008474
    586          9.137512  -0.013485
    587          9.138438  -0.014235
    588          9.140504  -0.015853
    589          9.141268  -0.016431
    590          9.143949  -0.018378
    591          9.144009  -0.018420
    592          9.147790  -0.020949
    593          9.148416  -0.021344
    594          9.148470  -0.021378
    595          9.150443  -0.022578
    596          9.150697  -0.022728
    597          9.152335  -0.023670
    598          9.155100  -0.025161
    599          9.157910  -0.026556
    600          9.158491  -0.026829
    601          9.162494  -0.028578
    602          9.168343  -0.030726
    603          9.170512  -0.031407
    604          9.179528  -0.033613
    605          9.257017  -0.027207
    606          9.292693  -0.019060
    607          9.301188  -0.017227
    608          9.308658  -0.015686
    609          9.308913  -0.015635
    610          9.311767  -0.015067
    611          9.314110  -0.014610
    612          9.318910  -0.013697
    613          9.319842  -0.013525
    614          9.327401  -0.012170
    615          9.368971  -0.006342
    616          9.379555  -0.005274
    617          9.409912  -0.002988
    618          9.418939  -0.002496
    619          9.425806  -0.002170
    620          9.429306  -0.002018
    621          9.538159  -0.000149
    622          9.575756  -0.000052
    623          9.585385  -0.000039
    624          9.588922  -0.000035
    625          9.593509  -0.000031
    626          9.596514  -0.000028
    627          9.600051  -0.000025
    628          9.603346  -0.000023
    629          9.663817  -0.000003
    630          9.663959  -0.000003
    631          9.682451  -0.000002
    632          9.684839  -0.000002
    633          9.706913  -0.000001
    634          9.709189  -0.000001
    635          9.710140  -0.000001
    636          9.714567  -0.000001
    637          9.715564  -0.000001
    638          9.716199  -0.000001
    639          9.720655  -0.000000
    640          9.721602  -0.000000
    641          9.723974  -0.000000
    642          9.727453  -0.000000
    643          9.730326  -0.000000
    644          9.745904  -0.000000
    645          9.767388  -0.000000
    646          9.771214  -0.000000
    647          9.771945  -0.000000
    648          9.776255  -0.000000
    649          9.817643  -0.000000
    650          9.839138  -0.000000
    651          9.901074  -0.000000
    652          9.907710  -0.000000
    653          9.909114  -0.000000
    654          9.912549  -0.000000
    655          9.920082  -0.000000
    656          9.934092  -0.000000
    657          9.951333  -0.000000
    658          9.960865  -0.000000
    659          9.962245  -0.000000
    660          9.965122  -0.000000
    661          9.967105  -0.000000
    662          9.969733  -0.000000
    663          9.972638  -0.000000
    664          9.982567  -0.000000
    665          9.998260  -0.000000
    666         10.003636  -0.000000
    667         10.017344  -0.000000
    668         10.020427  -0.000000
    669         10.026887  -0.000000
    670         10.033103  -0.000000
    671         10.108960  -0.000000
    672         10.124879  -0.000000
    673         10.166606  -0.000000
    674         10.201771  -0.000000
    675         10.204912  -0.000000
    676         10.213974  -0.000000
    677         10.214692  -0.000000
    678         10.219351  -0.000000
    679         10.222662  -0.000000
    680         10.226731  -0.000000
    681         10.243596  -0.000000
    682         10.251935  -0.000000
    683         10.259333  -0.000000
    684         10.269502  -0.000000
    685         10.270492  -0.000000
    686         10.275445  -0.000000
    687         10.282197  -0.000000
    688         10.284183  -0.000000
    689         10.284451  -0.000000
    690         10.295329  -0.000000
    691         10.298577  -0.000000
 
  0.2690550E-16  0.5000000E+00  0.0000000E+00  0.2083333E-01
      1        -39.887616   1.000000
      2        -39.885524   1.000000
      3        -39.859407   1.000000
      4        -39.856109   1.000000
      5        -39.854499   1.000000
      6        -39.852125   1.000000
      7        -39.851155   1.000000
      8        -39.849605   1.000000
      9        -39.830347   1.000000
     10        -39.828542   1.000000
     11        -39.825608   1.000000
     12        -39.824493   1.000000
     13        -39.814566   1.000000
     14        -39.810975   1.000000
     15        -39.809131   1.000000
     16        -39.808136   1.000000
     17        -39.800980   1.000000
     18        -39.795374   1.000000
     19        -39.794457   1.000000
     20        -39.793263   1.000000
     21        -39.790212   1.000000
     22        -39.788653   1.000000
     23        -39.787768   1.000000
     24        -39.786905   1.000000
     25        -39.786055   1.000000
     26        -39.784681   1.000000
     27        -39.784335   1.000000
     28        -39.781727   1.000000
     29        -39.780545   1.000000
     30        -39.779867   1.000000
     31        -39.778727   1.000000
     32        -39.776517   1.000000
     33        -39.774620   1.000000
     34        -39.773952   1.000000
     35        -39.771886   1.000000
     36        -39.770900   1.000000
     37        -39.769352   1.000000
     38        -39.768892   1.000000
     39        -39.767343   1.000000
     40        -39.766140   1.000000
     41        -39.764074   1.000000
     42        -39.763444   1.000000
     43        -39.760645   1.000000
     44        -39.759656   1.000000
     45        -39.759019   1.000000
     46        -39.757856   1.000000
     47        -39.757022   1.000000
     48        -39.755545   1.000000
     49        -39.754576   1.000000
     50        -39.753093   1.000000
     51        -39.749901   1.000000
     52        -39.748756   1.000000
     53        -39.747091   1.000000
     54        -39.747034   1.000000
     55        -39.746315   1.000000
     56        -39.745475   1.000000
     57        -39.745386   1.000000
     58        -39.744482   1.000000
     59        -39.743730   1.000000
     60        -39.742678   1.000000
     61        -39.742186   1.000000
     62        -39.741540   1.000000
     63        -39.741276   1.000000
     64        -39.740801   1.000000
     65        -39.740236   1.000000
     66        -39.739442   1.000000
     67        -39.737932   1.000000
     68        -39.737066   1.000000
     69        -39.736929   1.000000
     70        -39.735837   1.000000
     71        -39.734818   1.000000
     72        -39.734182   1.000000
     73        -39.733384   1.000000
     74        -39.732978   1.000000
     75        -39.732285   1.000000
     76        -39.731634   1.000000
     77        -39.731322   1.000000
     78        -39.731152   1.000000
     79        -39.730151   1.000000
     80        -39.729435   1.000000
     81        -39.728503   1.000000
     82        -39.726767   1.000000
     83        -39.726354   1.000000
     84        -39.725946   1.000000
     85        -39.725614   1.000000
     86        -39.723120   1.000000
     87        -39.722144   1.000000
     88        -39.721332   1.000000
     89        -39.720216   1.000000
     90        -39.719195   1.000000
     91        -39.717839   1.000000
     92        -39.717485   1.000000
     93        -39.717354   1.000000
     94        -39.715439   1.000000
     95        -39.713877   1.000000
     96        -39.712327   1.000000
     97        -18.370742   1.000000
     98        -18.369258   1.000000
     99        -18.290198   1.000000
    100        -18.285665   1.000000
    101        -18.284256   1.000000
    102        -18.283086   1.000000
    103        -18.282038   1.000000
    104        -18.281727   1.000000
    105        -18.281710   1.000000
    106        -18.280896   1.000000
    107        -18.280531   1.000000
    108        -18.278931   1.000000
    109        -18.264632   1.000000
    110        -18.264102   1.000000
    111        -18.262682   1.000000
    112        -18.261982   1.000000
    113        -18.210461   1.000000
    114        -18.207974   1.000000
    115        -18.207456   1.000000
    116        -18.205701   1.000000
    117        -18.200776   1.000000
    118        -18.198787   1.000000
    119        -18.197070   1.000000
    120        -18.196880   1.000000
    121        -18.195881   1.000000
    122        -18.195511   1.000000
    123        -18.194954   1.000000
    124        -18.194571   1.000000
    125        -18.194203   1.000000
    126        -18.194073   1.000000
    127        -18.193710   1.000000
    128        -18.193277   1.000000
    129        -18.192644   1.000000
    130        -18.192515   1.000000
    131        -18.192144   1.000000
    132        -18.191501   1.000000
    133        -18.190885   1.000000
    134        -18.190664   1.000000
    135        -18.189994   1.000000
    136        -18.189127   1.000000
    137        -18.169952   1.000000
    138        -18.167796   1.000000
    139        -18.166055   1.000000
    140        -18.164461   1.000000
    141        -18.158904   1.000000
    142        -18.157819   1.000000
    143        -18.156890   1.000000
    144        -18.156450   1.000000
    145        -18.155511   1.000000
    146        -18.155014   1.000000
    147        -18.153598   1.000000
    148        -18.152871   1.000000
    149        -18.151772   1.000000
    150        -18.151033   1.000000
    151        -18.149801   1.000000
    152        -18.148965   1.000000
    153        -18.146181   1.000000
    154        -18.145135   1.000000
    155        -18.141940   1.000000
    156        -18.141714   1.000000
    157        -18.139999   1.000000
    158        -18.138528   1.000000
    159        -18.137092   1.000000
    160        -18.136348   1.000000
    161        -18.087814   1.000000
    162        -18.083490   1.000000
    163        -18.071899   1.000000
    164        -18.070998   1.000000
    165        -18.069954   1.000000
    166        -18.069305   1.000000
    167        -18.068091   1.000000
    168        -18.067802   1.000000
    169        -18.067161   1.000000
    170        -18.065977   1.000000
    171        -18.038717   1.000000
    172        -18.035622   1.000000
    173        -18.034811   1.000000
    174        -18.033987   1.000000
    175        -18.026506   1.000000
    176        -18.024031   1.000000
    177        -18.022022   1.000000
    178        -18.021512   1.000000
    179        -17.994541   1.000000
    180        -17.993021   1.000000
    181        -17.992621   1.000000
    182        -17.991892   1.000000
    183        -17.989088   1.000000
    184        -17.987964   1.000000
    185        -17.983875   1.000000
    186        -17.982503   1.000000
    187        -17.982105   1.000000
    188        -17.979618   1.000000
    189        -17.977473   1.000000
    190        -17.976221   1.000000
    191        -17.937638   1.000000
    192        -17.933082   1.000000
    193        -17.931012   1.000000
    194        -17.930501   1.000000
    195        -17.929841   1.000000
    196        -17.928972   1.000000
    197        -17.890690   1.000000
    198        -17.888611   1.000000
    199        -17.874411   1.000000
    200        -17.873414   1.000000
    201        -17.871597   1.000000
    202        -17.871164   1.000000
    203        -17.847543   1.000000
    204        -17.841629   1.000000
    205        -17.839346   1.000000
    206        -17.838768   1.000000
    207        -17.837469   1.000000
    208        -17.836594   1.000000
    209        -17.835741   1.000000
    210        -17.835235   1.000000
    211        -17.833147   1.000000
    212        -17.832861   1.000000
    213        -17.831841   1.000000
    214        -17.829395   1.000000
    215        -17.809585   1.000000
    216        -17.808743   1.000000
    217        -17.806038   1.000000
    218        -17.805117   1.000000
    219        -17.804362   1.000000
    220        -17.802100   1.000000
    221        -17.800995   1.000000
    222        -17.798213   1.000000
    223        -17.797564   1.000000
    224        -17.796127   1.000000
    225        -17.794716   1.000000
    226        -17.793647   1.000000
    227        -17.793396   1.000000
    228        -17.792924   1.000000
    229        -17.791660   1.000000
    230        -17.791324   1.000000
    231        -17.789405   1.000000
    232        -17.788041   1.000000
    233        -17.758994   1.000000
    234        -17.753824   1.000000
    235        -17.750756   1.000000
    236        -17.749485   1.000000
    237        -17.747783   1.000000
    238        -17.746372   1.000000
    239        -17.744478   1.000000
    240        -17.744145   1.000000
    241        -17.741843   1.000000
    242        -17.740687   1.000000
    243        -17.735429   1.000000
    244        -17.734353   1.000000
    245        -17.724585   1.000000
    246        -17.722386   1.000000
    247        -17.719764   1.000000
    248        -17.718252   1.000000
    249        -17.718018   1.000000
    250        -17.717691   1.000000
    251        -17.716849   1.000000
    252        -17.716280   1.000000
    253        -17.715772   1.000000
    254        -17.715278   1.000000
    255        -17.715023   1.000000
    256        -17.714921   1.000000
    257        -17.714057   1.000000
    258        -17.713338   1.000000
    259        -17.712582   1.000000
    260        -17.712054   1.000000
    261        -17.711385   1.000000
    262        -17.710703   1.000000
    263        -17.709864   1.000000
    264        -17.708704   1.000000
    265        -17.707047   1.000000
    266        -17.706369   1.000000
    267        -17.704545   1.000000
    268        -17.702908   1.000000
    269        -17.682755   1.000000
    270        -17.680331   1.000000
    271        -17.679141   1.000000
    272        -17.678539   1.000000
    273        -17.677559   1.000000
    274        -17.674254   1.000000
    275        -17.672303   1.000000
    276        -17.671530   1.000000
    277        -17.671354   1.000000
    278        -17.670552   1.000000
    279        -17.670000   1.000000
    280        -17.669515   1.000000
    281        -17.669263   1.000000
    282        -17.668857   1.000000
    283        -17.666858   1.000000
    284        -17.664916   1.000000
    285        -17.660716   1.000000
    286        -17.656257   1.000000
    287        -17.652946   1.000000
    288        -17.651871   1.000000
    289        -17.651368   1.000000
    290        -17.650035   1.000000
    291        -17.631128   1.000000
    292        -17.628621   1.000000
    293        -17.626659   1.000000
    294        -17.626053   1.000000
    295        -17.612855   1.000000
    296        -17.612246   1.000000
    297        -17.611209   1.000000
    298        -17.609804   1.000000
    299        -17.609172   1.000000
    300        -17.608184   1.000000
    301        -17.606704   1.000000
    302        -17.605967   1.000000
    303        -17.605559   1.000000
    304        -17.605350   1.000000
    305        -17.604816   1.000000
    306        -17.604383   1.000000
    307        -17.603881   1.000000
    308        -17.603465   1.000000
    309        -17.603248   1.000000
    310        -17.602134   1.000000
    311        -17.601725   1.000000
    312        -17.600310   1.000000
    313        -17.599579   1.000000
    314        -17.599137   1.000000
    315        -17.598374   1.000000
    316        -17.598163   1.000000
    317        -17.597729   1.000000
    318        -17.597086   1.000000
    319        -17.592667   1.000000
    320        -17.589273   1.000000
    321        -17.588645   1.000000
    322        -17.587700   1.000000
    323        -17.586500   1.000000
    324        -17.585505   1.000000
    325        -17.578911   1.000000
    326        -17.577009   1.000000
    327        -17.576969   1.000000
    328        -17.576094   1.000000
    329        -17.575681   1.000000
    330        -17.574814   1.000000
    331        -17.574171   1.000000
    332        -17.573028   1.000000
    333        -17.572252   1.000000
    334        -17.571150   1.000000
    335        -17.569789   1.000000
    336        -17.569037   1.000000
    337        -17.567491   1.000000
    338        -17.567147   1.000000
    339        -17.565132   1.000000
    340        -17.564232   1.000000
    341        -17.554401   1.000000
    342        -17.552564   1.000000
    343        -17.551628   1.000000
    344        -17.551412   1.000000
    345        -17.550866   1.000000
    346        -17.550374   1.000000
    347        -17.549507   1.000000
    348        -17.549303   1.000000
    349        -17.548640   1.000000
    350        -17.548376   1.000000
    351        -17.548099   1.000000
    352        -17.547661   1.000000
    353        -17.545804   1.000000
    354        -17.545558   1.000000
    355        -17.544297   1.000000
    356        -17.543602   1.000000
    357        -17.531250   1.000000
    358        -17.527089   1.000000
    359        -17.526783   1.000000
    360        -17.525478   1.000000
    361        -17.525206   1.000000
    362        -17.524330   1.000000
    363        -17.523519   1.000000
    364        -17.522581   1.000000
    365        -17.520599   1.000000
    366        -17.518946   1.000000
    367        -17.509941   1.000000
    368        -17.508634   1.000000
    369        -17.506078   1.000000
    370        -17.504075   1.000000
    371        -17.502574   1.000000
    372        -17.500285   1.000000
    373        -17.491009   1.000000
    374        -17.488249   1.000000
    375        -17.481952   1.000000
    376        -17.478851   1.000000
    377        -17.476326   1.000000
    378        -17.471496   1.000000
    379        -17.470036   1.000000
    380        -17.469677   1.000000
    381        -17.450385   1.000000
    382        -17.447872   1.000000
    383        -17.433682   1.000000
    384        -17.431238   1.000000
    385          2.695565   1.000000
    386          3.721477   1.000000
    387          3.841102   1.000000
    388          4.495121   1.000000
    389          4.508542   1.000000
    390          4.532393   1.000000
    391          4.532849   1.000000
    392          4.533288   1.000000
    393          4.725018   1.000000
    394          5.178944   1.000000
    395          5.181488   1.000000
    396          5.182021   1.000000
    397          5.285942   1.000000
    398          5.712498   1.000000
    399          5.714182   1.000000
    400          5.717353   1.000000
    401          5.757057   1.000000
    402          5.896549   1.000000
    403          5.900105   1.000000
    404          5.901104   1.000000
    405          5.915328   1.000000
    406          5.942486   1.000000
    407          5.954013   1.000000
    408          5.993420   1.000000
    409          5.998679   1.000000
    410          5.999152   1.000000
    411          6.000340   1.000000
    412          6.002256   1.000000
    413          6.002749   1.000000
    414          6.003814   1.000000
    415          6.040981   1.000000
    416          6.048864   1.000000
    417          6.052805   1.000000
    418          6.053801   1.000000
    419          6.126077   1.000000
    420          6.184977   1.000000
    421          6.189600   1.000000
    422          6.190518   1.000000
    423          6.190874   1.000000
    424          6.192350   1.000000
    425          6.194688   1.000000
    426          6.196633   1.000000
    427          6.295480   1.000000
    428          6.303186   1.000000
    429          6.350874   1.000000
    430          6.566647   1.000000
    431          6.568665   1.000000
    432          6.571462   1.000000
    433          6.574388   1.000000
    434          6.581435   1.000000
    435          6.583070   1.000000
    436          6.585740   1.000000
    437          6.616358   1.000000
    438          6.667474   1.000000
    439          6.671489   1.000000
    440          6.672100   1.000000
    441          6.699510   1.000000
    442          6.705083   1.000000
    443          6.709782   1.000000
    444          6.761710   1.000000
    445          6.766662   1.000000
    446          6.767375   1.000000
    447          6.768799   1.000000
    448          6.770940   1.000000
    449          6.772965   1.000000
    450          6.775617   1.000000
    451          6.802772   1.000000
    452          6.824876   1.000000
    453          6.829924   1.000000
    454          6.833485   1.000000
    455          6.837238   1.000000
    456          6.860135   1.000000
    457          6.863363   1.000000
    458          6.864946   1.000000
    459          6.865898   1.000000
    460          6.868307   1.000000
    461          6.877048   1.000000
    462          6.881209   1.000000
    463          6.882908   1.000000
    464          6.884807   1.000000
    465          6.885397   1.000000
    466          6.885935   1.000000
    467          6.887961   1.000000
    468          6.890753   1.000000
    469          6.906380   1.000000
    470          6.911023   1.000000
    471          6.911593   1.000000
    472          6.914571   1.000000
    473          6.917148   1.000000
    474          6.918958   1.000000
    475          7.108535   1.000000
    476          7.133923   1.000000
    477          7.190053   1.000000
    478          7.198622   1.000000
    479          7.200354   1.000000
    480          7.203309   1.000000
    481          7.305537   1.000000
    482          7.325143   1.000000
    483          7.350337   1.000000
    484          7.422204   1.000000
    485          7.423540   1.000000
    486          7.428139   1.000000
    487          7.429512   1.000000
    488          7.431777   1.000000
    489          7.455714   1.000000
    490          7.468564   1.000000
    491          7.469748   1.000000
    492          7.473453   1.000000
    493          7.580818   1.000000
    494          7.605904   1.000000
    495          7.613300   1.000000
    496          7.616849   1.000000
    497          7.645744   1.000000
    498          7.662899   1.000000
    499          7.671900   1.000000
    500          7.675223   1.000000
    501          7.677662   1.000000
    502          7.680891   1.000000
    503          7.682020   1.000000
    504          7.684994   1.000000
    505          7.698398   1.000000
    506          7.703863   1.000000
    507          7.704793   1.000000
    508          7.707544   1.000000
    509          7.710880   1.000000
    510          7.714787   1.000000
    511          7.716102   1.000000
    512          7.721524   1.000000
    513          7.790843   1.000000
    514          7.799107   1.000000
    515          7.804617   1.000000
    516          7.806293   1.000000
    517          7.851407   1.000000
    518          7.880722   1.000000
    519          7.887370   1.000000
    520          7.900383   1.000000
    521          7.915577   1.000000
    522          7.939988   1.000000
    523          7.940425   1.000000
    524          7.943414   1.000000
    525          7.992629   1.000000
    526          8.009308   1.000000
    527          8.066170   1.000000
    528          8.076172   1.000000
    529          8.083580   1.000000
    530          8.084498   1.000000
    531          8.182869   1.000000
    532          8.244729   1.000003
    533          8.245500   1.000003
    534          8.251428   1.000004
    535          8.266585   1.000006
    536          8.287260   1.000012
    537          8.290352   1.000014
    538          8.291623   1.000014
    539          8.292237   1.000015
    540          8.294198   1.000015
    541          8.296530   1.000017
    542          8.300273   1.000019
    543          8.326787   1.000041
    544          8.378521   1.000177
    545          8.384258   1.000207
    546          8.388060   1.000228
    547          8.392302   1.000255
    548          8.395082   1.000274
    549          8.396258   1.000282
    550          8.398326   1.000298
    551          8.401367   1.000322
    552          8.403769   1.000342
    553          8.406211   1.000363
    554          8.408932   1.000389
    555          8.410194   1.000401
    556          8.414013   1.000441
    557          8.415569   1.000459
    558          8.420117   1.000513
    559          8.438477   1.000794
    560          8.458428   1.001249
    561          8.462048   1.001352
    562          8.481580   1.002052
    563          8.489328   1.002407
    564          8.512798   1.003812
    565          8.612459   1.017990
    566          8.632596   1.022503
    567          8.648801   1.026243
    568          8.653806   1.027377
    569          8.835320   0.919371
    570          8.875179   0.809882
    571          8.877132   0.803541
    572          8.882175   0.786782
    573          8.963698   0.463378
    574          9.046259   0.154942
    575          9.055407   0.128878
    576          9.062077   0.111177
    577          9.063566   0.107377
    578          9.066837   0.099225
    579          9.071678   0.087657
    580          9.072911   0.084805
    581          9.075609   0.078698
    582          9.078319   0.072750
    583          9.091099   0.047183
    584          9.118058   0.006185
    585          9.124962  -0.001680
    586          9.126545  -0.003342
    587          9.138270  -0.014101
    588          9.141519  -0.016619
    589          9.142076  -0.017031
    590          9.142494  -0.017337
    591          9.144222  -0.018570
    592          9.146661  -0.020219
    593          9.147542  -0.020790
    594          9.148470  -0.021377
    595          9.148805  -0.021586
    596          9.151088  -0.022957
    597          9.152937  -0.024005
    598          9.156393  -0.025818
    599          9.158139  -0.026665
    600          9.161227  -0.028050
    601          9.162309  -0.028502
    602          9.165496  -0.029739
    603          9.169486  -0.031092
    604          9.179421  -0.033592
    605          9.266409  -0.025061
    606          9.285308  -0.020711
    607          9.300997  -0.017267
    608          9.307872  -0.015845
    609          9.308501  -0.015718
    610          9.313000  -0.014826
    611          9.313929  -0.014645
    612          9.317672  -0.013930
    613          9.319569  -0.013575
    614          9.328616  -0.011961
    615          9.373748  -0.005840
    616          9.382317  -0.005020
    617          9.397177  -0.003819
    618          9.419519  -0.002467
    619          9.423534  -0.002273
    620          9.425307  -0.002192
    621          9.552231  -0.000101
    622          9.576837  -0.000050
    623          9.585684  -0.000039
    624          9.586790  -0.000037
    625          9.594896  -0.000029
    626          9.598223  -0.000027
    627          9.600024  -0.000025
    628          9.603037  -0.000023
    629          9.640816  -0.000007
    630          9.663587  -0.000003
    631          9.673333  -0.000002
    632          9.698460  -0.000001
    633          9.702390  -0.000001
    634          9.705970  -0.000001
    635          9.711245  -0.000001
    636          9.711676  -0.000001
    637          9.713715  -0.000001
    638          9.715684  -0.000001
    639          9.716434  -0.000001
    640          9.719345  -0.000000
    641          9.723821  -0.000000
    642          9.725116  -0.000000
    643          9.729621  -0.000000
    644          9.746735  -0.000000
    645          9.762081  -0.000000
    646          9.767081  -0.000000
    647          9.772820  -0.000000
    648          9.778740  -0.000000
    649          9.833413  -0.000000
    650          9.844739  -0.000000
    651          9.886568  -0.000000
    652          9.909094  -0.000000
    653          9.911558  -0.000000
    654          9.915124  -0.000000
    655          9.924339  -0.000000
    656          9.938996  -0.000000
    657          9.946019  -0.000000
    658          9.956702  -0.000000
    659          9.959611  -0.000000
    660          9.965038  -0.000000
    661          9.968091  -0.000000
    662          9.970696  -0.000000
    663          9.973131  -0.000000
    664          9.980321  -0.000000
    665          9.995494  -0.000000
    666         10.004819  -0.000000
    667         10.017299  -0.000000
    668         10.022840  -0.000000
    669         10.030255  -0.000000
    670         10.032639  -0.000000
    671         10.107188  -0.000000
    672         10.127540  -0.000000
    673         10.180366  -0.000000
    674         10.198362  -0.000000
    675         10.202180  -0.000000
    676         10.213124  -0.000000
    677         10.215259  -0.000000
    678         10.219652  -0.000000
    679         10.223309  -0.000000
    680         10.228317  -0.000000
    681         10.246113  -0.000000
    682         10.254416  -0.000000
    683         10.255991  -0.000000
    684         10.265697  -0.000000
    685         10.273940  -0.000000
    686         10.275162  -0.000000
    687         10.280617  -0.000000
    688         10.284027  -0.000000
    689         10.288472  -0.000000
    690         10.289973  -0.000000
    691         10.302830  -0.000000
 
  0.5000000E+00  0.5000000E+00  0.0000000E+00  0.2083333E-01
      1        -39.887616   1.000000
      2        -39.885524   1.000000
      3        -39.859407   1.000000
      4        -39.856109   1.000000
      5        -39.854499   1.000000
      6        -39.852125   1.000000
      7        -39.851155   1.000000
      8        -39.849605   1.000000
      9        -39.830347   1.000000
     10        -39.828542   1.000000
     11        -39.825608   1.000000
     12        -39.824493   1.000000
     13        -39.814566   1.000000
     14        -39.810975   1.000000
     15        -39.809131   1.000000
     16        -39.808136   1.000000
     17        -39.800980   1.000000
     18        -39.795374   1.000000
     19        -39.794457   1.000000
     20        -39.793263   1.000000
     21        -39.790212   1.000000
     22        -39.788653   1.000000
     23        -39.787768   1.000000
     24        -39.786905   1.000000
     25        -39.786055   1.000000
     26        -39.784681   1.000000
     27        -39.784335   1.000000
     28        -39.781727   1.000000
     29        -39.780546   1.000000
     30        -39.779867   1.000000
     31        -39.778727   1.000000
     32        -39.776517   1.000000
     33        -39.774620   1.000000
     34        -39.773952   1.000000
     35        -39.771886   1.000000
     36        -39.770900   1.000000
     37        -39.769352   1.000000
     38        -39.768892   1.000000
     39        -39.767343   1.000000
     40        -39.766140   1.000000
     41        -39.764074   1.000000
     42        -39.763444   1.000000
     43        -39.760645   1.000000
     44        -39.759656   1.000000
     45        -39.759019   1.000000
     46        -39.757856   1.000000
     47        -39.757022   1.000000
     48        -39.755545   1.000000
     49        -39.754576   1.000000
     50        -39.753093   1.000000
     51        -39.749901   1.000000
     52        -39.748756   1.000000
     53        -39.747091   1.000000
     54        -39.747034   1.000000
     55        -39.746315   1.000000
     56        -39.745475   1.000000
     57        -39.745386   1.000000
     58        -39.744482   1.000000
     59        -39.743730   1.000000
     60        -39.742678   1.000000
     61        -39.742186   1.000000
     62        -39.741540   1.000000
     63        -39.741276   1.000000
     64        -39.740801   1.000000
     65        -39.740236   1.000000
     66        -39.739442   1.000000
     67        -39.737932   1.000000
     68        -39.737066   1.000000
     69        -39.736929   1.000000
     70        -39.735837   1.000000
     71        -39.734818   1.000000
     72        -39.734182   1.000000
     73        -39.733384   1.000000
     74        -39.732978   1.000000
     75        -39.732285   1.000000
     76        -39.731634   1.000000
     77        -39.731322   1.000000
     78        -39.731152   1.000000
     79        -39.730151   1.000000
     80        -39.729435   1.000000
     81        -39.728503   1.000000
     82        -39.726767   1.000000
     83        -39.726354   1.000000
     84        -39.725946   1.000000
     85        -39.725614   1.000000
     86        -39.723120   1.000000
     87        -39.722144   1.000000
     88        -39.721332   1.000000
     89        -39.720216   1.000000
     90        -39.719195   1.000000
     91        -39.717839   1.000000
     92        -39.717485   1.000000
     93        -39.717354   1.000000
     94        -39.715439   1.000000
     95        -39.713877   1.000000
     96        -39.712327   1.000000
     97        -18.370742   1.000000
     98        -18.369258   1.000000
     99        -18.290198   1.000000
    100        -18.285665   1.000000
    101        -18.284256   1.000000
    102        -18.283086   1.000000
    103        -18.282038   1.000000
    104        -18.281727   1.000000
    105        -18.281710   1.000000
    106        -18.280896   1.000000
    107        -18.280531   1.000000
    108        -18.278931   1.000000
    109        -18.264632   1.000000
    110        -18.264102   1.000000
    111        -18.262682   1.000000
    112        -18.261982   1.000000
    113        -18.210461   1.000000
    114        -18.207974   1.000000
    115        -18.207456   1.000000
    116        -18.205701   1.000000
    117        -18.200776   1.000000
    118        -18.198787   1.000000
    119        -18.197070   1.000000
    120        -18.196880   1.000000
    121        -18.195881   1.000000
    122        -18.195511   1.000000
    123        -18.194954   1.000000
    124        -18.194571   1.000000
    125        -18.194203   1.000000
    126        -18.194073   1.000000
    127        -18.193710   1.000000
    128        -18.193277   1.000000
    129        -18.192644   1.000000
    130        -18.192515   1.000000
    131        -18.192144   1.000000
    132        -18.191501   1.000000
    133        -18.190885   1.000000
    134        -18.190664   1.000000
    135        -18.189994   1.000000
    136        -18.189127   1.000000
    137        -18.169952   1.000000
    138        -18.167796   1.000000
    139        -18.166055   1.000000
    140        -18.164461   1.000000
    141        -18.158904   1.000000
    142        -18.157819   1.000000
    143        -18.156890   1.000000
    144        -18.156450   1.000000
    145        -18.155511   1.000000
    146        -18.155014   1.000000
    147        -18.153598   1.000000
    148        -18.152871   1.000000
    149        -18.151772   1.000000
    150        -18.151033   1.000000
    151        -18.149801   1.000000
    152        -18.148965   1.000000
    153        -18.146181   1.000000
    154        -18.145135   1.000000
    155        -18.141940   1.000000
    156        -18.141714   1.000000
    157        -18.139999   1.000000
    158        -18.138528   1.000000
    159        -18.137092   1.000000
    160        -18.136348   1.000000
    161        -18.087814   1.000000
    162        -18.083490   1.000000
    163        -18.071899   1.000000
    164        -18.070998   1.000000
    165        -18.069954   1.000000
    166        -18.069305   1.000000
    167        -18.068091   1.000000
    168        -18.067802   1.000000
    169        -18.067161   1.000000
    170        -18.065977   1.000000
    171        -18.038717   1.000000
    172        -18.035622   1.000000
    173        -18.034811   1.000000
    174        -18.033987   1.000000
    175        -18.026506   1.000000
    176        -18.024031   1.000000
    177        -18.022023   1.000000
    178        -18.021512   1.000000
    179        -17.994541   1.000000
    180        -17.993021   1.000000
    181        -17.992621   1.000000
    182        -17.991892   1.000000
    183        -17.989088   1.000000
    184        -17.987964   1.000000
    185        -17.983875   1.000000
    186        -17.982503   1.000000
    187        -17.982105   1.000000
    188        -17.979618   1.000000
    189        -17.977473   1.000000
    190        -17.976221   1.000000
    191        -17.937638   1.000000
    192        -17.933083   1.000000
    193        -17.931012   1.000000
    194        -17.930501   1.000000
    195        -17.929841   1.000000
    196        -17.928972   1.000000
    197        -17.890690   1.000000
    198        -17.888611   1.000000
    199        -17.874411   1.000000
    200        -17.873414   1.000000
    201        -17.871597   1.000000
    202        -17.871164   1.000000
    203        -17.847543   1.000000
    204        -17.841629   1.000000
    205        -17.839346   1.000000
    206        -17.838768   1.000000
    207        -17.837469   1.000000
    208        -17.836594   1.000000
    209        -17.835741   1.000000
    210        -17.835235   1.000000
    211        -17.833147   1.000000
    212        -17.832861   1.000000
    213        -17.831841   1.000000
    214        -17.829395   1.000000
    215        -17.809585   1.000000
    216        -17.808743   1.000000
    217        -17.806038   1.000000
    218        -17.805117   1.000000
    219        -17.804362   1.000000
    220        -17.802100   1.000000
    221        -17.800995   1.000000
    222        -17.798213   1.000000
    223        -17.797564   1.000000
    224        -17.796127   1.000000
    225        -17.794716   1.000000
    226        -17.793647   1.000000
    227        -17.793396   1.000000
    228        -17.792924   1.000000
    229        -17.791660   1.000000
    230        -17.791324   1.000000
    231        -17.789405   1.000000
    232        -17.788041   1.000000
    233        -17.758994   1.000000
    234        -17.753824   1.000000
    235        -17.750756   1.000000
    236        -17.749485   1.000000
    237        -17.747783   1.000000
    238        -17.746372   1.000000
    239        -17.744478   1.000000
    240        -17.744145   1.000000
    241        -17.741843   1.000000
    242        -17.740687   1.000000
    243        -17.735429   1.000000
    244        -17.734353   1.000000
    245        -17.724585   1.000000
    246        -17.722386   1.000000
    247        -17.719764   1.000000
    248        -17.718252   1.000000
    249        -17.718018   1.000000
    250        -17.717691   1.000000
    251        -17.716849   1.000000
    252        -17.716280   1.000000
    253        -17.715772   1.000000
    254        -17.715278   1.000000
    255        -17.715023   1.000000
    256        -17.714921   1.000000
    257        -17.714057   1.000000
    258        -17.713338   1.000000
    259        -17.712582   1.000000
    260        -17.712054   1.000000
    261        -17.711385   1.000000
    262        -17.710703   1.000000
    263        -17.709864   1.000000
    264        -17.708704   1.000000
    265        -17.707047   1.000000
    266        -17.706369   1.000000
    267        -17.704545   1.000000
    268        -17.702908   1.000000
    269        -17.682755   1.000000
    270        -17.680331   1.000000
    271        -17.679141   1.000000
    272        -17.678539   1.000000
    273        -17.677559   1.000000
    274        -17.674254   1.000000
    275        -17.672303   1.000000
    276        -17.671530   1.000000
    277        -17.671354   1.000000
    278        -17.670552   1.000000
    279        -17.670000   1.000000
    280        -17.669515   1.000000
    281        -17.669263   1.000000
    282        -17.668857   1.000000
    283        -17.666858   1.000000
    284        -17.664916   1.000000
    285        -17.660716   1.000000
    286        -17.656257   1.000000
    287        -17.652946   1.000000
    288        -17.651871   1.000000
    289        -17.651368   1.000000
    290        -17.650035   1.000000
    291        -17.631128   1.000000
    292        -17.628621   1.000000
    293        -17.626659   1.000000
    294        -17.626053   1.000000
    295        -17.612855   1.000000
    296        -17.612245   1.000000
    297        -17.611209   1.000000
    298        -17.609804   1.000000
    299        -17.609172   1.000000
    300        -17.608184   1.000000
    301        -17.606704   1.000000
    302        -17.605967   1.000000
    303        -17.605559   1.000000
    304        -17.605350   1.000000
    305        -17.604816   1.000000
    306        -17.604383   1.000000
    307        -17.603881   1.000000
    308        -17.603465   1.000000
    309        -17.603248   1.000000
    310        -17.602134   1.000000
    311        -17.601725   1.000000
    312        -17.600310   1.000000
    313        -17.599579   1.000000
    314        -17.599137   1.000000
    315        -17.598374   1.000000
    316        -17.598163   1.000000
    317        -17.597729   1.000000
    318        -17.597086   1.000000
    319        -17.592667   1.000000
    320        -17.589273   1.000000
    321        -17.588645   1.000000
    322        -17.587700   1.000000
    323        -17.586500   1.000000
    324        -17.585505   1.000000
    325        -17.578911   1.000000
    326        -17.577009   1.000000
    327        -17.576969   1.000000
    328        -17.576094   1.000000
    329        -17.575681   1.000000
    330        -17.574814   1.000000
    331        -17.574171   1.000000
    332        -17.573028   1.000000
    333        -17.572252   1.000000
    334        -17.571150   1.000000
    335        -17.569789   1.000000
    336        -17.569037   1.000000
    337        -17.567491   1.000000
    338        -17.567147   1.000000
    339        -17.565132   1.000000
    340        -17.564232   1.000000
    341        -17.554401   1.000000
    342        -17.552564   1.000000
    343        -17.551628   1.000000
    344        -17.551412   1.000000
    345        -17.550866   1.000000
    346        -17.550374   1.000000
    347        -17.549507   1.000000
    348        -17.549303   1.000000
    349        -17.548640   1.000000
    350        -17.548376   1.000000
    351        -17.548099   1.000000
    352        -17.547661   1.000000
    353        -17.545804   1.000000
    354        -17.545558   1.000000
    355        -17.544297   1.000000
    356        -17.543602   1.000000
    357        -17.531250   1.000000
    358        -17.527089   1.000000
    359        -17.526783   1.000000
    360        -17.525478   1.000000
    361        -17.525206   1.000000
    362        -17.524330   1.000000
    363        -17.523519   1.000000
    364        -17.522581   1.000000
    365        -17.520599   1.000000
    366        -17.518946   1.000000
    367        -17.509941   1.000000
    368        -17.508634   1.000000
    369        -17.506078   1.000000
    370        -17.504075   1.000000
    371        -17.502574   1.000000
    372        -17.500285   1.000000
    373        -17.491009   1.000000
    374        -17.488249   1.000000
    375        -17.481952   1.000000
    376        -17.478851   1.000000
    377        -17.476326   1.000000
    378        -17.471496   1.000000
    379        -17.470036   1.000000
    380        -17.469677   1.000000
    381        -17.450385   1.000000
    382        -17.447872   1.000000
    383        -17.433682   1.000000
    384        -17.431238   1.000000
    385          2.695565   1.000000
    386          3.721477   1.000000
    387          3.841102   1.000000
    388          4.495121   1.000000
    389          4.508542   1.000000
    390          4.532393   1.000000
    391          4.532849   1.000000
    392          4.533288   1.000000
    393          4.725018   1.000000
    394          5.178944   1.000000
    395          5.181488   1.000000
    396          5.182021   1.000000
    397          5.285942   1.000000
    398          5.712498   1.000000
    399          5.714182   1.000000
    400          5.717353   1.000000
    401          5.757057   1.000000
    402          5.896549   1.000000
    403          5.900105   1.000000
    404          5.901104   1.000000
    405          5.915328   1.000000
    406          5.942486   1.000000
    407          5.954013   1.000000
    408          5.993420   1.000000
    409          5.998679   1.000000
    410          5.999152   1.000000
    411          6.000340   1.000000
    412          6.002256   1.000000
    413          6.002749   1.000000
    414          6.003814   1.000000
    415          6.040981   1.000000
    416          6.048864   1.000000
    417          6.052805   1.000000
    418          6.053801   1.000000
    419          6.126077   1.000000
    420          6.184978   1.000000
    421          6.189600   1.000000
    422          6.190518   1.000000
    423          6.190874   1.000000
    424          6.192350   1.000000
    425          6.194688   1.000000
    426          6.196634   1.000000
    427          6.295480   1.000000
    428          6.303186   1.000000
    429          6.350874   1.000000
    430          6.566647   1.000000
    431          6.568665   1.000000
    432          6.571462   1.000000
    433          6.574388   1.000000
    434          6.581435   1.000000
    435          6.583070   1.000000
    436          6.585740   1.000000
    437          6.616357   1.000000
    438          6.667474   1.000000
    439          6.671489   1.000000
    440          6.672100   1.000000
    441          6.699510   1.000000
    442          6.705083   1.000000
    443          6.709782   1.000000
    444          6.761710   1.000000
    445          6.766662   1.000000
    446          6.767375   1.000000
    447          6.768799   1.000000
    448          6.770940   1.000000
    449          6.772965   1.000000
    450          6.775617   1.000000
    451          6.802772   1.000000
    452          6.824876   1.000000
    453          6.829924   1.000000
    454          6.833485   1.000000
    455          6.837238   1.000000
    456          6.860135   1.000000
    457          6.863363   1.000000
    458          6.864946   1.000000
    459          6.865898   1.000000
    460          6.868307   1.000000
    461          6.877048   1.000000
    462          6.881209   1.000000
    463          6.882908   1.000000
    464          6.884807   1.000000
    465          6.885397   1.000000
    466          6.885935   1.000000
    467          6.887961   1.000000
    468          6.890753   1.000000
    469          6.906380   1.000000
    470          6.911023   1.000000
    471          6.911593   1.000000
    472          6.914571   1.000000
    473          6.917148   1.000000
    474          6.918958   1.000000
    475          7.108535   1.000000
    476          7.133923   1.000000
    477          7.190053   1.000000
    478          7.198622   1.000000
    479          7.200354   1.000000
    480          7.203309   1.000000
    481          7.305537   1.000000
    482          7.325143   1.000000
    483          7.350337   1.000000
    484          7.422204   1.000000
    485          7.423540   1.000000
    486          7.428139   1.000000
    487          7.429512   1.000000
    488          7.431777   1.000000
    489          7.455714   1.000000
    490          7.468564   1.000000
    491          7.469748   1.000000
    492          7.473453   1.000000
    493          7.580818   1.000000
    494          7.605904   1.000000
    495          7.613300   1.000000
    496          7.616849   1.000000
    497          7.645744   1.000000
    498          7.662899   1.000000
    499          7.671900   1.000000
    500          7.675223   1.000000
    501          7.677662   1.000000
    502          7.680891   1.000000
    503          7.682020   1.000000
    504          7.684994   1.000000
    505          7.698398   1.000000
    506          7.703863   1.000000
    507          7.704793   1.000000
    508          7.707544   1.000000
    509          7.710880   1.000000
    510          7.714787   1.000000
    511          7.716102   1.000000
    512          7.721524   1.000000
    513          7.790843   1.000000
    514          7.799107   1.000000
    515          7.804617   1.000000
    516          7.806293   1.000000
    517          7.851407   1.000000
    518          7.880722   1.000000
    519          7.887370   1.000000
    520          7.900383   1.000000
    521          7.915577   1.000000
    522          7.939988   1.000000
    523          7.940425   1.000000
    524          7.943414   1.000000
    525          7.992629   1.000000
    526          8.009308   1.000000
    527          8.066170   1.000000
    528          8.076172   1.000000
    529          8.083580   1.000000
    530          8.084498   1.000000
    531          8.182869   1.000000
    532          8.244729   1.000003
    533          8.245500   1.000003
    534          8.251428   1.000004
    535          8.266585   1.000006
    536          8.287260   1.000012
    537          8.290352   1.000014
    538          8.291623   1.000014
    539          8.292237   1.000015
    540          8.294198   1.000015
    541          8.296530   1.000017
    542          8.300273   1.000019
    543          8.326787   1.000041
    544          8.378521   1.000177
    545          8.384258   1.000207
    546          8.388060   1.000228
    547          8.392302   1.000255
    548          8.395081   1.000274
    549          8.396258   1.000282
    550          8.398326   1.000298
    551          8.401367   1.000322
    552          8.403769   1.000342
    553          8.406211   1.000363
    554          8.408932   1.000389
    555          8.410194   1.000401
    556          8.414013   1.000441
    557          8.415569   1.000459
    558          8.420117   1.000513
    559          8.438477   1.000794
    560          8.458428   1.001249
    561          8.462048   1.001352
    562          8.481580   1.002052
    563          8.489328   1.002407
    564          8.512798   1.003812
    565          8.612459   1.017990
    566          8.632596   1.022503
    567          8.648801   1.026243
    568          8.653807   1.027377
    569          8.835320   0.919371
    570          8.875179   0.809882
    571          8.877132   0.803541
    572          8.882175   0.786782
    573          8.963698   0.463378
    574          9.046259   0.154942
    575          9.055407   0.128878
    576          9.062077   0.111177
    577          9.063566   0.107378
    578          9.066837   0.099225
    579          9.071678   0.087657
    580          9.072911   0.084805
    581          9.075609   0.078698
    582          9.078319   0.072750
    583          9.091099   0.047183
    584          9.118057   0.006185
    585          9.124962  -0.001680
    586          9.126545  -0.003342
    587          9.138270  -0.014101
    588          9.141519  -0.016619
    589          9.142076  -0.017031
    590          9.142494  -0.017337
    591          9.144222  -0.018570
    592          9.146661  -0.020219
    593          9.147542  -0.020790
    594          9.148470  -0.021377
    595          9.148805  -0.021586
    596          9.151088  -0.022957
    597          9.152937  -0.024005
    598          9.156393  -0.025818
    599          9.158139  -0.026665
    600          9.161227  -0.028050
    601          9.162309  -0.028502
    602          9.165496  -0.029739
    603          9.169486  -0.031092
    604          9.179421  -0.033592
    605          9.266409  -0.025061
    606          9.285308  -0.020711
    607          9.300997  -0.017267
    608          9.307872  -0.015845
    609          9.308501  -0.015718
    610          9.313000  -0.014826
    611          9.313929  -0.014645
    612          9.317672  -0.013930
    613          9.319569  -0.013575
    614          9.328616  -0.011961
    615          9.373748  -0.005840
    616          9.382317  -0.005020
    617          9.397177  -0.003819
    618          9.419519  -0.002467
    619          9.423534  -0.002273
    620          9.425307  -0.002192
    621          9.552231  -0.000101
    622          9.576837  -0.000050
    623          9.585684  -0.000039
    624          9.586790  -0.000037
    625          9.594896  -0.000029
    626          9.598223  -0.000027
    627          9.600024  -0.000025
    628          9.603037  -0.000023
    629          9.640816  -0.000007
    630          9.663587  -0.000003
    631          9.673333  -0.000002
    632          9.698460  -0.000001
    633          9.702390  -0.000001
    634          9.705970  -0.000001
    635          9.711245  -0.000001
    636          9.711676  -0.000001
    637          9.713715  -0.000001
    638          9.715684  -0.000001
    639          9.716434  -0.000001
    640          9.719345  -0.000000
    641          9.723821  -0.000000
    642          9.725116  -0.000000
    643          9.729621  -0.000000
    644          9.746735  -0.000000
    645          9.762081  -0.000000
    646          9.767081  -0.000000
    647          9.772820  -0.000000
    648          9.778740  -0.000000
    649          9.833413  -0.000000
    650          9.844738  -0.000000
    651          9.886569  -0.000000
    652          9.909094  -0.000000
    653          9.911558  -0.000000
    654          9.915124  -0.000000
    655          9.924339  -0.000000
    656          9.938996  -0.000000
    657          9.946019  -0.000000
    658          9.956702  -0.000000
    659          9.959611  -0.000000
    660          9.965038  -0.000000
    661          9.968091  -0.000000
    662          9.970696  -0.000000
    663          9.973131  -0.000000
    664          9.980321  -0.000000
    665          9.995494  -0.000000
    666         10.004818  -0.000000
    667         10.017299  -0.000000
    668         10.022839  -0.000000
    669         10.030255  -0.000000
    670         10.032639  -0.000000
    671         10.107187  -0.000000
    672         10.127540  -0.000000
    673         10.180366  -0.000000
    674         10.198362  -0.000000
    675         10.202180  -0.000000
    676         10.213124  -0.000000
    677         10.215259  -0.000000
    678         10.219652  -0.000000
    679         10.223309  -0.000000
    680         10.228317  -0.000000
    681         10.246114  -0.000000
    682         10.254416  -0.000000
    683         10.255991  -0.000000
    684         10.265697  -0.000000
    685         10.273940  -0.000000
    686         10.275162  -0.000000
    687         10.280617  -0.000000
    688         10.284026  -0.000000
    689         10.288457  -0.000000
    690         10.289991  -0.000000
    691         10.302434  -0.000000
 
  0.2500000E+00  0.2500000E+00  0.0000000E+00  0.4166667E-01
      1        -39.890753   1.000000
      2        -39.875808   1.000000
      3        -39.873674   1.000000
      4        -39.858293   1.000000
      5        -39.854328   1.000000
      6        -39.845308   1.000000
      7        -39.842297   1.000000
      8        -39.841606   1.000000
      9        -39.839717   1.000000
     10        -39.834606   1.000000
     11        -39.833369   1.000000
     12        -39.815701   1.000000
     13        -39.813104   1.000000
     14        -39.809476   1.000000
     15        -39.807549   1.000000
     16        -39.806310   1.000000
     17        -39.804496   1.000000
     18        -39.802565   1.000000
     19        -39.794901   1.000000
     20        -39.793902   1.000000
     21        -39.790386   1.000000
     22        -39.787582   1.000000
     23        -39.786051   1.000000
     24        -39.785342   1.000000
     25        -39.784385   1.000000
     26        -39.783728   1.000000
     27        -39.782889   1.000000
     28        -39.781647   1.000000
     29        -39.780527   1.000000
     30        -39.779769   1.000000
     31        -39.778263   1.000000
     32        -39.775862   1.000000
     33        -39.774588   1.000000
     34        -39.773839   1.000000
     35        -39.773057   1.000000
     36        -39.770583   1.000000
     37        -39.769745   1.000000
     38        -39.768853   1.000000
     39        -39.767203   1.000000
     40        -39.766961   1.000000
     41        -39.765689   1.000000
     42        -39.764201   1.000000
     43        -39.763275   1.000000
     44        -39.759759   1.000000
     45        -39.757950   1.000000
     46        -39.756035   1.000000
     47        -39.755114   1.000000
     48        -39.754652   1.000000
     49        -39.753829   1.000000
     50        -39.752629   1.000000
     51        -39.751710   1.000000
     52        -39.750684   1.000000
     53        -39.748822   1.000000
     54        -39.747372   1.000000
     55        -39.747050   1.000000
     56        -39.746675   1.000000
     57        -39.745571   1.000000
     58        -39.744359   1.000000
     59        -39.743951   1.000000
     60        -39.742502   1.000000
     61        -39.742201   1.000000
     62        -39.741104   1.000000
     63        -39.740864   1.000000
     64        -39.739887   1.000000
     65        -39.739264   1.000000
     66        -39.738340   1.000000
     67        -39.737566   1.000000
     68        -39.736775   1.000000
     69        -39.736109   1.000000
     70        -39.735434   1.000000
     71        -39.735064   1.000000
     72        -39.734667   1.000000
     73        -39.733910   1.000000
     74        -39.732798   1.000000
     75        -39.732561   1.000000
     76        -39.731401   1.000000
     77        -39.731209   1.000000
     78        -39.730358   1.000000
     79        -39.729837   1.000000
     80        -39.729519   1.000000
     81        -39.728324   1.000000
     82        -39.727899   1.000000
     83        -39.727357   1.000000
     84        -39.725967   1.000000
     85        -39.725265   1.000000
     86        -39.723215   1.000000
     87        -39.722327   1.000000
     88        -39.721524   1.000000
     89        -39.720036   1.000000
     90        -39.719145   1.000000
     91        -39.718217   1.000000
     92        -39.717440   1.000000
     93        -39.716799   1.000000
     94        -39.715022   1.000000
     95        -39.714041   1.000000
     96        -39.712578   1.000000
     97        -18.381329   1.000000
     98        -18.337725   1.000000
     99        -18.336107   1.000000
    100        -18.300373   1.000000
    101        -18.297649   1.000000
    102        -18.286757   1.000000
    103        -18.284263   1.000000
    104        -18.283496   1.000000
    105        -18.283188   1.000000
    106        -18.258083   1.000000
    107        -18.255186   1.000000
    108        -18.254147   1.000000
    109        -18.253221   1.000000
    110        -18.242612   1.000000
    111        -18.241787   1.000000
    112        -18.240503   1.000000
    113        -18.239673   1.000000
    114        -18.230367   1.000000
    115        -18.229454   1.000000
    116        -18.227432   1.000000
    117        -18.226399   1.000000
    118        -18.217561   1.000000
    119        -18.215816   1.000000
    120        -18.215587   1.000000
    121        -18.211895   1.000000
    122        -18.209623   1.000000
    123        -18.188318   1.000000
    124        -18.186183   1.000000
    125        -18.185079   1.000000
    126        -18.183522   1.000000
    127        -18.183190   1.000000
    128        -18.182171   1.000000
    129        -18.181645   1.000000
    130        -18.181506   1.000000
    131        -18.180528   1.000000
    132        -18.180044   1.000000
    133        -18.179341   1.000000
    134        -18.178497   1.000000
    135        -18.176848   1.000000
    136        -18.174971   1.000000
    137        -18.171990   1.000000
    138        -18.168948   1.000000
    139        -18.166591   1.000000
    140        -18.164859   1.000000
    141        -18.164518   1.000000
    142        -18.163483   1.000000
    143        -18.162430   1.000000
    144        -18.161485   1.000000
    145        -18.160550   1.000000
    146        -18.159404   1.000000
    147        -18.157765   1.000000
    148        -18.157022   1.000000
    149        -18.153620   1.000000
    150        -18.152149   1.000000
    151        -18.148304   1.000000
    152        -18.146324   1.000000
    153        -18.145468   1.000000
    154        -18.144770   1.000000
    155        -18.144377   1.000000
    156        -18.125541   1.000000
    157        -18.124688   1.000000
    158        -18.119058   1.000000
    159        -18.117736   1.000000
    160        -18.116748   1.000000
    161        -18.108901   1.000000
    162        -18.107027   1.000000
    163        -18.105173   1.000000
    164        -18.104405   1.000000
    165        -18.090196   1.000000
    166        -18.089156   1.000000
    167        -18.062558   1.000000
    168        -18.058032   1.000000
    169        -18.055548   1.000000
    170        -18.053705   1.000000
    171        -18.049961   1.000000
    172        -18.043219   1.000000
    173        -18.042381   1.000000
    174        -18.024567   1.000000
    175        -18.022720   1.000000
    176        -18.020165   1.000000
    177        -18.019325   1.000000
    178        -18.018257   1.000000
    179        -18.017451   1.000000
    180        -17.994259   1.000000
    181        -17.993228   1.000000
    182        -17.983622   1.000000
    183        -17.973925   1.000000
    184        -17.971881   1.000000
    185        -17.970762   1.000000
    186        -17.969284   1.000000
    187        -17.965297   1.000000
    188        -17.963927   1.000000
    189        -17.958471   1.000000
    190        -17.947049   1.000000
    191        -17.945578   1.000000
    192        -17.942827   1.000000
    193        -17.940650   1.000000
    194        -17.938939   1.000000
    195        -17.906916   1.000000
    196        -17.905116   1.000000
    197        -17.904610   1.000000
    198        -17.903137   1.000000
    199        -17.902724   1.000000
    200        -17.901380   1.000000
    201        -17.875657   1.000000
    202        -17.870995   1.000000
    203        -17.869923   1.000000
    204        -17.868219   1.000000
    205        -17.859323   1.000000
    206        -17.850695   1.000000
    207        -17.849811   1.000000
    208        -17.842672   1.000000
    209        -17.841707   1.000000
    210        -17.821971   1.000000
    211        -17.820008   1.000000
    212        -17.816891   1.000000
    213        -17.815937   1.000000
    214        -17.814333   1.000000
    215        -17.807823   1.000000
    216        -17.804188   1.000000
    217        -17.803213   1.000000
    218        -17.801985   1.000000
    219        -17.801198   1.000000
    220        -17.799666   1.000000
    221        -17.798556   1.000000
    222        -17.796835   1.000000
    223        -17.794617   1.000000
    224        -17.792357   1.000000
    225        -17.790845   1.000000
    226        -17.789565   1.000000
    227        -17.787818   1.000000
    228        -17.782948   1.000000
    229        -17.777102   1.000000
    230        -17.775617   1.000000
    231        -17.775018   1.000000
    232        -17.772499   1.000000
    233        -17.771748   1.000000
    234        -17.770133   1.000000
    235        -17.769331   1.000000
    236        -17.768552   1.000000
    237        -17.762457   1.000000
    238        -17.761624   1.000000
    239        -17.760534   1.000000
    240        -17.758524   1.000000
    241        -17.756248   1.000000
    242        -17.755273   1.000000
    243        -17.740537   1.000000
    244        -17.739524   1.000000
    245        -17.733088   1.000000
    246        -17.729349   1.000000
    247        -17.728865   1.000000
    248        -17.727116   1.000000
    249        -17.726719   1.000000
    250        -17.725546   1.000000
    251        -17.724566   1.000000
    252        -17.723318   1.000000
    253        -17.719111   1.000000
    254        -17.717932   1.000000
    255        -17.714430   1.000000
    256        -17.711837   1.000000
    257        -17.706400   1.000000
    258        -17.704712   1.000000
    259        -17.702920   1.000000
    260        -17.700817   1.000000
    261        -17.698564   1.000000
    262        -17.698063   1.000000
    263        -17.695348   1.000000
    264        -17.694198   1.000000
    265        -17.687574   1.000000
    266        -17.686406   1.000000
    267        -17.684076   1.000000
    268        -17.682392   1.000000
    269        -17.682189   1.000000
    270        -17.681027   1.000000
    271        -17.676769   1.000000
    272        -17.675414   1.000000
    273        -17.674539   1.000000
    274        -17.673419   1.000000
    275        -17.672385   1.000000
    276        -17.671411   1.000000
    277        -17.669789   1.000000
    278        -17.668612   1.000000
    279        -17.664461   1.000000
    280        -17.663104   1.000000
    281        -17.658670   1.000000
    282        -17.655732   1.000000
    283        -17.655266   1.000000
    284        -17.652693   1.000000
    285        -17.652210   1.000000
    286        -17.650201   1.000000
    287        -17.645166   1.000000
    288        -17.644064   1.000000
    289        -17.642053   1.000000
    290        -17.640965   1.000000
    291        -17.640460   1.000000
    292        -17.639465   1.000000
    293        -17.638404   1.000000
    294        -17.637821   1.000000
    295        -17.637165   1.000000
    296        -17.633541   1.000000
    297        -17.630369   1.000000
    298        -17.629526   1.000000
    299        -17.628760   1.000000
    300        -17.628327   1.000000
    301        -17.627010   1.000000
    302        -17.621964   1.000000
    303        -17.621329   1.000000
    304        -17.611516   1.000000
    305        -17.609970   1.000000
    306        -17.609635   1.000000
    307        -17.606299   1.000000
    308        -17.604916   1.000000
    309        -17.603812   1.000000
    310        -17.601754   1.000000
    311        -17.600824   1.000000
    312        -17.594630   1.000000
    313        -17.589276   1.000000
    314        -17.588773   1.000000
    315        -17.587331   1.000000
    316        -17.586919   1.000000
    317        -17.585323   1.000000
    318        -17.584882   1.000000
    319        -17.584250   1.000000
    320        -17.583804   1.000000
    321        -17.582676   1.000000
    322        -17.582098   1.000000
    323        -17.580713   1.000000
    324        -17.580394   1.000000
    325        -17.579726   1.000000
    326        -17.579205   1.000000
    327        -17.577664   1.000000
    328        -17.574120   1.000000
    329        -17.572984   1.000000
    330        -17.572513   1.000000
    331        -17.571566   1.000000
    332        -17.570806   1.000000
    333        -17.570199   1.000000
    334        -17.568632   1.000000
    335        -17.567630   1.000000
    336        -17.566719   1.000000
    337        -17.565629   1.000000
    338        -17.564993   1.000000
    339        -17.564064   1.000000
    340        -17.563639   1.000000
    341        -17.563145   1.000000
    342        -17.562363   1.000000
    343        -17.561854   1.000000
    344        -17.561626   1.000000
    345        -17.560415   1.000000
    346        -17.557075   1.000000
    347        -17.555694   1.000000
    348        -17.554718   1.000000
    349        -17.554178   1.000000
    350        -17.548964   1.000000
    351        -17.548188   1.000000
    352        -17.546132   1.000000
    353        -17.545851   1.000000
    354        -17.538561   1.000000
    355        -17.536981   1.000000
    356        -17.536294   1.000000
    357        -17.535314   1.000000
    358        -17.533839   1.000000
    359        -17.532532   1.000000
    360        -17.526623   1.000000
    361        -17.523804   1.000000
    362        -17.519992   1.000000
    363        -17.519075   1.000000
    364        -17.517167   1.000000
    365        -17.516681   1.000000
    366        -17.515600   1.000000
    367        -17.515396   1.000000
    368        -17.513526   1.000000
    369        -17.512679   1.000000
    370        -17.493649   1.000000
    371        -17.492452   1.000000
    372        -17.491623   1.000000
    373        -17.489599   1.000000
    374        -17.488753   1.000000
    375        -17.487961   1.000000
    376        -17.487308   1.000000
    377        -17.471481   1.000000
    378        -17.468029   1.000000
    379        -17.465656   1.000000
    380        -17.462966   1.000000
    381        -17.449662   1.000000
    382        -17.449016   1.000000
    383        -17.444058   1.000000
    384        -17.431835   1.000000
    385          2.694331   1.000000
    386          3.678495   1.000000
    387          4.023812   1.000000
    388          4.115765   1.000000
    389          4.442048   1.000000
    390          4.508753   1.000000
    391          4.792221   1.000000
    392          4.792460   1.000000
    393          4.793072   1.000000
    394          4.909934   1.000000
    395          5.087702   1.000000
    396          5.156670   1.000000
    397          5.622498   1.000000
    398          5.624747   1.000000
    399          5.624958   1.000000
    400          5.660862   1.000000
    401          5.713195   1.000000
    402          5.788646   1.000000
    403          5.809417   1.000000
    404          5.917021   1.000000
    405          5.918729   1.000000
    406          5.919853   1.000000
    407          5.936395   1.000000
    408          5.958886   1.000000
    409          5.968190   1.000000
    410          5.989216   1.000000
    411          5.991104   1.000000
    412          5.991809   1.000000
    413          6.023362   1.000000
    414          6.050393   1.000000
    415          6.094840   1.000000
    416          6.175460   1.000000
    417          6.177045   1.000000
    418          6.178166   1.000000
    419          6.179659   1.000000
    420          6.181613   1.000000
    421          6.199725   1.000000
    422          6.213146   1.000000
    423          6.215437   1.000000
    424          6.237209   1.000000
    425          6.248797   1.000000
    426          6.284533   1.000000
    427          6.308135   1.000000
    428          6.312244   1.000000
    429          6.313324   1.000000
    430          6.393749   1.000000
    431          6.487205   1.000000
    432          6.488675   1.000000
    433          6.491037   1.000000
    434          6.520735   1.000000
    435          6.552376   1.000000
    436          6.553207   1.000000
    437          6.582961   1.000000
    438          6.586355   1.000000
    439          6.591379   1.000000
    440          6.628145   1.000000
    441          6.691075   1.000000
    442          6.694450   1.000000
    443          6.699219   1.000000
    444          6.702598   1.000000
    445          6.706783   1.000000
    446          6.721233   1.000000
    447          6.726411   1.000000
    448          6.739811   1.000000
    449          6.749415   1.000000
    450          6.768376   1.000000
    451          6.807895   1.000000
    452          6.809244   1.000000
    453          6.812291   1.000000
    454          6.829480   1.000000
    455          6.856969   1.000000
    456          6.870946   1.000000
    457          6.879386   1.000000
    458          6.882555   1.000000
    459          6.884383   1.000000
    460          6.900181   1.000000
    461          6.917047   1.000000
    462          6.920869   1.000000
    463          6.921663   1.000000
    464          6.944257   1.000000
    465          6.958553   1.000000
    466          6.977446   1.000000
    467          6.992892   1.000000
    468          6.994829   1.000000
    469          6.996933   1.000000
    470          6.999978   1.000000
    471          7.002130   1.000000
    472          7.053047   1.000000
    473          7.080968   1.000000
    474          7.083594   1.000000
    475          7.085422   1.000000
    476          7.087612   1.000000
    477          7.093185   1.000000
    478          7.120098   1.000000
    479          7.129234   1.000000
    480          7.195942   1.000000
    481          7.205234   1.000000
    482          7.215179   1.000000
    483          7.218390   1.000000
    484          7.288133   1.000000
    485          7.309371   1.000000
    486          7.392379   1.000000
    487          7.406393   1.000000
    488          7.464437   1.000000
    489          7.500653   1.000000
    490          7.519963   1.000000
    491          7.573145   1.000000
    492          7.611595   1.000000
    493          7.617455   1.000000
    494          7.622774   1.000000
    495          7.625682   1.000000
    496          7.626853   1.000000
    497          7.631817   1.000000
    498          7.635707   1.000000
    499          7.636917   1.000000
    500          7.640832   1.000000
    501          7.643188   1.000000
    502          7.648802   1.000000
    503          7.660967   1.000000
    504          7.694854   1.000000
    505          7.718907   1.000000
    506          7.730082   1.000000
    507          7.739148   1.000000
    508          7.742945   1.000000
    509          7.744057   1.000000
    510          7.747196   1.000000
    511          7.750624   1.000000
    512          7.752718   1.000000
    513          7.756786   1.000000
    514          7.761006   1.000000
    515          7.776203   1.000000
    516          7.779105   1.000000
    517          7.793598   1.000000
    518          7.812499   1.000000
    519          7.823652   1.000000
    520          7.888197   1.000000
    521          7.910798   1.000000
    522          7.937278   1.000000
    523          7.942422   1.000000
    524          8.041595   1.000000
    525          8.087934   1.000000
    526          8.099516   1.000000
    527          8.116446   1.000000
    528          8.138921   1.000000
    529          8.179760   1.000000
    530          8.184069   1.000000
    531          8.192328   1.000000
    532          8.200460   1.000001
    533          8.207024   1.000001
    534          8.209825   1.000001
    535          8.214588   1.000001
    536          8.216145   1.000001
    537          8.229702   1.000002
    538          8.231726   1.000002
    539          8.233566   1.000002
    540          8.234753   1.000002
    541          8.239120   1.000003
    542          8.303081   1.000020
    543          8.336381   1.000055
    544          8.339646   1.000060
    545          8.341125   1.000063
    546          8.355219   1.000094
    547          8.368665   1.000136
    548          8.371007   1.000145
    549          8.373310   1.000154
    550          8.374731   1.000160
    551          8.376928   1.000170
    552          8.379189   1.000181
    553          8.381486   1.000192
    554          8.391357   1.000249
    555          8.394199   1.000268
    556          8.397430   1.000291
    557          8.398718   1.000301
    558          8.400659   1.000316
    559          8.407210   1.000373
    560          8.484780   1.002193
    561          8.501772   1.003084
    562          8.504861   1.003275
    563          8.556695   1.008211
    564          8.590058   1.013494
    565          8.730931   1.033537
    566          8.752412   1.026435
    567          8.755262   1.025008
    568          8.759821   1.022462
    569          8.767993   1.017031
    570          8.774634   1.011742
    571          8.843995   0.898893
    572          8.900599   0.721146
    573          8.902344   0.714600
    574          8.906285   0.699636
    575          8.932920   0.592942
    576          8.937946   0.572013
    577          8.943745   0.547684
    578          8.952958   0.508782
    579          9.015953   0.255008
    580          9.028470   0.211269
    581          9.048428   0.148577
    582          9.064962   0.103866
    583          9.068095   0.096162
    584          9.073728   0.082937
    585          9.080873   0.067314
    586          9.084514   0.059848
    587          9.086761   0.055405
    588          9.091266   0.046875
    589          9.126999  -0.003809
    590          9.150208  -0.022439
    591          9.181133  -0.033907
    592          9.185258  -0.034536
    593          9.196143  -0.035400
    594          9.205534  -0.035344
    595          9.213454  -0.034821
    596          9.214848  -0.034690
    597          9.218709  -0.034272
    598          9.222783  -0.033751
    599          9.225305  -0.033391
    600          9.229602  -0.032718
    601          9.230456  -0.032576
    602          9.243282  -0.030172
    603          9.279856  -0.021955
    604          9.310270  -0.015364
    605          9.315093  -0.014420
    606          9.332677  -0.011278
    607          9.338724  -0.010311
    608          9.343609  -0.009573
    609          9.357663  -0.007660
    610          9.364751  -0.006812
    611          9.368341  -0.006410
    612          9.376714  -0.005545
    613          9.380974  -0.005142
    614          9.432454  -0.001889
    615          9.447663  -0.001363
    616          9.460731  -0.001019
    617          9.482136  -0.000619
    618          9.486647  -0.000555
    619          9.522638  -0.000224
    620          9.536089  -0.000157
    621          9.554850  -0.000094
    622          9.558780  -0.000084
    623          9.561379  -0.000078
    624          9.565947  -0.000069
    625          9.578600  -0.000048
    626          9.585438  -0.000039
    627          9.593160  -0.000031
    628          9.597081  -0.000027
    629          9.599956  -0.000025
    630          9.606395  -0.000021
    631          9.611814  -0.000017
    632          9.613845  -0.000016
    633          9.620590  -0.000013
    634          9.621928  -0.000013
    635          9.628362  -0.000010
    636          9.632449  -0.000009
    637          9.637835  -0.000008
    638          9.640778  -0.000007
    639          9.645592  -0.000006
    640          9.648983  -0.000005
    641          9.650852  -0.000005
    642          9.658894  -0.000004
    643          9.660668  -0.000004
    644          9.671463  -0.000002
    645          9.804210  -0.000000
    646          9.815638  -0.000000
    647          9.840978  -0.000000
    648          9.843911  -0.000000
    649          9.847654  -0.000000
    650          9.853314  -0.000000
    651          9.878934  -0.000000
    652          9.899895  -0.000000
    653          9.902294  -0.000000
    654          9.905361  -0.000000
    655          9.911611  -0.000000
    656          9.918487  -0.000000
    657          9.923908  -0.000000
    658          9.926870  -0.000000
    659          9.939296  -0.000000
    660          9.941234  -0.000000
    661          9.947904  -0.000000
    662          9.952247  -0.000000
    663         10.005955  -0.000000
    664         10.017008  -0.000000
    665         10.024193  -0.000000
    666         10.031341  -0.000000
    667         10.034687  -0.000000
    668         10.038598  -0.000000
    669         10.098732  -0.000000
    670         10.105166  -0.000000
    671         10.115659  -0.000000
    672         10.127529  -0.000000
    673         10.128473  -0.000000
    674         10.130780  -0.000000
    675         10.134142  -0.000000
    676         10.156801  -0.000000
    677         10.167095  -0.000000
    678         10.174306  -0.000000
    679         10.180021  -0.000000
    680         10.197992  -0.000000
    681         10.204756  -0.000000
    682         10.210760  -0.000000
    683         10.213058  -0.000000
    684         10.228896  -0.000000
    685         10.229545  -0.000000
    686         10.232350  -0.000000
    687         10.279432  -0.000000
    688         10.317056  -0.000000
    689         10.321382  -0.000000
    690         10.326884  -0.000000
    691         10.333516  -0.000000
 
 -0.2500000E+00  0.5000000E+00  0.0000000E+00  0.4166667E-01
      1        -39.890743   1.000000
      2        -39.875756   1.000000
      3        -39.873752   1.000000
      4        -39.857993   1.000000
      5        -39.854152   1.000000
      6        -39.846940   1.000000
      7        -39.842252   1.000000
      8        -39.840617   1.000000
      9        -39.839683   1.000000
     10        -39.835988   1.000000
     11        -39.831560   1.000000
     12        -39.816928   1.000000
     13        -39.812913   1.000000
     14        -39.809172   1.000000
     15        -39.806960   1.000000
     16        -39.805273   1.000000
     17        -39.803984   1.000000
     18        -39.802612   1.000000
     19        -39.797675   1.000000
     20        -39.791775   1.000000
     21        -39.790220   1.000000
     22        -39.788803   1.000000
     23        -39.786545   1.000000
     24        -39.785361   1.000000
     25        -39.784288   1.000000
     26        -39.783185   1.000000
     27        -39.782465   1.000000
     28        -39.781320   1.000000
     29        -39.781039   1.000000
     30        -39.780886   1.000000
     31        -39.779062   1.000000
     32        -39.776937   1.000000
     33        -39.773942   1.000000
     34        -39.773406   1.000000
     35        -39.771631   1.000000
     36        -39.769929   1.000000
     37        -39.769329   1.000000
     38        -39.768947   1.000000
     39        -39.767760   1.000000
     40        -39.766775   1.000000
     41        -39.765739   1.000000
     42        -39.764511   1.000000
     43        -39.763688   1.000000
     44        -39.760581   1.000000
     45        -39.757162   1.000000
     46        -39.756240   1.000000
     47        -39.755242   1.000000
     48        -39.753731   1.000000
     49        -39.753336   1.000000
     50        -39.752315   1.000000
     51        -39.751785   1.000000
     52        -39.750487   1.000000
     53        -39.749992   1.000000
     54        -39.747770   1.000000
     55        -39.747354   1.000000
     56        -39.746369   1.000000
     57        -39.745188   1.000000
     58        -39.744644   1.000000
     59        -39.743111   1.000000
     60        -39.742549   1.000000
     61        -39.741830   1.000000
     62        -39.741556   1.000000
     63        -39.741137   1.000000
     64        -39.739827   1.000000
     65        -39.739199   1.000000
     66        -39.738049   1.000000
     67        -39.736836   1.000000
     68        -39.736536   1.000000
     69        -39.736293   1.000000
     70        -39.736143   1.000000
     71        -39.735418   1.000000
     72        -39.734372   1.000000
     73        -39.734092   1.000000
     74        -39.733143   1.000000
     75        -39.732669   1.000000
     76        -39.731614   1.000000
     77        -39.731145   1.000000
     78        -39.730855   1.000000
     79        -39.730379   1.000000
     80        -39.729312   1.000000
     81        -39.728308   1.000000
     82        -39.727532   1.000000
     83        -39.726788   1.000000
     84        -39.725822   1.000000
     85        -39.725157   1.000000
     86        -39.722681   1.000000
     87        -39.722283   1.000000
     88        -39.721376   1.000000
     89        -39.720407   1.000000
     90        -39.719543   1.000000
     91        -39.718365   1.000000
     92        -39.717569   1.000000
     93        -39.717293   1.000000
     94        -39.714488   1.000000
     95        -39.714123   1.000000
     96        -39.712385   1.000000
     97        -18.381343   1.000000
     98        -18.337060   1.000000
     99        -18.336747   1.000000
    100        -18.299872   1.000000
    101        -18.297632   1.000000
    102        -18.286924   1.000000
    103        -18.284358   1.000000
    104        -18.283612   1.000000
    105        -18.282989   1.000000
    106        -18.257995   1.000000
    107        -18.255152   1.000000
    108        -18.254042   1.000000
    109        -18.253655   1.000000
    110        -18.242512   1.000000
    111        -18.241739   1.000000
    112        -18.240942   1.000000
    113        -18.239283   1.000000
    114        -18.230382   1.000000
    115        -18.229294   1.000000
    116        -18.227361   1.000000
    117        -18.226634   1.000000
    118        -18.217948   1.000000
    119        -18.215681   1.000000
    120        -18.215128   1.000000
    121        -18.211880   1.000000
    122        -18.209180   1.000000
    123        -18.187544   1.000000
    124        -18.187465   1.000000
    125        -18.185366   1.000000
    126        -18.183422   1.000000
    127        -18.182512   1.000000
    128        -18.182241   1.000000
    129        -18.181839   1.000000
    130        -18.181520   1.000000
    131        -18.180831   1.000000
    132        -18.180224   1.000000
    133        -18.179461   1.000000
    134        -18.178451   1.000000
    135        -18.176306   1.000000
    136        -18.175210   1.000000
    137        -18.172525   1.000000
    138        -18.168301   1.000000
    139        -18.166542   1.000000
    140        -18.164882   1.000000
    141        -18.164448   1.000000
    142        -18.163255   1.000000
    143        -18.162969   1.000000
    144        -18.161198   1.000000
    145        -18.160988   1.000000
    146        -18.159244   1.000000
    147        -18.157646   1.000000
    148        -18.157176   1.000000
    149        -18.152962   1.000000
    150        -18.152079   1.000000
    151        -18.148618   1.000000
    152        -18.148473   1.000000
    153        -18.145472   1.000000
    154        -18.144439   1.000000
    155        -18.143455   1.000000
    156        -18.125643   1.000000
    157        -18.123845   1.000000
    158        -18.118692   1.000000
    159        -18.118149   1.000000
    160        -18.117447   1.000000
    161        -18.107886   1.000000
    162        -18.107756   1.000000
    163        -18.105263   1.000000
    164        -18.104430   1.000000
    165        -18.090808   1.000000
    166        -18.088798   1.000000
    167        -18.060762   1.000000
    168        -18.059114   1.000000
    169        -18.055348   1.000000
    170        -18.053822   1.000000
    171        -18.049971   1.000000
    172        -18.043511   1.000000
    173        -18.042251   1.000000
    174        -18.024166   1.000000
    175        -18.022789   1.000000
    176        -18.020668   1.000000
    177        -18.019457   1.000000
    178        -18.017900   1.000000
    179        -18.017509   1.000000
    180        -17.994613   1.000000
    181        -17.992840   1.000000
    182        -17.984069   1.000000
    183        -17.974283   1.000000
    184        -17.972728   1.000000
    185        -17.970479   1.000000
    186        -17.968920   1.000000
    187        -17.965630   1.000000
    188        -17.962617   1.000000
    189        -17.958475   1.000000
    190        -17.947879   1.000000
    191        -17.945389   1.000000
    192        -17.943168   1.000000
    193        -17.941245   1.000000
    194        -17.938682   1.000000
    195        -17.907003   1.000000
    196        -17.906278   1.000000
    197        -17.904821   1.000000
    198        -17.903335   1.000000
    199        -17.901895   1.000000
    200        -17.900823   1.000000
    201        -17.875686   1.000000
    202        -17.871038   1.000000
    203        -17.869873   1.000000
    204        -17.868710   1.000000
    205        -17.859843   1.000000
    206        -17.850771   1.000000
    207        -17.849454   1.000000
    208        -17.841419   1.000000
    209        -17.841385   1.000000
    210        -17.820846   1.000000
    211        -17.819489   1.000000
    212        -17.816722   1.000000
    213        -17.815691   1.000000
    214        -17.814252   1.000000
    215        -17.807509   1.000000
    216        -17.805174   1.000000
    217        -17.803600   1.000000
    218        -17.802322   1.000000
    219        -17.801290   1.000000
    220        -17.799241   1.000000
    221        -17.798646   1.000000
    222        -17.797574   1.000000
    223        -17.794314   1.000000
    224        -17.792718   1.000000
    225        -17.791083   1.000000
    226        -17.789530   1.000000
    227        -17.788217   1.000000
    228        -17.781944   1.000000
    229        -17.777653   1.000000
    230        -17.776403   1.000000
    231        -17.775128   1.000000
    232        -17.773419   1.000000
    233        -17.771117   1.000000
    234        -17.769742   1.000000
    235        -17.769031   1.000000
    236        -17.768615   1.000000
    237        -17.763073   1.000000
    238        -17.760976   1.000000
    239        -17.759221   1.000000
    240        -17.758659   1.000000
    241        -17.756607   1.000000
    242        -17.755132   1.000000
    243        -17.741351   1.000000
    244        -17.739076   1.000000
    245        -17.733008   1.000000
    246        -17.729798   1.000000
    247        -17.729187   1.000000
    248        -17.727657   1.000000
    249        -17.726952   1.000000
    250        -17.724902   1.000000
    251        -17.723798   1.000000
    252        -17.723085   1.000000
    253        -17.719152   1.000000
    254        -17.717531   1.000000
    255        -17.714975   1.000000
    256        -17.710225   1.000000
    257        -17.706736   1.000000
    258        -17.704450   1.000000
    259        -17.702579   1.000000
    260        -17.700424   1.000000
    261        -17.698126   1.000000
    262        -17.697344   1.000000
    263        -17.695880   1.000000
    264        -17.695447   1.000000
    265        -17.687931   1.000000
    266        -17.686359   1.000000
    267        -17.684069   1.000000
    268        -17.683284   1.000000
    269        -17.682426   1.000000
    270        -17.681508   1.000000
    271        -17.676647   1.000000
    272        -17.674369   1.000000
    273        -17.673891   1.000000
    274        -17.672565   1.000000
    275        -17.672280   1.000000
    276        -17.671885   1.000000
    277        -17.670249   1.000000
    278        -17.669724   1.000000
    279        -17.664321   1.000000
    280        -17.662788   1.000000
    281        -17.659378   1.000000
    282        -17.655501   1.000000
    283        -17.655024   1.000000
    284        -17.653233   1.000000
    285        -17.651836   1.000000
    286        -17.650013   1.000000
    287        -17.645470   1.000000
    288        -17.644029   1.000000
    289        -17.642909   1.000000
    290        -17.641610   1.000000
    291        -17.640022   1.000000
    292        -17.639051   1.000000
    293        -17.638435   1.000000
    294        -17.638137   1.000000
    295        -17.635969   1.000000
    296        -17.633115   1.000000
    297        -17.631098   1.000000
    298        -17.630269   1.000000
    299        -17.629109   1.000000
    300        -17.627950   1.000000
    301        -17.626713   1.000000
    302        -17.623393   1.000000
    303        -17.620936   1.000000
    304        -17.611074   1.000000
    305        -17.610425   1.000000
    306        -17.609203   1.000000
    307        -17.606534   1.000000
    308        -17.604252   1.000000
    309        -17.602925   1.000000
    310        -17.602056   1.000000
    311        -17.599788   1.000000
    312        -17.594890   1.000000
    313        -17.589708   1.000000
    314        -17.587924   1.000000
    315        -17.587108   1.000000
    316        -17.586076   1.000000
    317        -17.585556   1.000000
    318        -17.584774   1.000000
    319        -17.584265   1.000000
    320        -17.583871   1.000000
    321        -17.582760   1.000000
    322        -17.582257   1.000000
    323        -17.580939   1.000000
    324        -17.580354   1.000000
    325        -17.580073   1.000000
    326        -17.578812   1.000000
    327        -17.577745   1.000000
    328        -17.574244   1.000000
    329        -17.573448   1.000000
    330        -17.572552   1.000000
    331        -17.571260   1.000000
    332        -17.570414   1.000000
    333        -17.569232   1.000000
    334        -17.568208   1.000000
    335        -17.567135   1.000000
    336        -17.566608   1.000000
    337        -17.566111   1.000000
    338        -17.564685   1.000000
    339        -17.563953   1.000000
    340        -17.563613   1.000000
    341        -17.563217   1.000000
    342        -17.562989   1.000000
    343        -17.562388   1.000000
    344        -17.561095   1.000000
    345        -17.560596   1.000000
    346        -17.557128   1.000000
    347        -17.555663   1.000000
    348        -17.555344   1.000000
    349        -17.554306   1.000000
    350        -17.548599   1.000000
    351        -17.547681   1.000000
    352        -17.547305   1.000000
    353        -17.545063   1.000000
    354        -17.538905   1.000000
    355        -17.538086   1.000000
    356        -17.535963   1.000000
    357        -17.535138   1.000000
    358        -17.533958   1.000000
    359        -17.532549   1.000000
    360        -17.527169   1.000000
    361        -17.523852   1.000000
    362        -17.520469   1.000000
    363        -17.518365   1.000000
    364        -17.517387   1.000000
    365        -17.516990   1.000000
    366        -17.516168   1.000000
    367        -17.514925   1.000000
    368        -17.513504   1.000000
    369        -17.512551   1.000000
    370        -17.494570   1.000000
    371        -17.492884   1.000000
    372        -17.491593   1.000000
    373        -17.489126   1.000000
    374        -17.488975   1.000000
    375        -17.488467   1.000000
    376        -17.487148   1.000000
    377        -17.471285   1.000000
    378        -17.467710   1.000000
    379        -17.465345   1.000000
    380        -17.463281   1.000000
    381        -17.450303   1.000000
    382        -17.448396   1.000000
    383        -17.444005   1.000000
    384        -17.431406   1.000000
    385          2.695384   1.000000
    386          3.677355   1.000000
    387          4.023395   1.000000
    388          4.116009   1.000000
    389          4.442055   1.000000
    390          4.507186   1.000000
    391          4.791689   1.000000
    392          4.792343   1.000000
    393          4.793059   1.000000
    394          4.907239   1.000000
    395          5.087362   1.000000
    396          5.163591   1.000000
    397          5.620945   1.000000
    398          5.624820   1.000000
    399          5.624912   1.000000
    400          5.666674   1.000000
    401          5.715759   1.000000
    402          5.787746   1.000000
    403          5.807146   1.000000
    404          5.917173   1.000000
    405          5.918792   1.000000
    406          5.919969   1.000000
    407          5.936667   1.000000
    408          5.958835   1.000000
    409          5.969856   1.000000
    410          5.987901   1.000000
    411          5.990568   1.000000
    412          5.992199   1.000000
    413          6.018944   1.000000
    414          6.050436   1.000000
    415          6.084199   1.000000
    416          6.173732   1.000000
    417          6.177666   1.000000
    418          6.178448   1.000000
    419          6.179342   1.000000
    420          6.182422   1.000000
    421          6.204764   1.000000
    422          6.211522   1.000000
    423          6.214635   1.000000
    424          6.230825   1.000000
    425          6.251285   1.000000
    426          6.288471   1.000000
    427          6.308423   1.000000
    428          6.312427   1.000000
    429          6.312901   1.000000
    430          6.402275   1.000000
    431          6.487895   1.000000
    432          6.488250   1.000000
    433          6.491803   1.000000
    434          6.519391   1.000000
    435          6.552355   1.000000
    436          6.553290   1.000000
    437          6.584195   1.000000
    438          6.586680   1.000000
    439          6.591456   1.000000
    440          6.619768   1.000000
    441          6.690440   1.000000
    442          6.692724   1.000000
    443          6.699803   1.000000
    444          6.702882   1.000000
    445          6.706784   1.000000
    446          6.716139   1.000000
    447          6.726059   1.000000
    448          6.739851   1.000000
    449          6.748578   1.000000
    450          6.773926   1.000000
    451          6.806698   1.000000
    452          6.808332   1.000000
    453          6.812063   1.000000
    454          6.835677   1.000000
    455          6.854494   1.000000
    456          6.869766   1.000000
    457          6.878089   1.000000
    458          6.883126   1.000000
    459          6.885702   1.000000
    460          6.897465   1.000000
    461          6.915073   1.000000
    462          6.921458   1.000000
    463          6.922134   1.000000
    464          6.944118   1.000000
    465          6.957764   1.000000
    466          6.978551   1.000000
    467          6.989380   1.000000
    468          6.996051   1.000000
    469          6.996915   1.000000
    470          6.998519   1.000000
    471          7.001500   1.000000
    472          7.060410   1.000000
    473          7.081571   1.000000
    474          7.084360   1.000000
    475          7.085596   1.000000
    476          7.087859   1.000000
    477          7.095796   1.000000
    478          7.125580   1.000000
    479          7.130659   1.000000
    480          7.187242   1.000000
    481          7.205478   1.000000
    482          7.213222   1.000000
    483          7.218660   1.000000
    484          7.282055   1.000000
    485          7.308244   1.000000
    486          7.392438   1.000000
    487          7.408029   1.000000
    488          7.474306   1.000000
    489          7.499307   1.000000
    490          7.510698   1.000000
    491          7.576142   1.000000
    492          7.613633   1.000000
    493          7.619448   1.000000
    494          7.621056   1.000000
    495          7.624783   1.000000
    496          7.625995   1.000000
    497          7.631270   1.000000
    498          7.635575   1.000000
    499          7.636899   1.000000
    500          7.641391   1.000000
    501          7.642830   1.000000
    502          7.648527   1.000000
    503          7.660701   1.000000
    504          7.705852   1.000000
    505          7.719845   1.000000
    506          7.726703   1.000000
    507          7.740708   1.000000
    508          7.742677   1.000000
    509          7.746578   1.000000
    510          7.748239   1.000000
    511          7.748687   1.000000
    512          7.752288   1.000000
    513          7.757359   1.000000
    514          7.765025   1.000000
    515          7.774985   1.000000
    516          7.780206   1.000000
    517          7.792703   1.000000
    518          7.815754   1.000000
    519          7.824308   1.000000
    520          7.893191   1.000000
    521          7.912536   1.000000
    522          7.939363   1.000000
    523          7.943065   1.000000
    524          8.039330   1.000000
    525          8.090564   1.000000
    526          8.104723   1.000000
    527          8.116832   1.000000
    528          8.126208   1.000000
    529          8.178614   1.000000
    530          8.183966   1.000000
    531          8.194946   1.000001
    532          8.200237   1.000001
    533          8.206253   1.000001
    534          8.207293   1.000001
    535          8.214672   1.000001
    536          8.215597   1.000001
    537          8.225078   1.000002
    538          8.231906   1.000002
    539          8.234608   1.000002
    540          8.237307   1.000002
    541          8.241950   1.000003
    542          8.296449   1.000017
    543          8.337771   1.000057
    544          8.339532   1.000060
    545          8.341036   1.000063
    546          8.357945   1.000101
    547          8.368132   1.000134
    548          8.371190   1.000146
    549          8.373285   1.000154
    550          8.375996   1.000166
    551          8.377228   1.000171
    552          8.378703   1.000178
    553          8.380354   1.000186
    554          8.391640   1.000250
    555          8.393656   1.000264
    556          8.398225   1.000297
    557          8.399189   1.000304
    558          8.403510   1.000339
    559          8.410845   1.000408
    560          8.486054   1.002251
    561          8.498262   1.002878
    562          8.505367   1.003307
    563          8.556119   1.008136
    564          8.590129   1.013507
    565          8.720500   1.035010
    566          8.752250   1.026512
    567          8.754594   1.025354
    568          8.762400   1.020870
    569          8.768424   1.016712
    570          8.776450   1.010151
    571          8.851780   0.878902
    572          8.902409   0.714358
    573          8.904958   0.704701
    574          8.908396   0.691517
    575          8.922964   0.633784
    576          8.940625   0.560794
    577          8.947603   0.531419
    578          8.952743   0.509695
    579          8.998320   0.321512
    580          9.027362   0.215012
    581          9.057639   0.122831
    582          9.060788   0.114512
    583          9.066904   0.099062
    584          9.072975   0.084658
    585          9.079995   0.069165
    586          9.082814   0.063293
    587          9.085720   0.057447
    588          9.092464   0.044692
    589          9.125384  -0.002128
    590          9.169470  -0.031087
    591          9.180724  -0.033835
    592          9.185957  -0.034626
    593          9.196865  -0.035420
    594          9.202154  -0.035440
    595          9.206183  -0.035316
    596          9.212996  -0.034862
    597          9.215484  -0.034626
    598          9.224784  -0.033468
    599          9.226261  -0.033247
    600          9.227379  -0.033075
    601          9.228786  -0.032851
    602          9.243866  -0.030053
    603          9.294774  -0.018604
    604          9.302241  -0.017006
    605          9.312579  -0.014908
    606          9.320639  -0.013377
    607          9.339127  -0.010249
    608          9.349045  -0.008796
    609          9.358794  -0.007520
    610          9.363100  -0.007003
    611          9.372696  -0.005948
    612          9.378054  -0.005416
    613          9.380986  -0.005141
    614          9.432396  -0.001891
    615          9.454258  -0.001178
    616          9.455836  -0.001137
    617          9.482976  -0.000606
    618          9.487145  -0.000549
    619          9.504955  -0.000353
    620          9.548969  -0.000111
    621          9.552493  -0.000100
    622          9.559685  -0.000082
    623          9.562737  -0.000075
    624          9.564095  -0.000072
    625          9.576671  -0.000050
    626          9.587721  -0.000036
    627          9.593947  -0.000030
    628          9.596764  -0.000028
    629          9.600563  -0.000025
    630          9.605059  -0.000022
    631          9.610802  -0.000018
    632          9.613750  -0.000016
    633          9.620493  -0.000013
    634          9.621511  -0.000013
    635          9.627671  -0.000011
    636          9.631191  -0.000009
    637          9.635545  -0.000008
    638          9.638563  -0.000007
    639          9.642396  -0.000007
    640          9.648381  -0.000005
    641          9.649171  -0.000005
    642          9.656493  -0.000004
    643          9.658815  -0.000004
    644          9.670472  -0.000003
    645          9.795033  -0.000000
    646          9.824157  -0.000000
    647          9.840483  -0.000000
    648          9.847672  -0.000000
    649          9.851381  -0.000000
    650          9.855169  -0.000000
    651          9.886362  -0.000000
    652          9.901755  -0.000000
    653          9.905272  -0.000000
    654          9.909879  -0.000000
    655          9.912707  -0.000000
    656          9.915959  -0.000000
    657          9.922848  -0.000000
    658          9.927740  -0.000000
    659          9.933177  -0.000000
    660          9.942495  -0.000000
    661          9.944375  -0.000000
    662          9.951384  -0.000000
    663         10.010715  -0.000000
    664         10.018967  -0.000000
    665         10.024667  -0.000000
    666         10.031726  -0.000000
    667         10.031975  -0.000000
    668         10.038535  -0.000000
    669         10.085706  -0.000000
    670         10.105630  -0.000000
    671         10.119433  -0.000000
    672         10.124232  -0.000000
    673         10.127100  -0.000000
    674         10.129374  -0.000000
    675         10.134590  -0.000000
    676         10.157039  -0.000000
    677         10.165175  -0.000000
    678         10.172985  -0.000000
    679         10.180641  -0.000000
    680         10.193749  -0.000000
    681         10.207228  -0.000000
    682         10.211679  -0.000000
    683         10.215402  -0.000000
    684         10.231749  -0.000000
    685         10.232693  -0.000000
    686         10.234370  -0.000000
    687         10.289628  -0.000000
    688         10.317248  -0.000000
    689         10.321519  -0.000000
    690         10.329064  -0.000000
    691         10.332780  -0.000000
 
  0.5000000E+00  0.2500000E+00  0.0000000E+00  0.4166667E-01
      1        -39.890753   1.000000
      2        -39.875808   1.000000
      3        -39.873674   1.000000
      4        -39.858293   1.000000
      5        -39.854328   1.000000
      6        -39.845308   1.000000
      7        -39.842297   1.000000
      8        -39.841606   1.000000
      9        -39.839717   1.000000
     10        -39.834606   1.000000
     11        -39.833369   1.000000
     12        -39.815701   1.000000
     13        -39.813104   1.000000
     14        -39.809476   1.000000
     15        -39.807549   1.000000
     16        -39.806310   1.000000
     17        -39.804496   1.000000
     18        -39.802565   1.000000
     19        -39.794901   1.000000
     20        -39.793902   1.000000
     21        -39.790386   1.000000
     22        -39.787582   1.000000
     23        -39.786051   1.000000
     24        -39.785342   1.000000
     25        -39.784385   1.000000
     26        -39.783728   1.000000
     27        -39.782889   1.000000
     28        -39.781647   1.000000
     29        -39.780527   1.000000
     30        -39.779769   1.000000
     31        -39.778263   1.000000
     32        -39.775862   1.000000
     33        -39.774588   1.000000
     34        -39.773839   1.000000
     35        -39.773057   1.000000
     36        -39.770582   1.000000
     37        -39.769745   1.000000
     38        -39.768853   1.000000
     39        -39.767203   1.000000
     40        -39.766961   1.000000
     41        -39.765689   1.000000
     42        -39.764201   1.000000
     43        -39.763275   1.000000
     44        -39.759758   1.000000
     45        -39.757950   1.000000
     46        -39.756035   1.000000
     47        -39.755114   1.000000
     48        -39.754652   1.000000
     49        -39.753829   1.000000
     50        -39.752629   1.000000
     51        -39.751710   1.000000
     52        -39.750684   1.000000
     53        -39.748822   1.000000
     54        -39.747372   1.000000
     55        -39.747050   1.000000
     56        -39.746675   1.000000
     57        -39.745571   1.000000
     58        -39.744359   1.000000
     59        -39.743951   1.000000
     60        -39.742502   1.000000
     61        -39.742201   1.000000
     62        -39.741104   1.000000
     63        -39.740864   1.000000
     64        -39.739887   1.000000
     65        -39.739264   1.000000
     66        -39.738340   1.000000
     67        -39.737566   1.000000
     68        -39.736775   1.000000
     69        -39.736109   1.000000
     70        -39.735434   1.000000
     71        -39.735064   1.000000
     72        -39.734667   1.000000
     73        -39.733910   1.000000
     74        -39.732798   1.000000
     75        -39.732561   1.000000
     76        -39.731401   1.000000
     77        -39.731209   1.000000
     78        -39.730358   1.000000
     79        -39.729837   1.000000
     80        -39.729519   1.000000
     81        -39.728324   1.000000
     82        -39.727899   1.000000
     83        -39.727357   1.000000
     84        -39.725967   1.000000
     85        -39.725265   1.000000
     86        -39.723215   1.000000
     87        -39.722327   1.000000
     88        -39.721524   1.000000
     89        -39.720036   1.000000
     90        -39.719145   1.000000
     91        -39.718217   1.000000
     92        -39.717440   1.000000
     93        -39.716799   1.000000
     94        -39.715022   1.000000
     95        -39.714041   1.000000
     96        -39.712578   1.000000
     97        -18.381329   1.000000
     98        -18.337725   1.000000
     99        -18.336107   1.000000
    100        -18.300373   1.000000
    101        -18.297649   1.000000
    102        -18.286757   1.000000
    103        -18.284263   1.000000
    104        -18.283496   1.000000
    105        -18.283188   1.000000
    106        -18.258083   1.000000
    107        -18.255186   1.000000
    108        -18.254147   1.000000
    109        -18.253221   1.000000
    110        -18.242612   1.000000
    111        -18.241787   1.000000
    112        -18.240503   1.000000
    113        -18.239673   1.000000
    114        -18.230367   1.000000
    115        -18.229454   1.000000
    116        -18.227432   1.000000
    117        -18.226399   1.000000
    118        -18.217561   1.000000
    119        -18.215816   1.000000
    120        -18.215587   1.000000
    121        -18.211895   1.000000
    122        -18.209623   1.000000
    123        -18.188318   1.000000
    124        -18.186183   1.000000
    125        -18.185079   1.000000
    126        -18.183522   1.000000
    127        -18.183190   1.000000
    128        -18.182171   1.000000
    129        -18.181645   1.000000
    130        -18.181506   1.000000
    131        -18.180528   1.000000
    132        -18.180044   1.000000
    133        -18.179341   1.000000
    134        -18.178497   1.000000
    135        -18.176848   1.000000
    136        -18.174971   1.000000
    137        -18.171990   1.000000
    138        -18.168948   1.000000
    139        -18.166591   1.000000
    140        -18.164859   1.000000
    141        -18.164518   1.000000
    142        -18.163483   1.000000
    143        -18.162430   1.000000
    144        -18.161485   1.000000
    145        -18.160550   1.000000
    146        -18.159404   1.000000
    147        -18.157765   1.000000
    148        -18.157022   1.000000
    149        -18.153620   1.000000
    150        -18.152149   1.000000
    151        -18.148304   1.000000
    152        -18.146324   1.000000
    153        -18.145468   1.000000
    154        -18.144770   1.000000
    155        -18.144377   1.000000
    156        -18.125541   1.000000
    157        -18.124688   1.000000
    158        -18.119058   1.000000
    159        -18.117736   1.000000
    160        -18.116748   1.000000
    161        -18.108901   1.000000
    162        -18.107027   1.000000
    163        -18.105173   1.000000
    164        -18.104405   1.000000
    165        -18.090196   1.000000
    166        -18.089156   1.000000
    167        -18.062558   1.000000
    168        -18.058032   1.000000
    169        -18.055548   1.000000
    170        -18.053705   1.000000
    171        -18.049961   1.000000
    172        -18.043219   1.000000
    173        -18.042381   1.000000
    174        -18.024567   1.000000
    175        -18.022720   1.000000
    176        -18.020165   1.000000
    177        -18.019325   1.000000
    178        -18.018257   1.000000
    179        -18.017451   1.000000
    180        -17.994259   1.000000
    181        -17.993228   1.000000
    182        -17.983622   1.000000
    183        -17.973925   1.000000
    184        -17.971881   1.000000
    185        -17.970762   1.000000
    186        -17.969284   1.000000
    187        -17.965297   1.000000
    188        -17.963927   1.000000
    189        -17.958471   1.000000
    190        -17.947049   1.000000
    191        -17.945578   1.000000
    192        -17.942827   1.000000
    193        -17.940650   1.000000
    194        -17.938939   1.000000
    195        -17.906916   1.000000
    196        -17.905116   1.000000
    197        -17.904610   1.000000
    198        -17.903137   1.000000
    199        -17.902724   1.000000
    200        -17.901380   1.000000
    201        -17.875657   1.000000
    202        -17.870995   1.000000
    203        -17.869923   1.000000
    204        -17.868219   1.000000
    205        -17.859323   1.000000
    206        -17.850695   1.000000
    207        -17.849811   1.000000
    208        -17.842672   1.000000
    209        -17.841707   1.000000
    210        -17.821971   1.000000
    211        -17.820008   1.000000
    212        -17.816891   1.000000
    213        -17.815937   1.000000
    214        -17.814333   1.000000
    215        -17.807823   1.000000
    216        -17.804188   1.000000
    217        -17.803213   1.000000
    218        -17.801985   1.000000
    219        -17.801199   1.000000
    220        -17.799666   1.000000
    221        -17.798556   1.000000
    222        -17.796835   1.000000
    223        -17.794617   1.000000
    224        -17.792357   1.000000
    225        -17.790845   1.000000
    226        -17.789565   1.000000
    227        -17.787818   1.000000
    228        -17.782948   1.000000
    229        -17.777102   1.000000
    230        -17.775617   1.000000
    231        -17.775018   1.000000
    232        -17.772499   1.000000
    233        -17.771748   1.000000
    234        -17.770133   1.000000
    235        -17.769331   1.000000
    236        -17.768552   1.000000
    237        -17.762457   1.000000
    238        -17.761624   1.000000
    239        -17.760534   1.000000
    240        -17.758524   1.000000
    241        -17.756248   1.000000
    242        -17.755273   1.000000
    243        -17.740537   1.000000
    244        -17.739524   1.000000
    245        -17.733088   1.000000
    246        -17.729349   1.000000
    247        -17.728865   1.000000
    248        -17.727116   1.000000
    249        -17.726719   1.000000
    250        -17.725546   1.000000
    251        -17.724566   1.000000
    252        -17.723318   1.000000
    253        -17.719111   1.000000
    254        -17.717932   1.000000
    255        -17.714430   1.000000
    256        -17.711837   1.000000
    257        -17.706400   1.000000
    258        -17.704712   1.000000
    259        -17.702920   1.000000
    260        -17.700817   1.000000
    261        -17.698564   1.000000
    262        -17.698063   1.000000
    263        -17.695348   1.000000
    264        -17.694198   1.000000
    265        -17.687574   1.000000
    266        -17.686406   1.000000
    267        -17.684076   1.000000
    268        -17.682392   1.000000
    269        -17.682189   1.000000
    270        -17.681027   1.000000
    271        -17.676769   1.000000
    272        -17.675414   1.000000
    273        -17.674539   1.000000
    274        -17.673419   1.000000
    275        -17.672385   1.000000
    276        -17.671411   1.000000
    277        -17.669789   1.000000
    278        -17.668612   1.000000
    279        -17.664461   1.000000
    280        -17.663104   1.000000
    281        -17.658670   1.000000
    282        -17.655732   1.000000
    283        -17.655266   1.000000
    284        -17.652693   1.000000
    285        -17.652210   1.000000
    286        -17.650201   1.000000
    287        -17.645166   1.000000
    288        -17.644064   1.000000
    289        -17.642053   1.000000
    290        -17.640965   1.000000
    291        -17.640460   1.000000
    292        -17.639465   1.000000
    293        -17.638404   1.000000
    294        -17.637821   1.000000
    295        -17.637165   1.000000
    296        -17.633541   1.000000
    297        -17.630369   1.000000
    298        -17.629526   1.000000
    299        -17.628760   1.000000
    300        -17.628327   1.000000
    301        -17.627010   1.000000
    302        -17.621964   1.000000
    303        -17.621329   1.000000
    304        -17.611516   1.000000
    305        -17.609970   1.000000
    306        -17.609635   1.000000
    307        -17.606299   1.000000
    308        -17.604916   1.000000
    309        -17.603812   1.000000
    310        -17.601754   1.000000
    311        -17.600824   1.000000
    312        -17.594630   1.000000
    313        -17.589276   1.000000
    314        -17.588773   1.000000
    315        -17.587331   1.000000
    316        -17.586919   1.000000
    317        -17.585323   1.000000
    318        -17.584882   1.000000
    319        -17.584250   1.000000
    320        -17.583804   1.000000
    321        -17.582676   1.000000
    322        -17.582098   1.000000
    323        -17.580713   1.000000
    324        -17.580394   1.000000
    325        -17.579726   1.000000
    326        -17.579205   1.000000
    327        -17.577664   1.000000
    328        -17.574120   1.000000
    329        -17.572984   1.000000
    330        -17.572513   1.000000
    331        -17.571566   1.000000
    332        -17.570806   1.000000
    333        -17.570199   1.000000
    334        -17.568632   1.000000
    335        -17.567630   1.000000
    336        -17.566719   1.000000
    337        -17.565629   1.000000
    338        -17.564993   1.000000
    339        -17.564064   1.000000
    340        -17.563639   1.000000
    341        -17.563145   1.000000
    342        -17.562363   1.000000
    343        -17.561854   1.000000
    344        -17.561626   1.000000
    345        -17.560415   1.000000
    346        -17.557075   1.000000
    347        -17.555694   1.000000
    348        -17.554718   1.000000
    349        -17.554178   1.000000
    350        -17.548964   1.000000
    351        -17.548188   1.000000
    352        -17.546132   1.000000
    353        -17.545851   1.000000
    354        -17.538561   1.000000
    355        -17.536981   1.000000
    356        -17.536294   1.000000
    357        -17.535314   1.000000
    358        -17.533839   1.000000
    359        -17.532532   1.000000
    360        -17.526623   1.000000
    361        -17.523804   1.000000
    362        -17.519992   1.000000
    363        -17.519075   1.000000
    364        -17.517167   1.000000
    365        -17.516681   1.000000
    366        -17.515600   1.000000
    367        -17.515396   1.000000
    368        -17.513526   1.000000
    369        -17.512679   1.000000
    370        -17.493649   1.000000
    371        -17.492452   1.000000
    372        -17.491623   1.000000
    373        -17.489599   1.000000
    374        -17.488753   1.000000
    375        -17.487961   1.000000
    376        -17.487308   1.000000
    377        -17.471481   1.000000
    378        -17.468029   1.000000
    379        -17.465656   1.000000
    380        -17.462966   1.000000
    381        -17.449662   1.000000
    382        -17.449016   1.000000
    383        -17.444058   1.000000
    384        -17.431835   1.000000
    385          2.694331   1.000000
    386          3.678495   1.000000
    387          4.023812   1.000000
    388          4.115765   1.000000
    389          4.442048   1.000000
    390          4.508753   1.000000
    391          4.792221   1.000000
    392          4.792460   1.000000
    393          4.793072   1.000000
    394          4.909934   1.000000
    395          5.087702   1.000000
    396          5.156670   1.000000
    397          5.622498   1.000000
    398          5.624747   1.000000
    399          5.624958   1.000000
    400          5.660862   1.000000
    401          5.713195   1.000000
    402          5.788646   1.000000
    403          5.809417   1.000000
    404          5.917021   1.000000
    405          5.918729   1.000000
    406          5.919853   1.000000
    407          5.936395   1.000000
    408          5.958886   1.000000
    409          5.968190   1.000000
    410          5.989216   1.000000
    411          5.991104   1.000000
    412          5.991809   1.000000
    413          6.023362   1.000000
    414          6.050393   1.000000
    415          6.094840   1.000000
    416          6.175460   1.000000
    417          6.177045   1.000000
    418          6.178166   1.000000
    419          6.179659   1.000000
    420          6.181613   1.000000
    421          6.199725   1.000000
    422          6.213146   1.000000
    423          6.215437   1.000000
    424          6.237209   1.000000
    425          6.248797   1.000000
    426          6.284533   1.000000
    427          6.308135   1.000000
    428          6.312244   1.000000
    429          6.313324   1.000000
    430          6.393749   1.000000
    431          6.487205   1.000000
    432          6.488675   1.000000
    433          6.491037   1.000000
    434          6.520735   1.000000
    435          6.552376   1.000000
    436          6.553207   1.000000
    437          6.582961   1.000000
    438          6.586355   1.000000
    439          6.591379   1.000000
    440          6.628145   1.000000
    441          6.691075   1.000000
    442          6.694450   1.000000
    443          6.699219   1.000000
    444          6.702598   1.000000
    445          6.706783   1.000000
    446          6.721234   1.000000
    447          6.726411   1.000000
    448          6.739811   1.000000
    449          6.749415   1.000000
    450          6.768376   1.000000
    451          6.807895   1.000000
    452          6.809244   1.000000
    453          6.812291   1.000000
    454          6.829480   1.000000
    455          6.856969   1.000000
    456          6.870946   1.000000
    457          6.879386   1.000000
    458          6.882555   1.000000
    459          6.884383   1.000000
    460          6.900181   1.000000
    461          6.917047   1.000000
    462          6.920869   1.000000
    463          6.921663   1.000000
    464          6.944257   1.000000
    465          6.958553   1.000000
    466          6.977446   1.000000
    467          6.992892   1.000000
    468          6.994829   1.000000
    469          6.996933   1.000000
    470          6.999978   1.000000
    471          7.002130   1.000000
    472          7.053047   1.000000
    473          7.080968   1.000000
    474          7.083594   1.000000
    475          7.085422   1.000000
    476          7.087612   1.000000
    477          7.093185   1.000000
    478          7.120098   1.000000
    479          7.129234   1.000000
    480          7.195942   1.000000
    481          7.205234   1.000000
    482          7.215179   1.000000
    483          7.218390   1.000000
    484          7.288133   1.000000
    485          7.309371   1.000000
    486          7.392379   1.000000
    487          7.406393   1.000000
    488          7.464437   1.000000
    489          7.500653   1.000000
    490          7.519963   1.000000
    491          7.573145   1.000000
    492          7.611595   1.000000
    493          7.617455   1.000000
    494          7.622774   1.000000
    495          7.625682   1.000000
    496          7.626853   1.000000
    497          7.631817   1.000000
    498          7.635707   1.000000
    499          7.636917   1.000000
    500          7.640832   1.000000
    501          7.643189   1.000000
    502          7.648802   1.000000
    503          7.660967   1.000000
    504          7.694854   1.000000
    505          7.718908   1.000000
    506          7.730082   1.000000
    507          7.739148   1.000000
    508          7.742945   1.000000
    509          7.744057   1.000000
    510          7.747196   1.000000
    511          7.750624   1.000000
    512          7.752718   1.000000
    513          7.756786   1.000000
    514          7.761006   1.000000
    515          7.776203   1.000000
    516          7.779105   1.000000
    517          7.793598   1.000000
    518          7.812499   1.000000
    519          7.823652   1.000000
    520          7.888197   1.000000
    521          7.910798   1.000000
    522          7.937278   1.000000
    523          7.942422   1.000000
    524          8.041595   1.000000
    525          8.087934   1.000000
    526          8.099516   1.000000
    527          8.116446   1.000000
    528          8.138921   1.000000
    529          8.179760   1.000000
    530          8.184069   1.000000
    531          8.192328   1.000000
    532          8.200460   1.000001
    533          8.207024   1.000001
    534          8.209825   1.000001
    535          8.214588   1.000001
    536          8.216145   1.000001
    537          8.229702   1.000002
    538          8.231726   1.000002
    539          8.233566   1.000002
    540          8.234753   1.000002
    541          8.239120   1.000003
    542          8.303081   1.000020
    543          8.336381   1.000055
    544          8.339646   1.000060
    545          8.341125   1.000063
    546          8.355219   1.000094
    547          8.368665   1.000136
    548          8.371007   1.000145
    549          8.373310   1.000154
    550          8.374731   1.000160
    551          8.376927   1.000170
    552          8.379189   1.000181
    553          8.381486   1.000192
    554          8.391357   1.000249
    555          8.394199   1.000268
    556          8.397430   1.000291
    557          8.398718   1.000301
    558          8.400659   1.000316
    559          8.407210   1.000373
    560          8.484780   1.002193
    561          8.501772   1.003084
    562          8.504861   1.003275
    563          8.556695   1.008211
    564          8.590058   1.013494
    565          8.730931   1.033537
    566          8.752412   1.026435
    567          8.755262   1.025008
    568          8.759821   1.022462
    569          8.767993   1.017031
    570          8.774634   1.011742
    571          8.843995   0.898893
    572          8.900599   0.721146
    573          8.902344   0.714600
    574          8.906285   0.699636
    575          8.932920   0.592941
    576          8.937946   0.572013
    577          8.943745   0.547684
    578          8.952958   0.508782
    579          9.015953   0.255007
    580          9.028470   0.211269
    581          9.048428   0.148578
    582          9.064962   0.103866
    583          9.068095   0.096162
    584          9.073728   0.082937
    585          9.080873   0.067314
    586          9.084514   0.059848
    587          9.086761   0.055405
    588          9.091266   0.046875
    589          9.126999  -0.003809
    590          9.150208  -0.022439
    591          9.181133  -0.033907
    592          9.185258  -0.034536
    593          9.196143  -0.035400
    594          9.205534  -0.035344
    595          9.213454  -0.034821
    596          9.214848  -0.034690
    597          9.218709  -0.034272
    598          9.222783  -0.033751
    599          9.225305  -0.033391
    600          9.229602  -0.032718
    601          9.230456  -0.032576
    602          9.243282  -0.030172
    603          9.279856  -0.021955
    604          9.310270  -0.015364
    605          9.315093  -0.014420
    606          9.332677  -0.011278
    607          9.338724  -0.010311
    608          9.343609  -0.009573
    609          9.357663  -0.007660
    610          9.364751  -0.006812
    611          9.368341  -0.006410
    612          9.376714  -0.005545
    613          9.380974  -0.005142
    614          9.432455  -0.001889
    615          9.447663  -0.001363
    616          9.460731  -0.001019
    617          9.482136  -0.000619
    618          9.486647  -0.000555
    619          9.522638  -0.000224
    620          9.536089  -0.000157
    621          9.554850  -0.000094
    622          9.558780  -0.000084
    623          9.561379  -0.000078
    624          9.565947  -0.000069
    625          9.578600  -0.000048
    626          9.585438  -0.000039
    627          9.593160  -0.000031
    628          9.597081  -0.000027
    629          9.599956  -0.000025
    630          9.606395  -0.000021
    631          9.611814  -0.000017
    632          9.613845  -0.000016
    633          9.620590  -0.000013
    634          9.621928  -0.000013
    635          9.628362  -0.000010
    636          9.632449  -0.000009
    637          9.637835  -0.000008
    638          9.640778  -0.000007
    639          9.645592  -0.000006
    640          9.648983  -0.000005
    641          9.650852  -0.000005
    642          9.658894  -0.000004
    643          9.660668  -0.000004
    644          9.671463  -0.000002
    645          9.804210  -0.000000
    646          9.815638  -0.000000
    647          9.840978  -0.000000
    648          9.843911  -0.000000
    649          9.847654  -0.000000
    650          9.853314  -0.000000
    651          9.878933  -0.000000
    652          9.899894  -0.000000
    653          9.902294  -0.000000
    654          9.905361  -0.000000
    655          9.911611  -0.000000
    656          9.918487  -0.000000
    657          9.923909  -0.000000
    658          9.926870  -0.000000
    659          9.939296  -0.000000
    660          9.941234  -0.000000
    661          9.947904  -0.000000
    662          9.952247  -0.000000
    663         10.005955  -0.000000
    664         10.017008  -0.000000
    665         10.024193  -0.000000
    666         10.031341  -0.000000
    667         10.034687  -0.000000
    668         10.038598  -0.000000
    669         10.098732  -0.000000
    670         10.105166  -0.000000
    671         10.115659  -0.000000
    672         10.127529  -0.000000
    673         10.128473  -0.000000
    674         10.130780  -0.000000
    675         10.134142  -0.000000
    676         10.156801  -0.000000
    677         10.167095  -0.000000
    678         10.174306  -0.000000
    679         10.180021  -0.000000
    680         10.197992  -0.000000
    681         10.204756  -0.000000
    682         10.210760  -0.000000
    683         10.213058  -0.000000
    684         10.228896  -0.000000
    685         10.229545  -0.000000
    686         10.232350  -0.000000
    687         10.279432  -0.000000
    688         10.317037  -0.000000
    689         10.321337  -0.000000
    690         10.326797  -0.000000
    691         10.331069  -0.000000
 
  0.0000000E+00  0.0000000E+00  0.3333333E+00  0.4166667E-01
      1        -39.899075   1.000000
      2        -39.886401   1.000000
      3        -39.848383   1.000000
      4        -39.842569   1.000000
      5        -39.842540   1.000000
      6        -39.840198   1.000000
      7        -39.839064   1.000000
      8        -39.838701   1.000000
      9        -39.837445   1.000000
     10        -39.832955   1.000000
     11        -39.832463   1.000000
     12        -39.830381   1.000000
     13        -39.829382   1.000000
     14        -39.828417   1.000000
     15        -39.827261   1.000000
     16        -39.816557   1.000000
     17        -39.802402   1.000000
     18        -39.802122   1.000000
     19        -39.798435   1.000000
     20        -39.796711   1.000000
     21        -39.795945   1.000000
     22        -39.794817   1.000000
     23        -39.784834   1.000000
     24        -39.784209   1.000000
     25        -39.780591   1.000000
     26        -39.777756   1.000000
     27        -39.776817   1.000000
     28        -39.776360   1.000000
     29        -39.773875   1.000000
     30        -39.772887   1.000000
     31        -39.771071   1.000000
     32        -39.769391   1.000000
     33        -39.768618   1.000000
     34        -39.768381   1.000000
     35        -39.768208   1.000000
     36        -39.767574   1.000000
     37        -39.767365   1.000000
     38        -39.766936   1.000000
     39        -39.765888   1.000000
     40        -39.765507   1.000000
     41        -39.764135   1.000000
     42        -39.763633   1.000000
     43        -39.763113   1.000000
     44        -39.763068   1.000000
     45        -39.762233   1.000000
     46        -39.761153   1.000000
     47        -39.760206   1.000000
     48        -39.756543   1.000000
     49        -39.753816   1.000000
     50        -39.752834   1.000000
     51        -39.750055   1.000000
     52        -39.749208   1.000000
     53        -39.748673   1.000000
     54        -39.748514   1.000000
     55        -39.748287   1.000000
     56        -39.747107   1.000000
     57        -39.746350   1.000000
     58        -39.745722   1.000000
     59        -39.744660   1.000000
     60        -39.744044   1.000000
     61        -39.743476   1.000000
     62        -39.742869   1.000000
     63        -39.742668   1.000000
     64        -39.741245   1.000000
     65        -39.740817   1.000000
     66        -39.739653   1.000000
     67        -39.739406   1.000000
     68        -39.739086   1.000000
     69        -39.738485   1.000000
     70        -39.738216   1.000000
     71        -39.736355   1.000000
     72        -39.735841   1.000000
     73        -39.734667   1.000000
     74        -39.733210   1.000000
     75        -39.732614   1.000000
     76        -39.732518   1.000000
     77        -39.731153   1.000000
     78        -39.730318   1.000000
     79        -39.727417   1.000000
     80        -39.727256   1.000000
     81        -39.725292   1.000000
     82        -39.725101   1.000000
     83        -39.724509   1.000000
     84        -39.724221   1.000000
     85        -39.723678   1.000000
     86        -39.723015   1.000000
     87        -39.722462   1.000000
     88        -39.721077   1.000000
     89        -39.720154   1.000000
     90        -39.719591   1.000000
     91        -39.719023   1.000000
     92        -39.718946   1.000000
     93        -39.717411   1.000000
     94        -39.714290   1.000000
     95        -39.714235   1.000000
     96        -39.712931   1.000000
     97        -18.388437   1.000000
     98        -18.330688   1.000000
     99        -18.327264   1.000000
    100        -18.327122   1.000000
    101        -18.312762   1.000000
    102        -18.309096   1.000000
    103        -18.308940   1.000000
    104        -18.307218   1.000000
    105        -18.296149   1.000000
    106        -18.293354   1.000000
    107        -18.293112   1.000000
    108        -18.272137   1.000000
    109        -18.268982   1.000000
    110        -18.268598   1.000000
    111        -18.239506   1.000000
    112        -18.238046   1.000000
    113        -18.237419   1.000000
    114        -18.236311   1.000000
    115        -18.236307   1.000000
    116        -18.235464   1.000000
    117        -18.217902   1.000000
    118        -18.215106   1.000000
    119        -18.214237   1.000000
    120        -18.213215   1.000000
    121        -18.212872   1.000000
    122        -18.211652   1.000000
    123        -18.211276   1.000000
    124        -18.210397   1.000000
    125        -18.210260   1.000000
    126        -18.208964   1.000000
    127        -18.208361   1.000000
    128        -18.207902   1.000000
    129        -18.197845   1.000000
    130        -18.197307   1.000000
    131        -18.195457   1.000000
    132        -18.194190   1.000000
    133        -18.193687   1.000000
    134        -18.193579   1.000000
    135        -18.170600   1.000000
    136        -18.168002   1.000000
    137        -18.167960   1.000000
    138        -18.165072   1.000000
    139        -18.164833   1.000000
    140        -18.162715   1.000000
    141        -18.162640   1.000000
    142        -18.162205   1.000000
    143        -18.162102   1.000000
    144        -18.126964   1.000000
    145        -18.126909   1.000000
    146        -18.125721   1.000000
    147        -18.123902   1.000000
    148        -18.123711   1.000000
    149        -18.123700   1.000000
    150        -18.108270   1.000000
    151        -18.107667   1.000000
    152        -18.107274   1.000000
    153        -18.106900   1.000000
    154        -18.105816   1.000000
    155        -18.105608   1.000000
    156        -18.104663   1.000000
    157        -18.104087   1.000000
    158        -18.103802   1.000000
    159        -18.102146   1.000000
    160        -18.101777   1.000000
    161        -18.101336   1.000000
    162        -18.100832   1.000000
    163        -18.099593   1.000000
    164        -18.098995   1.000000
    165        -18.097876   1.000000
    166        -18.097745   1.000000
    167        -18.096401   1.000000
    168        -18.096368   1.000000
    169        -18.095377   1.000000
    170        -18.094014   1.000000
    171        -18.026929   1.000000
    172        -18.023456   1.000000
    173        -18.023363   1.000000
    174        -18.022393   1.000000
    175        -18.020383   1.000000
    176        -18.020287   1.000000
    177        -18.019595   1.000000
    178        -17.951717   1.000000
    179        -17.951692   1.000000
    180        -17.950362   1.000000
    181        -17.917352   1.000000
    182        -17.915419   1.000000
    183        -17.914110   1.000000
    184        -17.913613   1.000000
    185        -17.912352   1.000000
    186        -17.911849   1.000000
    187        -17.896408   1.000000
    188        -17.895161   1.000000
    189        -17.891134   1.000000
    190        -17.891105   1.000000
    191        -17.888620   1.000000
    192        -17.887243   1.000000
    193        -17.885294   1.000000
    194        -17.881521   1.000000
    195        -17.881487   1.000000
    196        -17.879869   1.000000
    197        -17.879647   1.000000
    198        -17.878833   1.000000
    199        -17.878066   1.000000
    200        -17.877969   1.000000
    201        -17.873337   1.000000
    202        -17.873041   1.000000
    203        -17.871549   1.000000
    204        -17.870495   1.000000
    205        -17.867177   1.000000
    206        -17.866337   1.000000
    207        -17.865082   1.000000
    208        -17.862019   1.000000
    209        -17.857490   1.000000
    210        -17.856707   1.000000
    211        -17.855087   1.000000
    212        -17.854854   1.000000
    213        -17.854588   1.000000
    214        -17.852768   1.000000
    215        -17.851728   1.000000
    216        -17.850849   1.000000
    217        -17.849671   1.000000
    218        -17.848733   1.000000
    219        -17.847752   1.000000
    220        -17.843754   1.000000
    221        -17.830881   1.000000
    222        -17.830705   1.000000
    223        -17.829859   1.000000
    224        -17.828777   1.000000
    225        -17.828436   1.000000
    226        -17.827595   1.000000
    227        -17.823617   1.000000
    228        -17.822623   1.000000
    229        -17.822263   1.000000
    230        -17.821193   1.000000
    231        -17.820151   1.000000
    232        -17.818326   1.000000
    233        -17.813983   1.000000
    234        -17.813507   1.000000
    235        -17.812284   1.000000
    236        -17.808161   1.000000
    237        -17.807955   1.000000
    238        -17.806386   1.000000
    239        -17.785453   1.000000
    240        -17.784852   1.000000
    241        -17.783820   1.000000
    242        -17.783355   1.000000
    243        -17.782623   1.000000
    244        -17.780733   1.000000
    245        -17.756479   1.000000
    246        -17.755378   1.000000
    247        -17.755114   1.000000
    248        -17.736692   1.000000
    249        -17.735499   1.000000
    250        -17.735277   1.000000
    251        -17.703575   1.000000
    252        -17.701439   1.000000
    253        -17.701268   1.000000
    254        -17.697699   1.000000
    255        -17.696693   1.000000
    256        -17.695869   1.000000
    257        -17.693675   1.000000
    258        -17.693294   1.000000
    259        -17.692582   1.000000
    260        -17.689799   1.000000
    261        -17.689417   1.000000
    262        -17.687750   1.000000
    263        -17.687659   1.000000
    264        -17.687318   1.000000
    265        -17.687189   1.000000
    266        -17.685657   1.000000
    267        -17.685580   1.000000
    268        -17.684596   1.000000
    269        -17.683240   1.000000
    270        -17.683069   1.000000
    271        -17.679510   1.000000
    272        -17.667798   1.000000
    273        -17.667556   1.000000
    274        -17.666766   1.000000
    275        -17.663810   1.000000
    276        -17.662920   1.000000
    277        -17.660337   1.000000
    278        -17.659916   1.000000
    279        -17.658488   1.000000
    280        -17.657445   1.000000
    281        -17.656912   1.000000
    282        -17.656402   1.000000
    283        -17.655558   1.000000
    284        -17.650547   1.000000
    285        -17.649955   1.000000
    286        -17.647999   1.000000
    287        -17.645322   1.000000
    288        -17.645186   1.000000
    289        -17.644258   1.000000
    290        -17.643408   1.000000
    291        -17.642200   1.000000
    292        -17.641936   1.000000
    293        -17.641150   1.000000
    294        -17.640112   1.000000
    295        -17.639959   1.000000
    296        -17.638761   1.000000
    297        -17.638393   1.000000
    298        -17.637724   1.000000
    299        -17.637601   1.000000
    300        -17.636614   1.000000
    301        -17.631378   1.000000
    302        -17.626652   1.000000
    303        -17.625818   1.000000
    304        -17.625324   1.000000
    305        -17.620740   1.000000
    306        -17.620593   1.000000
    307        -17.618998   1.000000
    308        -17.617981   1.000000
    309        -17.617530   1.000000
    310        -17.616675   1.000000
    311        -17.615373   1.000000
    312        -17.614280   1.000000
    313        -17.614251   1.000000
    314        -17.613800   1.000000
    315        -17.613738   1.000000
    316        -17.611275   1.000000
    317        -17.599843   1.000000
    318        -17.599549   1.000000
    319        -17.597607   1.000000
    320        -17.597473   1.000000
    321        -17.595630   1.000000
    322        -17.595423   1.000000
    323        -17.587321   1.000000
    324        -17.587130   1.000000
    325        -17.585513   1.000000
    326        -17.583644   1.000000
    327        -17.583204   1.000000
    328        -17.581695   1.000000
    329        -17.579893   1.000000
    330        -17.579414   1.000000
    331        -17.578590   1.000000
    332        -17.578460   1.000000
    333        -17.577841   1.000000
    334        -17.577440   1.000000
    335        -17.556681   1.000000
    336        -17.555939   1.000000
    337        -17.555001   1.000000
    338        -17.553578   1.000000
    339        -17.553140   1.000000
    340        -17.552171   1.000000
    341        -17.551954   1.000000
    342        -17.551572   1.000000
    343        -17.550028   1.000000
    344        -17.549363   1.000000
    345        -17.549169   1.000000
    346        -17.547485   1.000000
    347        -17.540127   1.000000
    348        -17.540085   1.000000
    349        -17.534980   1.000000
    350        -17.534017   1.000000
    351        -17.533373   1.000000
    352        -17.532906   1.000000
    353        -17.529456   1.000000
    354        -17.529417   1.000000
    355        -17.528348   1.000000
    356        -17.527919   1.000000
    357        -17.526584   1.000000
    358        -17.517164   1.000000
    359        -17.513129   1.000000
    360        -17.512513   1.000000
    361        -17.512059   1.000000
    362        -17.511882   1.000000
    363        -17.510363   1.000000
    364        -17.500593   1.000000
    365        -17.500072   1.000000
    366        -17.495073   1.000000
    367        -17.494721   1.000000
    368        -17.493338   1.000000
    369        -17.492224   1.000000
    370        -17.491295   1.000000
    371        -17.489809   1.000000
    372        -17.477874   1.000000
    373        -17.477737   1.000000
    374        -17.476419   1.000000
    375        -17.475708   1.000000
    376        -17.475418   1.000000
    377        -17.474666   1.000000
    378        -17.473216   1.000000
    379        -17.472077   1.000000
    380        -17.460902   1.000000
    381        -17.435240   1.000000
    382        -17.434681   1.000000
    383        -17.423259   1.000000
    384        -17.422695   1.000000
    385          2.673550   1.000000
    386          3.477816   1.000000
    387          3.786244   1.000000
    388          4.720179   1.000000
    389          4.878185   1.000000
    390          4.879947   1.000000
    391          4.881380   1.000000
    392          4.882090   1.000000
    393          4.882853   1.000000
    394          4.960075   1.000000
    395          5.075540   1.000000
    396          5.077465   1.000000
    397          5.078558   1.000000
    398          5.079100   1.000000
    399          5.079960   1.000000
    400          5.223677   1.000000
    401          5.346772   1.000000
    402          5.800540   1.000000
    403          5.802260   1.000000
    404          5.803318   1.000000
    405          5.804175   1.000000
    406          5.804929   1.000000
    407          5.851470   1.000000
    408          5.880199   1.000000
    409          5.918400   1.000000
    410          5.974640   1.000000
    411          5.974718   1.000000
    412          5.986208   1.000000
    413          5.996117   1.000000
    414          5.997398   1.000000
    415          6.052226   1.000000
    416          6.196764   1.000000
    417          6.196867   1.000000
    418          6.202454   1.000000
    419          6.207025   1.000000
    420          6.208176   1.000000
    421          6.230773   1.000000
    422          6.268806   1.000000
    423          6.269783   1.000000
    424          6.271798   1.000000
    425          6.272914   1.000000
    426          6.273561   1.000000
    427          6.373554   1.000000
    428          6.426299   1.000000
    429          6.428538   1.000000
    430          6.447916   1.000000
    431          6.480078   1.000000
    432          6.482773   1.000000
    433          6.525718   1.000000
    434          6.792591   1.000000
    435          6.794823   1.000000
    436          6.798671   1.000000
    437          6.798841   1.000000
    438          6.801696   1.000000
    439          6.810744   1.000000
    440          6.813696   1.000000
    441          6.813708   1.000000
    442          6.816966   1.000000
    443          6.817010   1.000000
    444          6.818274   1.000000
    445          6.826812   1.000000
    446          6.838517   1.000000
    447          6.839150   1.000000
    448          6.841453   1.000000
    449          6.842631   1.000000
    450          6.843964   1.000000
    451          6.849392   1.000000
    452          6.849899   1.000000
    453          6.850812   1.000000
    454          6.851772   1.000000
    455          6.852919   1.000000
    456          6.854085   1.000000
    457          6.923080   1.000000
    458          6.952066   1.000000
    459          6.953033   1.000000
    460          6.955253   1.000000
    461          6.956666   1.000000
    462          6.956784   1.000000
    463          6.958514   1.000000
    464          6.959864   1.000000
    465          6.961024   1.000000
    466          6.961201   1.000000
    467          6.962497   1.000000
    468          6.962646   1.000000
    469          6.965146   1.000000
    470          6.965684   1.000000
    471          6.969851   1.000000
    472          6.972116   1.000000
    473          6.972224   1.000000
    474          6.975874   1.000000
    475          6.999934   1.000000
    476          7.007342   1.000000
    477          7.011549   1.000000
    478          7.012444   1.000000
    479          7.013018   1.000000
    480          7.014594   1.000000
    481          7.151650   1.000000
    482          7.164636   1.000000
    483          7.167176   1.000000
    484          7.444229   1.000000
    485          7.589169   1.000000
    486          7.592927   1.000000
    487          7.593393   1.000000
    488          7.594716   1.000000
    489          7.597496   1.000000
    490          7.618935   1.000000
    491          7.668720   1.000000
    492          7.669462   1.000000
    493          7.677587   1.000000
    494          7.679461   1.000000
    495          7.681565   1.000000
    496          7.682631   1.000000
    497          7.682789   1.000000
    498          7.688632   1.000000
    499          7.710067   1.000000
    500          7.731661   1.000000
    501          7.732210   1.000000
    502          7.736161   1.000000
    503          7.738323   1.000000
    504          7.738611   1.000000
    505          7.768543   1.000000
    506          7.775661   1.000000
    507          7.781450   1.000000
    508          7.782852   1.000000
    509          7.784494   1.000000
    510          7.787920   1.000000
    511          7.788244   1.000000
    512          7.790843   1.000000
    513          7.792073   1.000000
    514          7.862795   1.000000
    515          7.902104   1.000000
    516          7.905868   1.000000
    517          7.916013   1.000000
    518          7.932346   1.000000
    519          7.934054   1.000000
    520          7.936394   1.000000
    521          7.937658   1.000000
    522          7.938992   1.000000
    523          7.984888   1.000000
    524          7.991935   1.000000
    525          7.994516   1.000000
    526          8.013903   1.000000
    527          8.028264   1.000000
    528          8.029607   1.000000
    529          8.035318   1.000000
    530          8.035815   1.000000
    531          8.037301   1.000000
    532          8.038017   1.000000
    533          8.038173   1.000000
    534          8.040760   1.000000
    535          8.041946   1.000000
    536          8.043567   1.000000
    537          8.046929   1.000000
    538          8.119587   1.000000
    539          8.134668   1.000000
    540          8.135025   1.000000
    541          8.137549   1.000000
    542          8.139576   1.000000
    543          8.143993   1.000000
    544          8.310886   1.000026
    545          8.365175   1.000124
    546          8.368228   1.000134
    547          8.372247   1.000150
    548          8.374100   1.000158
    549          8.377177   1.000171
    550          8.382490   1.000197
    551          8.387401   1.000224
    552          8.387857   1.000227
    553          8.427094   1.000607
    554          8.449788   1.001029
    555          8.452857   1.001103
    556          8.455300   1.001165
    557          8.456818   1.001205
    558          8.462271   1.001359
    559          8.464016   1.001412
    560          8.464838   1.001437
    561          8.468240   1.001547
    562          8.473028   1.001715
    563          8.474110   1.001754
    564          8.478765   1.001935
    565          8.528548   1.005092
    566          8.539201   1.006139
    567          8.547783   1.007098
    568          8.551098   1.007498
    569          8.551466   1.007544
    570          8.566114   1.009522
    571          8.703835   1.035314
    572          8.733216   1.033058
    573          8.733452   1.033005
    574          8.735566   1.032503
    575          8.741202   1.030895
    576          8.744980   1.029588
    577          8.905313   0.703349
    578          8.958042   0.487273
    579          8.998682   0.320098
    580          8.998705   0.320005
    581          9.004676   0.296949
    582          9.007912   0.284690
    583          9.011272   0.272145
    584          9.055660   0.128187
    585          9.076892   0.075859
    586          9.102880   0.027173
    587          9.113690   0.011691
    588          9.116469   0.008139
    589          9.128011  -0.004836
    590          9.130362  -0.007141
    591          9.169357  -0.031052
    592          9.187480  -0.034803
    593          9.188212  -0.034880
    594          9.193073  -0.035265
    595          9.198875  -0.035453
    596          9.208505  -0.035194
    597          9.219287  -0.034203
    598          9.231538  -0.032392
    599          9.232863  -0.032162
    600          9.240130  -0.030804
    601          9.240646  -0.030702
    602          9.247992  -0.029189
    603          9.268627  -0.024549
    604          9.278400  -0.022289
    605          9.278761  -0.022206
    606          9.286894  -0.020353
    607          9.294795  -0.018599
    608          9.297988  -0.017908
    609          9.301181  -0.017229
    610          9.303792  -0.016682
    611          9.306894  -0.016044
    612          9.308953  -0.015627
    613          9.313424  -0.014743
    614          9.318979  -0.013685
    615          9.424587  -0.002225
    616          9.495375  -0.000449
    617          9.515753  -0.000268
    618          9.517303  -0.000258
    619          9.524469  -0.000214
    620          9.527943  -0.000195
    621          9.533049  -0.000170
    622          9.536222  -0.000156
    623          9.539020  -0.000145
    624          9.542375  -0.000132
    625          9.544609  -0.000125
    626          9.546875  -0.000117
    627          9.558706  -0.000084
    628          9.569136  -0.000063
    629          9.578263  -0.000048
    630          9.585317  -0.000039
    631          9.611974  -0.000017
    632          9.620707  -0.000013
    633          9.627719  -0.000011
    634          9.630516  -0.000010
    635          9.631254  -0.000009
    636          9.638156  -0.000008
    637          9.643746  -0.000006
    638          9.662202  -0.000003
    639          9.662700  -0.000003
    640          9.665322  -0.000003
    641          9.665968  -0.000003
    642          9.747951  -0.000000
    643          9.754656  -0.000000
    644          9.791905  -0.000000
    645          9.794540  -0.000000
    646          9.823806  -0.000000
    647          9.835148  -0.000000
    648          9.840198  -0.000000
    649          9.844383  -0.000000
    650          9.870002  -0.000000
    651          9.991363  -0.000000
    652         10.035471  -0.000000
    653         10.048913  -0.000000
    654         10.066067  -0.000000
    655         10.068973  -0.000000
    656         10.071943  -0.000000
    657         10.083533  -0.000000
    658         10.085902  -0.000000
    659         10.093587  -0.000000
    660         10.101934  -0.000000
    661         10.108781  -0.000000
    662         10.108940  -0.000000
    663         10.135387  -0.000000
    664         10.142983  -0.000000
    665         10.147159  -0.000000
    666         10.149745  -0.000000
    667         10.156835  -0.000000
    668         10.159660  -0.000000
    669         10.163025  -0.000000
    670         10.165415  -0.000000
    671         10.168514  -0.000000
    672         10.177979  -0.000000
    673         10.181167  -0.000000
    674         10.185418  -0.000000
    675         10.186553  -0.000000
    676         10.190209  -0.000000
    677         10.190339  -0.000000
    678         10.191476  -0.000000
    679         10.193662  -0.000000
    680         10.194221  -0.000000
    681         10.194999  -0.000000
    682         10.196488  -0.000000
    683         10.200679  -0.000000
    684         10.200919  -0.000000
    685         10.203983  -0.000000
    686         10.211456  -0.000000
    687         10.220604  -0.000000
    688         10.223616  -0.000000
    689         10.233913  -0.000000
    690         10.234661  -0.000000
    691         10.237982  -0.000000
 
  0.2500000E+00 -0.8988716E-17  0.3333333E+00  0.4166667E-01
      1        -39.894810   1.000000
      2        -39.882398   1.000000
      3        -39.863847   1.000000
      4        -39.854391   1.000000
      5        -39.849880   1.000000
      6        -39.848681   1.000000
      7        -39.840435   1.000000
      8        -39.839770   1.000000
      9        -39.837932   1.000000
     10        -39.827930   1.000000
     11        -39.826430   1.000000
     12        -39.822039   1.000000
     13        -39.817305   1.000000
     14        -39.815098   1.000000
     15        -39.812482   1.000000
     16        -39.811328   1.000000
     17        -39.807929   1.000000
     18        -39.805464   1.000000
     19        -39.803415   1.000000
     20        -39.795189   1.000000
     21        -39.794213   1.000000
     22        -39.790249   1.000000
     23        -39.787023   1.000000
     24        -39.786247   1.000000
     25        -39.784319   1.000000
     26        -39.783647   1.000000
     27        -39.782105   1.000000
     28        -39.780905   1.000000
     29        -39.778363   1.000000
     30        -39.774641   1.000000
     31        -39.773544   1.000000
     32        -39.771993   1.000000
     33        -39.770680   1.000000
     34        -39.769675   1.000000
     35        -39.769054   1.000000
     36        -39.768440   1.000000
     37        -39.767343   1.000000
     38        -39.766557   1.000000
     39        -39.765960   1.000000
     40        -39.765064   1.000000
     41        -39.763141   1.000000
     42        -39.762489   1.000000
     43        -39.761482   1.000000
     44        -39.760354   1.000000
     45        -39.760054   1.000000
     46        -39.757273   1.000000
     47        -39.755476   1.000000
     48        -39.754198   1.000000
     49        -39.753400   1.000000
     50        -39.752300   1.000000
     51        -39.752045   1.000000
     52        -39.751282   1.000000
     53        -39.749741   1.000000
     54        -39.749158   1.000000
     55        -39.748215   1.000000
     56        -39.748057   1.000000
     57        -39.747094   1.000000
     58        -39.746732   1.000000
     59        -39.745974   1.000000
     60        -39.745077   1.000000
     61        -39.743384   1.000000
     62        -39.741947   1.000000
     63        -39.741654   1.000000
     64        -39.740964   1.000000
     65        -39.740013   1.000000
     66        -39.739801   1.000000
     67        -39.738559   1.000000
     68        -39.738155   1.000000
     69        -39.737725   1.000000
     70        -39.737413   1.000000
     71        -39.735972   1.000000
     72        -39.734931   1.000000
     73        -39.734654   1.000000
     74        -39.733085   1.000000
     75        -39.732163   1.000000
     76        -39.730714   1.000000
     77        -39.728842   1.000000
     78        -39.727840   1.000000
     79        -39.727505   1.000000
     80        -39.726425   1.000000
     81        -39.726112   1.000000
     82        -39.725532   1.000000
     83        -39.725112   1.000000
     84        -39.724647   1.000000
     85        -39.724219   1.000000
     86        -39.723751   1.000000
     87        -39.722748   1.000000
     88        -39.721928   1.000000
     89        -39.720094   1.000000
     90        -39.720071   1.000000
     91        -39.719248   1.000000
     92        -39.719037   1.000000
     93        -39.717143   1.000000
     94        -39.715394   1.000000
     95        -39.714627   1.000000
     96        -39.713150   1.000000
     97        -18.377474   1.000000
     98        -18.317056   1.000000
     99        -18.313950   1.000000
    100        -18.308044   1.000000
    101        -18.300200   1.000000
    102        -18.297984   1.000000
    103        -18.296186   1.000000
    104        -18.295514   1.000000
    105        -18.290231   1.000000
    106        -18.282890   1.000000
    107        -18.280658   1.000000
    108        -18.272518   1.000000
    109        -18.261796   1.000000
    110        -18.260795   1.000000
    111        -18.256878   1.000000
    112        -18.255151   1.000000
    113        -18.247842   1.000000
    114        -18.241623   1.000000
    115        -18.237916   1.000000
    116        -18.234992   1.000000
    117        -18.221492   1.000000
    118        -18.220489   1.000000
    119        -18.217370   1.000000
    120        -18.216019   1.000000
    121        -18.213224   1.000000
    122        -18.210490   1.000000
    123        -18.207431   1.000000
    124        -18.205658   1.000000
    125        -18.203922   1.000000
    126        -18.203269   1.000000
    127        -18.202932   1.000000
    128        -18.201637   1.000000
    129        -18.201531   1.000000
    130        -18.199634   1.000000
    131        -18.198827   1.000000
    132        -18.198550   1.000000
    133        -18.196781   1.000000
    134        -18.184512   1.000000
    135        -18.180766   1.000000
    136        -18.179032   1.000000
    137        -18.173303   1.000000
    138        -18.170724   1.000000
    139        -18.170160   1.000000
    140        -18.168256   1.000000
    141        -18.166728   1.000000
    142        -18.162651   1.000000
    143        -18.160060   1.000000
    144        -18.155152   1.000000
    145        -18.153738   1.000000
    146        -18.145668   1.000000
    147        -18.138511   1.000000
    148        -18.137895   1.000000
    149        -18.136364   1.000000
    150        -18.134993   1.000000
    151        -18.128930   1.000000
    152        -18.128333   1.000000
    153        -18.121983   1.000000
    154        -18.116753   1.000000
    155        -18.116260   1.000000
    156        -18.114428   1.000000
    157        -18.111773   1.000000
    158        -18.093852   1.000000
    159        -18.091996   1.000000
    160        -18.082995   1.000000
    161        -18.080185   1.000000
    162        -18.079000   1.000000
    163        -18.076417   1.000000
    164        -18.074971   1.000000
    165        -18.073889   1.000000
    166        -18.073255   1.000000
    167        -18.063966   1.000000
    168        -18.061893   1.000000
    169        -18.060265   1.000000
    170        -18.059996   1.000000
    171        -18.054652   1.000000
    172        -18.053982   1.000000
    173        -18.051963   1.000000
    174        -18.025733   1.000000
    175        -18.001405   1.000000
    176        -17.988612   1.000000
    177        -17.983531   1.000000
    178        -17.982777   1.000000
    179        -17.970873   1.000000
    180        -17.959340   1.000000
    181        -17.956510   1.000000
    182        -17.952612   1.000000
    183        -17.951830   1.000000
    184        -17.948876   1.000000
    185        -17.947827   1.000000
    186        -17.944137   1.000000
    187        -17.943615   1.000000
    188        -17.943246   1.000000
    189        -17.941881   1.000000
    190        -17.938824   1.000000
    191        -17.936886   1.000000
    192        -17.933791   1.000000
    193        -17.927405   1.000000
    194        -17.926325   1.000000
    195        -17.915278   1.000000
    196        -17.913236   1.000000
    197        -17.903418   1.000000
    198        -17.895250   1.000000
    199        -17.893114   1.000000
    200        -17.886164   1.000000
    201        -17.879406   1.000000
    202        -17.875192   1.000000
    203        -17.873843   1.000000
    204        -17.871444   1.000000
    205        -17.869001   1.000000
    206        -17.862601   1.000000
    207        -17.862213   1.000000
    208        -17.861523   1.000000
    209        -17.860207   1.000000
    210        -17.859126   1.000000
    211        -17.858298   1.000000
    212        -17.856033   1.000000
    213        -17.853020   1.000000
    214        -17.850897   1.000000
    215        -17.837618   1.000000
    216        -17.834841   1.000000
    217        -17.830322   1.000000
    218        -17.829728   1.000000
    219        -17.829179   1.000000
    220        -17.825743   1.000000
    221        -17.819937   1.000000
    222        -17.818073   1.000000
    223        -17.805552   1.000000
    224        -17.805406   1.000000
    225        -17.800001   1.000000
    226        -17.799173   1.000000
    227        -17.796227   1.000000
    228        -17.794843   1.000000
    229        -17.793673   1.000000
    230        -17.793367   1.000000
    231        -17.786929   1.000000
    232        -17.784737   1.000000
    233        -17.782290   1.000000
    234        -17.779915   1.000000
    235        -17.773305   1.000000
    236        -17.770715   1.000000
    237        -17.768384   1.000000
    238        -17.767165   1.000000
    239        -17.762008   1.000000
    240        -17.761699   1.000000
    241        -17.761493   1.000000
    242        -17.752570   1.000000
    243        -17.749276   1.000000
    244        -17.748050   1.000000
    245        -17.745531   1.000000
    246        -17.742101   1.000000
    247        -17.740308   1.000000
    248        -17.738827   1.000000
    249        -17.735998   1.000000
    250        -17.732900   1.000000
    251        -17.729626   1.000000
    252        -17.728597   1.000000
    253        -17.725928   1.000000
    254        -17.723685   1.000000
    255        -17.709736   1.000000
    256        -17.708049   1.000000
    257        -17.706525   1.000000
    258        -17.704925   1.000000
    259        -17.702828   1.000000
    260        -17.696741   1.000000
    261        -17.687681   1.000000
    262        -17.687589   1.000000
    263        -17.685689   1.000000
    264        -17.684750   1.000000
    265        -17.684642   1.000000
    266        -17.682732   1.000000
    267        -17.682369   1.000000
    268        -17.680700   1.000000
    269        -17.678255   1.000000
    270        -17.674999   1.000000
    271        -17.674781   1.000000
    272        -17.671838   1.000000
    273        -17.670125   1.000000
    274        -17.670012   1.000000
    275        -17.666232   1.000000
    276        -17.662213   1.000000
    277        -17.660138   1.000000
    278        -17.659869   1.000000
    279        -17.659206   1.000000
    280        -17.649490   1.000000
    281        -17.648209   1.000000
    282        -17.647217   1.000000
    283        -17.647180   1.000000
    284        -17.645621   1.000000
    285        -17.644453   1.000000
    286        -17.643364   1.000000
    287        -17.641306   1.000000
    288        -17.640173   1.000000
    289        -17.639052   1.000000
    290        -17.638494   1.000000
    291        -17.635939   1.000000
    292        -17.634023   1.000000
    293        -17.633480   1.000000
    294        -17.632618   1.000000
    295        -17.631238   1.000000
    296        -17.629823   1.000000
    297        -17.629465   1.000000
    298        -17.628179   1.000000
    299        -17.625353   1.000000
    300        -17.624697   1.000000
    301        -17.623939   1.000000
    302        -17.623760   1.000000
    303        -17.622681   1.000000
    304        -17.620041   1.000000
    305        -17.619141   1.000000
    306        -17.619085   1.000000
    307        -17.618304   1.000000
    308        -17.617815   1.000000
    309        -17.616326   1.000000
    310        -17.615946   1.000000
    311        -17.614860   1.000000
    312        -17.606758   1.000000
    313        -17.605803   1.000000
    314        -17.605040   1.000000
    315        -17.604243   1.000000
    316        -17.603448   1.000000
    317        -17.597175   1.000000
    318        -17.596589   1.000000
    319        -17.595300   1.000000
    320        -17.595124   1.000000
    321        -17.593156   1.000000
    322        -17.592864   1.000000
    323        -17.584850   1.000000
    324        -17.582712   1.000000
    325        -17.581618   1.000000
    326        -17.581088   1.000000
    327        -17.580784   1.000000
    328        -17.579885   1.000000
    329        -17.578963   1.000000
    330        -17.577814   1.000000
    331        -17.577619   1.000000
    332        -17.571591   1.000000
    333        -17.569428   1.000000
    334        -17.569068   1.000000
    335        -17.567377   1.000000
    336        -17.567063   1.000000
    337        -17.565630   1.000000
    338        -17.565190   1.000000
    339        -17.563855   1.000000
    340        -17.563787   1.000000
    341        -17.560843   1.000000
    342        -17.560098   1.000000
    343        -17.558936   1.000000
    344        -17.554868   1.000000
    345        -17.553490   1.000000
    346        -17.550822   1.000000
    347        -17.549632   1.000000
    348        -17.547601   1.000000
    349        -17.547236   1.000000
    350        -17.546208   1.000000
    351        -17.545921   1.000000
    352        -17.543485   1.000000
    353        -17.541538   1.000000
    354        -17.536481   1.000000
    355        -17.535654   1.000000
    356        -17.529202   1.000000
    357        -17.522210   1.000000
    358        -17.520545   1.000000
    359        -17.516639   1.000000
    360        -17.516365   1.000000
    361        -17.514225   1.000000
    362        -17.512573   1.000000
    363        -17.512182   1.000000
    364        -17.506310   1.000000
    365        -17.503645   1.000000
    366        -17.500728   1.000000
    367        -17.499597   1.000000
    368        -17.498051   1.000000
    369        -17.497995   1.000000
    370        -17.496753   1.000000
    371        -17.493445   1.000000
    372        -17.489721   1.000000
    373        -17.489338   1.000000
    374        -17.481723   1.000000
    375        -17.481232   1.000000
    376        -17.478842   1.000000
    377        -17.475576   1.000000
    378        -17.475114   1.000000
    379        -17.469209   1.000000
    380        -17.454555   1.000000
    381        -17.448177   1.000000
    382        -17.439285   1.000000
    383        -17.435484   1.000000
    384        -17.426861   1.000000
    385          2.684724   1.000000
    386          3.573818   1.000000
    387          3.870174   1.000000
    388          4.334028   1.000000
    389          4.570850   1.000000
    390          4.652950   1.000000
    391          4.705636   1.000000
    392          4.823008   1.000000
    393          4.877873   1.000000
    394          4.951274   1.000000
    395          5.251931   1.000000
    396          5.275107   1.000000
    397          5.359719   1.000000
    398          5.404691   1.000000
    399          5.423350   1.000000
    400          5.453897   1.000000
    401          5.512277   1.000000
    402          5.592077   1.000000
    403          5.692502   1.000000
    404          5.741132   1.000000
    405          5.962179   1.000000
    406          5.967281   1.000000
    407          5.986661   1.000000
    408          5.990146   1.000000
    409          6.000014   1.000000
    410          6.012933   1.000000
    411          6.019627   1.000000
    412          6.033497   1.000000
    413          6.040381   1.000000
    414          6.052692   1.000000
    415          6.075464   1.000000
    416          6.104732   1.000000
    417          6.144448   1.000000
    418          6.203330   1.000000
    419          6.213916   1.000000
    420          6.241761   1.000000
    421          6.248301   1.000000
    422          6.267307   1.000000
    423          6.290346   1.000000
    424          6.294027   1.000000
    425          6.308421   1.000000
    426          6.323282   1.000000
    427          6.327524   1.000000
    428          6.339692   1.000000
    429          6.365635   1.000000
    430          6.394900   1.000000
    431          6.439645   1.000000
    432          6.517258   1.000000
    433          6.523112   1.000000
    434          6.524226   1.000000
    435          6.525343   1.000000
    436          6.532473   1.000000
    437          6.536667   1.000000
    438          6.540018   1.000000
    439          6.576467   1.000000
    440          6.588551   1.000000
    441          6.588981   1.000000
    442          6.591275   1.000000
    443          6.640153   1.000000
    444          6.646155   1.000000
    445          6.655198   1.000000
    446          6.675070   1.000000
    447          6.697337   1.000000
    448          6.703415   1.000000
    449          6.719814   1.000000
    450          6.770406   1.000000
    451          6.818173   1.000000
    452          6.856254   1.000000
    453          6.864789   1.000000
    454          6.887288   1.000000
    455          6.900797   1.000000
    456          6.921947   1.000000
    457          6.926101   1.000000
    458          6.926310   1.000000
    459          6.928944   1.000000
    460          6.930316   1.000000
    461          6.933106   1.000000
    462          6.933426   1.000000
    463          7.010693   1.000000
    464          7.054028   1.000000
    465          7.061492   1.000000
    466          7.065776   1.000000
    467          7.065847   1.000000
    468          7.073954   1.000000
    469          7.076560   1.000000
    470          7.077422   1.000000
    471          7.105541   1.000000
    472          7.133721   1.000000
    473          7.164591   1.000000
    474          7.165403   1.000000
    475          7.170552   1.000000
    476          7.179602   1.000000
    477          7.183303   1.000000
    478          7.186690   1.000000
    479          7.186902   1.000000
    480          7.246951   1.000000
    481          7.254708   1.000000
    482          7.256948   1.000000
    483          7.263061   1.000000
    484          7.279545   1.000000
    485          7.299579   1.000000
    486          7.424023   1.000000
    487          7.439264   1.000000
    488          7.446432   1.000000
    489          7.462587   1.000000
    490          7.469209   1.000000
    491          7.486093   1.000000
    492          7.508593   1.000000
    493          7.524059   1.000000
    494          7.540516   1.000000
    495          7.546929   1.000000
    496          7.559247   1.000000
    497          7.576755   1.000000
    498          7.603130   1.000000
    499          7.605488   1.000000
    500          7.617940   1.000000
    501          7.633108   1.000000
    502          7.656711   1.000000
    503          7.666871   1.000000
    504          7.672357   1.000000
    505          7.795125   1.000000
    506          7.806254   1.000000
    507          7.824576   1.000000
    508          7.829234   1.000000
    509          7.871039   1.000000
    510          7.877009   1.000000
    511          7.887195   1.000000
    512          7.900489   1.000000
    513          7.912645   1.000000
    514          7.938729   1.000000
    515          7.944030   1.000000
    516          7.945564   1.000000
    517          7.964978   1.000000
    518          7.965655   1.000000
    519          7.988511   1.000000
    520          7.999240   1.000000
    521          8.013749   1.000000
    522          8.025541   1.000000
    523          8.035253   1.000000
    524          8.038441   1.000000
    525          8.043154   1.000000
    526          8.043671   1.000000
    527          8.053419   1.000000
    528          8.058354   1.000000
    529          8.058477   1.000000
    530          8.062648   1.000000
    531          8.084329   1.000000
    532          8.090901   1.000000
    533          8.099500   1.000000
    534          8.101108   1.000000
    535          8.114594   1.000000
    536          8.143095   1.000000
    537          8.144540   1.000000
    538          8.147584   1.000000
    539          8.148759   1.000000
    540          8.154384   1.000000
    541          8.175607   1.000000
    542          8.218051   1.000001
    543          8.256287   1.000005
    544          8.261208   1.000005
    545          8.281157   1.000010
    546          8.311442   1.000026
    547          8.320813   1.000035
    548          8.330754   1.000047
    549          8.337019   1.000056
    550          8.346143   1.000073
    551          8.351334   1.000084
    552          8.369020   1.000137
    553          8.387105   1.000223
    554          8.396346   1.000283
    555          8.409739   1.000397
    556          8.426169   1.000593
    557          8.432110   1.000683
    558          8.435380   1.000738
    559          8.437067   1.000768
    560          8.442265   1.000866
    561          8.444339   1.000909
    562          8.447999   1.000988
    563          8.452438   1.001093
    564          8.463006   1.001381
    565          8.491619   1.002521
    566          8.545132   1.006790
    567          8.549079   1.007253
    568          8.557757   1.008352
    569          8.681486   1.032884
    570          8.754193   1.025558
    571          8.762554   1.020772
    572          8.767522   1.017375
    573          8.793778   0.991637
    574          8.867955   0.832581
    575          8.914983   0.665759
    576          8.926219   0.620533
    577          8.939434   0.565785
    578          8.981663   0.388422
    579          8.987017   0.366567
    580          8.998371   0.321311
    581          9.042501   0.166233
    582          9.044522   0.160118
    583          9.069016   0.093944
    584          9.073811   0.082748
    585          9.091851   0.045806
    586          9.106148   0.022208
    587          9.127354  -0.004172
    588          9.155253  -0.025241
    589          9.157045  -0.026139
    590          9.180358  -0.033769
    591          9.181458  -0.033963
    592          9.185017  -0.034504
    593          9.187689  -0.034826
    594          9.192353  -0.035222
    595          9.195980  -0.035394
    596          9.196065  -0.035397
    597          9.199063  -0.035455
    598          9.201400  -0.035450
    599          9.205411  -0.035348
    600          9.207668  -0.035242
    601          9.211114  -0.035016
    602          9.232501  -0.032225
    603          9.240987  -0.030634
    604          9.256324  -0.027363
    605          9.258266  -0.026925
    606          9.306294  -0.016166
    607          9.342858  -0.009684
    608          9.370475  -0.006180
    609          9.391826  -0.004221
    610          9.409025  -0.003040
    611          9.415919  -0.002652
    612          9.427768  -0.002083
    613          9.445098  -0.001442
    614          9.458564  -0.001070
    615          9.466578  -0.000891
    616          9.478213  -0.000679
    617          9.478325  -0.000678
    618          9.483650  -0.000597
    619          9.484569  -0.000584
    620          9.489919  -0.000513
    621          9.498425  -0.000416
    622          9.498665  -0.000414
    623          9.503645  -0.000365
    624          9.505424  -0.000349
    625          9.514920  -0.000274
    626          9.546304  -0.000119
    627          9.557409  -0.000087
    628          9.573963  -0.000054
    629          9.592881  -0.000031
    630          9.605555  -0.000021
    631          9.608480  -0.000019
    632          9.619352  -0.000014
    633          9.621532  -0.000013
    634          9.625964  -0.000011
    635          9.646203  -0.000006
    636          9.650507  -0.000005
    637          9.667450  -0.000003
    638          9.671565  -0.000002
    639          9.681243  -0.000002
    640          9.692374  -0.000001
    641          9.741453  -0.000000
    642          9.744829  -0.000000
    643          9.773838  -0.000000
    644          9.796985  -0.000000
    645          9.844680  -0.000000
    646          9.866083  -0.000000
    647          9.870452  -0.000000
    648          9.874294  -0.000000
    649          9.884438  -0.000000
    650          9.888381  -0.000000
    651          9.907986  -0.000000
    652          9.916997  -0.000000
    653          9.926203  -0.000000
    654          9.931898  -0.000000
    655          9.942130  -0.000000
    656          9.947444  -0.000000
    657          9.960808  -0.000000
    658          9.975475  -0.000000
    659          9.981379  -0.000000
    660          9.985659  -0.000000
    661          9.989691  -0.000000
    662         10.004033  -0.000000
    663         10.006641  -0.000000
    664         10.015582  -0.000000
    665         10.016558  -0.000000
    666         10.020452  -0.000000
    667         10.022158  -0.000000
    668         10.025925  -0.000000
    669         10.032924  -0.000000
    670         10.086984  -0.000000
    671         10.108262  -0.000000
    672         10.112279  -0.000000
    673         10.121700  -0.000000
    674         10.163425  -0.000000
    675         10.165970  -0.000000
    676         10.198730  -0.000000
    677         10.199130  -0.000000
    678         10.220704  -0.000000
    679         10.225374  -0.000000
    680         10.228699  -0.000000
    681         10.249348  -0.000000
    682         10.250641  -0.000000
    683         10.259110  -0.000000
    684         10.266249  -0.000000
    685         10.268782  -0.000000
    686         10.277337  -0.000000
    687         10.285088  -0.000000
    688         10.298054  -0.000000
    689         10.301500  -0.000000
    690         10.303598  -0.000000
    691         10.309005  -0.000000
 
  0.1345275E-16  0.2500000E+00  0.3333333E+00  0.4166667E-01
      1        -39.894811   1.000000
      2        -39.882378   1.000000
      3        -39.863886   1.000000
      4        -39.852990   1.000000
      5        -39.850739   1.000000
      6        -39.849297   1.000000
      7        -39.842197   1.000000
      8        -39.839629   1.000000
      9        -39.837482   1.000000
     10        -39.826908   1.000000
     11        -39.825044   1.000000
     12        -39.819510   1.000000
     13        -39.817940   1.000000
     14        -39.816414   1.000000
     15        -39.814080   1.000000
     16        -39.812658   1.000000
     17        -39.808191   1.000000
     18        -39.805125   1.000000
     19        -39.802954   1.000000
     20        -39.795641   1.000000
     21        -39.791818   1.000000
     22        -39.789098   1.000000
     23        -39.788030   1.000000
     24        -39.786271   1.000000
     25        -39.785166   1.000000
     26        -39.783369   1.000000
     27        -39.782504   1.000000
     28        -39.779946   1.000000
     29        -39.779430   1.000000
     30        -39.776293   1.000000
     31        -39.774020   1.000000
     32        -39.772608   1.000000
     33        -39.770729   1.000000
     34        -39.769487   1.000000
     35        -39.768436   1.000000
     36        -39.767669   1.000000
     37        -39.767324   1.000000
     38        -39.767029   1.000000
     39        -39.765047   1.000000
     40        -39.763848   1.000000
     41        -39.763497   1.000000
     42        -39.762946   1.000000
     43        -39.761846   1.000000
     44        -39.760491   1.000000
     45        -39.759331   1.000000
     46        -39.758059   1.000000
     47        -39.754914   1.000000
     48        -39.754455   1.000000
     49        -39.753156   1.000000
     50        -39.752047   1.000000
     51        -39.751789   1.000000
     52        -39.750713   1.000000
     53        -39.749352   1.000000
     54        -39.749223   1.000000
     55        -39.748422   1.000000
     56        -39.748093   1.000000
     57        -39.747506   1.000000
     58        -39.746499   1.000000
     59        -39.745966   1.000000
     60        -39.744782   1.000000
     61        -39.743365   1.000000
     62        -39.743004   1.000000
     63        -39.741930   1.000000
     64        -39.740921   1.000000
     65        -39.740428   1.000000
     66        -39.739841   1.000000
     67        -39.739202   1.000000
     68        -39.738925   1.000000
     69        -39.737197   1.000000
     70        -39.736591   1.000000
     71        -39.735575   1.000000
     72        -39.734756   1.000000
     73        -39.734488   1.000000
     74        -39.733501   1.000000
     75        -39.731916   1.000000
     76        -39.729787   1.000000
     77        -39.729389   1.000000
     78        -39.728645   1.000000
     79        -39.727014   1.000000
     80        -39.726609   1.000000
     81        -39.726070   1.000000
     82        -39.725321   1.000000
     83        -39.724820   1.000000
     84        -39.724594   1.000000
     85        -39.724383   1.000000
     86        -39.723688   1.000000
     87        -39.722585   1.000000
     88        -39.721541   1.000000
     89        -39.721088   1.000000
     90        -39.719876   1.000000
     91        -39.719310   1.000000
     92        -39.719097   1.000000
     93        -39.717864   1.000000
     94        -39.715092   1.000000
     95        -39.714409   1.000000
     96        -39.712975   1.000000
     97        -18.377499   1.000000
     98        -18.316743   1.000000
     99        -18.314222   1.000000
    100        -18.308020   1.000000
    101        -18.300002   1.000000
    102        -18.298200   1.000000
    103        -18.295899   1.000000
    104        -18.295050   1.000000
    105        -18.290830   1.000000
    106        -18.282763   1.000000
    107        -18.280640   1.000000
    108        -18.272531   1.000000
    109        -18.261867   1.000000
    110        -18.260377   1.000000
    111        -18.256973   1.000000
    112        -18.254772   1.000000
    113        -18.248399   1.000000
    114        -18.241505   1.000000
    115        -18.237168   1.000000
    116        -18.234732   1.000000
    117        -18.221337   1.000000
    118        -18.220938   1.000000
    119        -18.218005   1.000000
    120        -18.216810   1.000000
    121        -18.212944   1.000000
    122        -18.211205   1.000000
    123        -18.207755   1.000000
    124        -18.205624   1.000000
    125        -18.204876   1.000000
    126        -18.203025   1.000000
    127        -18.202059   1.000000
    128        -18.201735   1.000000
    129        -18.201462   1.000000
    130        -18.200601   1.000000
    131        -18.198527   1.000000
    132        -18.197526   1.000000
    133        -18.196818   1.000000
    134        -18.185527   1.000000
    135        -18.180230   1.000000
    136        -18.178838   1.000000
    137        -18.173974   1.000000
    138        -18.171272   1.000000
    139        -18.168991   1.000000
    140        -18.167862   1.000000
    141        -18.166167   1.000000
    142        -18.160996   1.000000
    143        -18.159405   1.000000
    144        -18.156183   1.000000
    145        -18.154345   1.000000
    146        -18.144885   1.000000
    147        -18.139138   1.000000
    148        -18.138801   1.000000
    149        -18.135806   1.000000
    150        -18.134922   1.000000
    151        -18.130082   1.000000
    152        -18.128155   1.000000
    153        -18.121174   1.000000
    154        -18.118202   1.000000
    155        -18.116631   1.000000
    156        -18.112590   1.000000
    157        -18.110436   1.000000
    158        -18.093548   1.000000
    159        -18.091555   1.000000
    160        -18.084366   1.000000
    161        -18.080979   1.000000
    162        -18.080046   1.000000
    163        -18.076765   1.000000
    164        -18.075726   1.000000
    165        -18.074037   1.000000
    166        -18.073251   1.000000
    167        -18.065902   1.000000
    168        -18.063424   1.000000
    169        -18.060419   1.000000
    170        -18.058992   1.000000
    171        -18.052736   1.000000
    172        -18.052043   1.000000
    173        -18.051148   1.000000
    174        -18.025781   1.000000
    175        -17.998966   1.000000
    176        -17.991863   1.000000
    177        -17.983336   1.000000
    178        -17.982554   1.000000
    179        -17.970543   1.000000
    180        -17.959419   1.000000
    181        -17.955922   1.000000
    182        -17.953872   1.000000
    183        -17.952317   1.000000
    184        -17.950396   1.000000
    185        -17.948354   1.000000
    186        -17.945320   1.000000
    187        -17.944895   1.000000
    188        -17.940943   1.000000
    189        -17.939844   1.000000
    190        -17.936330   1.000000
    191        -17.933795   1.000000
    192        -17.932888   1.000000
    193        -17.930569   1.000000
    194        -17.927802   1.000000
    195        -17.916341   1.000000
    196        -17.913317   1.000000
    197        -17.904772   1.000000
    198        -17.897419   1.000000
    199        -17.895837   1.000000
    200        -17.884531   1.000000
    201        -17.879665   1.000000
    202        -17.875092   1.000000
    203        -17.872650   1.000000
    204        -17.871375   1.000000
    205        -17.868775   1.000000
    206        -17.862168   1.000000
    207        -17.861175   1.000000
    208        -17.860328   1.000000
    209        -17.859267   1.000000
    210        -17.857187   1.000000
    211        -17.856176   1.000000
    212        -17.854144   1.000000
    213        -17.853512   1.000000
    214        -17.852940   1.000000
    215        -17.837160   1.000000
    216        -17.834090   1.000000
    217        -17.832176   1.000000
    218        -17.830545   1.000000
    219        -17.828050   1.000000
    220        -17.825258   1.000000
    221        -17.822466   1.000000
    222        -17.820370   1.000000
    223        -17.808114   1.000000
    224        -17.805489   1.000000
    225        -17.799060   1.000000
    226        -17.797250   1.000000
    227        -17.796615   1.000000
    228        -17.795693   1.000000
    229        -17.794717   1.000000
    230        -17.793502   1.000000
    231        -17.788917   1.000000
    232        -17.786196   1.000000
    233        -17.781627   1.000000
    234        -17.780227   1.000000
    235        -17.770419   1.000000
    236        -17.768747   1.000000
    237        -17.766177   1.000000
    238        -17.765550   1.000000
    239        -17.762754   1.000000
    240        -17.762121   1.000000
    241        -17.759906   1.000000
    242        -17.750071   1.000000
    243        -17.749095   1.000000
    244        -17.748807   1.000000
    245        -17.746023   1.000000
    246        -17.742240   1.000000
    247        -17.741525   1.000000
    248        -17.739524   1.000000
    249        -17.736504   1.000000
    250        -17.731849   1.000000
    251        -17.730528   1.000000
    252        -17.727730   1.000000
    253        -17.724860   1.000000
    254        -17.723602   1.000000
    255        -17.712500   1.000000
    256        -17.710432   1.000000
    257        -17.706389   1.000000
    258        -17.704187   1.000000
    259        -17.701967   1.000000
    260        -17.696733   1.000000
    261        -17.690098   1.000000
    262        -17.686768   1.000000
    263        -17.685054   1.000000
    264        -17.684155   1.000000
    265        -17.683330   1.000000
    266        -17.682583   1.000000
    267        -17.681603   1.000000
    268        -17.680739   1.000000
    269        -17.678091   1.000000
    270        -17.673997   1.000000
    271        -17.672537   1.000000
    272        -17.671781   1.000000
    273        -17.670522   1.000000
    274        -17.669529   1.000000
    275        -17.668019   1.000000
    276        -17.664117   1.000000
    277        -17.660312   1.000000
    278        -17.659767   1.000000
    279        -17.658676   1.000000
    280        -17.650198   1.000000
    281        -17.649453   1.000000
    282        -17.648847   1.000000
    283        -17.648526   1.000000
    284        -17.646733   1.000000
    285        -17.644765   1.000000
    286        -17.643812   1.000000
    287        -17.641176   1.000000
    288        -17.640616   1.000000
    289        -17.639013   1.000000
    290        -17.637308   1.000000
    291        -17.635512   1.000000
    292        -17.634217   1.000000
    293        -17.633364   1.000000
    294        -17.632587   1.000000
    295        -17.631682   1.000000
    296        -17.630354   1.000000
    297        -17.629652   1.000000
    298        -17.627951   1.000000
    299        -17.627102   1.000000
    300        -17.625583   1.000000
    301        -17.623428   1.000000
    302        -17.622435   1.000000
    303        -17.620646   1.000000
    304        -17.619365   1.000000
    305        -17.618923   1.000000
    306        -17.618114   1.000000
    307        -17.617659   1.000000
    308        -17.617292   1.000000
    309        -17.616466   1.000000
    310        -17.615629   1.000000
    311        -17.614390   1.000000
    312        -17.606583   1.000000
    313        -17.605879   1.000000
    314        -17.605244   1.000000
    315        -17.604545   1.000000
    316        -17.602763   1.000000
    317        -17.596558   1.000000
    318        -17.595658   1.000000
    319        -17.594746   1.000000
    320        -17.593967   1.000000
    321        -17.592332   1.000000
    322        -17.591980   1.000000
    323        -17.586863   1.000000
    324        -17.582965   1.000000
    325        -17.582182   1.000000
    326        -17.581398   1.000000
    327        -17.581161   1.000000
    328        -17.579472   1.000000
    329        -17.578739   1.000000
    330        -17.577954   1.000000
    331        -17.577643   1.000000
    332        -17.572922   1.000000
    333        -17.570542   1.000000
    334        -17.569612   1.000000
    335        -17.567906   1.000000
    336        -17.567122   1.000000
    337        -17.565994   1.000000
    338        -17.564956   1.000000
    339        -17.563522   1.000000
    340        -17.562581   1.000000
    341        -17.560891   1.000000
    342        -17.560439   1.000000
    343        -17.558946   1.000000
    344        -17.553463   1.000000
    345        -17.552988   1.000000
    346        -17.550996   1.000000
    347        -17.549057   1.000000
    348        -17.548148   1.000000
    349        -17.547624   1.000000
    350        -17.546775   1.000000
    351        -17.546056   1.000000
    352        -17.543504   1.000000
    353        -17.541965   1.000000
    354        -17.536952   1.000000
    355        -17.534896   1.000000
    356        -17.529194   1.000000
    357        -17.522120   1.000000
    358        -17.520455   1.000000
    359        -17.517047   1.000000
    360        -17.516343   1.000000
    361        -17.514088   1.000000
    362        -17.513598   1.000000
    363        -17.512274   1.000000
    364        -17.506180   1.000000
    365        -17.502629   1.000000
    366        -17.500866   1.000000
    367        -17.499774   1.000000
    368        -17.498753   1.000000
    369        -17.496987   1.000000
    370        -17.496622   1.000000
    371        -17.493325   1.000000
    372        -17.490228   1.000000
    373        -17.489261   1.000000
    374        -17.481884   1.000000
    375        -17.481389   1.000000
    376        -17.478629   1.000000
    377        -17.476924   1.000000
    378        -17.474647   1.000000
    379        -17.469289   1.000000
    380        -17.454137   1.000000
    381        -17.448391   1.000000
    382        -17.438962   1.000000
    383        -17.435859   1.000000
    384        -17.426391   1.000000
    385          2.685704   1.000000
    386          3.573757   1.000000
    387          3.869713   1.000000
    388          4.331623   1.000000
    389          4.567988   1.000000
    390          4.652052   1.000000
    391          4.704157   1.000000
    392          4.820735   1.000000
    393          4.877155   1.000000
    394          4.962111   1.000000
    395          5.251585   1.000000
    396          5.284664   1.000000
    397          5.361781   1.000000
    398          5.403463   1.000000
    399          5.424922   1.000000
    400          5.456300   1.000000
    401          5.501725   1.000000
    402          5.592553   1.000000
    403          5.690765   1.000000
    404          5.735126   1.000000
    405          5.960226   1.000000
    406          5.963926   1.000000
    407          5.985456   1.000000
    408          5.991917   1.000000
    409          6.005487   1.000000
    410          6.011759   1.000000
    411          6.017452   1.000000
    412          6.029746   1.000000
    413          6.040013   1.000000
    414          6.061334   1.000000
    415          6.074891   1.000000
    416          6.099689   1.000000
    417          6.145997   1.000000
    418          6.204973   1.000000
    419          6.222122   1.000000
    420          6.236814   1.000000
    421          6.249012   1.000000
    422          6.255815   1.000000
    423          6.289726   1.000000
    424          6.299563   1.000000
    425          6.307959   1.000000
    426          6.317188   1.000000
    427          6.328904   1.000000
    428          6.344750   1.000000
    429          6.380362   1.000000
    430          6.390846   1.000000
    431          6.445801   1.000000
    432          6.511323   1.000000
    433          6.521850   1.000000
    434          6.526354   1.000000
    435          6.528702   1.000000
    436          6.531036   1.000000
    437          6.537919   1.000000
    438          6.543226   1.000000
    439          6.562018   1.000000
    440          6.583582   1.000000
    441          6.584873   1.000000
    442          6.589751   1.000000
    443          6.622067   1.000000
    444          6.644196   1.000000
    445          6.661172   1.000000
    446          6.679908   1.000000
    447          6.687391   1.000000
    448          6.705687   1.000000
    449          6.762064   1.000000
    450          6.771232   1.000000
    451          6.803999   1.000000
    452          6.854715   1.000000
    453          6.873356   1.000000
    454          6.886314   1.000000
    455          6.906519   1.000000
    456          6.921854   1.000000
    457          6.924349   1.000000
    458          6.926467   1.000000
    459          6.928000   1.000000
    460          6.928613   1.000000
    461          6.932398   1.000000
    462          6.936775   1.000000
    463          6.980766   1.000000
    464          7.055593   1.000000
    465          7.062195   1.000000
    466          7.063804   1.000000
    467          7.068263   1.000000
    468          7.072940   1.000000
    469          7.081362   1.000000
    470          7.084315   1.000000
    471          7.116138   1.000000
    472          7.132974   1.000000
    473          7.138409   1.000000
    474          7.166323   1.000000
    475          7.174959   1.000000
    476          7.179183   1.000000
    477          7.183556   1.000000
    478          7.186142   1.000000
    479          7.189292   1.000000
    480          7.239780   1.000000
    481          7.254253   1.000000
    482          7.261662   1.000000
    483          7.262603   1.000000
    484          7.292888   1.000000
    485          7.301483   1.000000
    486          7.406229   1.000000
    487          7.434342   1.000000
    488          7.443094   1.000000
    489          7.463648   1.000000
    490          7.476046   1.000000
    491          7.489048   1.000000
    492          7.513776   1.000000
    493          7.524119   1.000000
    494          7.533592   1.000000
    495          7.544422   1.000000
    496          7.558396   1.000000
    497          7.596491   1.000000
    498          7.603853   1.000000
    499          7.610055   1.000000
    500          7.616482   1.000000
    501          7.653223   1.000000
    502          7.659088   1.000000
    503          7.663320   1.000000
    504          7.670877   1.000000
    505          7.793713   1.000000
    506          7.807004   1.000000
    507          7.820287   1.000000
    508          7.834375   1.000000
    509          7.873660   1.000000
    510          7.880189   1.000000
    511          7.886972   1.000000
    512          7.905693   1.000000
    513          7.911258   1.000000
    514          7.919926   1.000000
    515          7.939117   1.000000
    516          7.949140   1.000000
    517          7.959954   1.000000
    518          7.968625   1.000000
    519          7.995074   1.000000
    520          8.001527   1.000000
    521          8.013671   1.000000
    522          8.023136   1.000000
    523          8.029530   1.000000
    524          8.037601   1.000000
    525          8.041724   1.000000
    526          8.043710   1.000000
    527          8.053380   1.000000
    528          8.054791   1.000000
    529          8.059576   1.000000
    530          8.063561   1.000000
    531          8.084515   1.000000
    532          8.094773   1.000000
    533          8.098065   1.000000
    534          8.101734   1.000000
    535          8.127795   1.000000
    536          8.142242   1.000000
    537          8.144737   1.000000
    538          8.147713   1.000000
    539          8.149802   1.000000
    540          8.157719   1.000000
    541          8.173994   1.000000
    542          8.217671   1.000001
    543          8.253494   1.000004
    544          8.259526   1.000005
    545          8.287397   1.000012
    546          8.309367   1.000025
    547          8.326509   1.000041
    548          8.329214   1.000045
    549          8.336187   1.000055
    550          8.350226   1.000082
    551          8.352634   1.000087
    552          8.365490   1.000125
    553          8.391242   1.000248
    554          8.396808   1.000286
    555          8.413983   1.000441
    556          8.418589   1.000494
    557          8.429964   1.000650
    558          8.433357   1.000704
    559          8.435562   1.000741
    560          8.438103   1.000787
    561          8.443092   1.000883
    562          8.448347   1.000996
    563          8.452407   1.001092
    564          8.467413   1.001520
    565          8.483665   1.002143
    566          8.535908   1.005799
    567          8.553395   1.007785
    568          8.560329   1.008700
    569          8.686368   1.033623
    570          8.748401   1.028235
    571          8.763175   1.020371
    572          8.773824   1.012431
    573          8.787329   0.999257
    574          8.864079   0.844257
    575          8.913264   0.672542
    576          8.933029   0.592489
    577          8.938559   0.569450
    578          8.972554   0.426181
    579          8.985785   0.371569
    580          9.001162   0.310455
    581          9.035744   0.187368
    582          9.052803   0.136091
    583          9.060131   0.116228
    584          9.076359   0.077033
    585          9.090043   0.049142
    586          9.113832   0.011506
    587          9.131529  -0.008244
    588          9.149827  -0.022210
    589          9.160488  -0.027731
    590          9.173202  -0.032167
    591          9.180438  -0.033783
    592          9.181417  -0.033956
    593          9.187217  -0.034774
    594          9.192054  -0.035202
    595          9.195085  -0.035362
    596          9.198470  -0.035449
    597          9.200570  -0.035457
    598          9.202295  -0.035438
    599          9.202961  -0.035424
    600          9.208395  -0.035200
    601          9.217849  -0.034372
    602          9.236763  -0.031452
    603          9.241544  -0.030523
    604          9.244603  -0.029901
    605          9.246557  -0.029493
    606          9.310593  -0.015299
    607          9.358837  -0.007515
    608          9.379328  -0.005295
    609          9.404242  -0.003337
    610          9.410247  -0.002968
    611          9.413817  -0.002766
    612          9.436067  -0.001750
    613          9.448607  -0.001335
    614          9.464268  -0.000940
    615          9.470220  -0.000819
    616          9.472313  -0.000780
    617          9.476801  -0.000702
    618          9.483332  -0.000601
    619          9.487101  -0.000549
    620          9.489220  -0.000522
    621          9.494764  -0.000456
    622          9.497230  -0.000429
    623          9.500939  -0.000391
    624          9.505248  -0.000351
    625          9.508332  -0.000325
    626          9.540396  -0.000140
    627          9.556205  -0.000090
    628          9.569789  -0.000061
    629          9.588177  -0.000036
    630          9.603114  -0.000023
    631          9.612470  -0.000017
    632          9.617279  -0.000015
    633          9.621752  -0.000013
    634          9.626673  -0.000011
    635          9.631031  -0.000010
    636          9.641299  -0.000007
    637          9.661186  -0.000004
    638          9.667049  -0.000003
    639          9.685306  -0.000002
    640          9.694670  -0.000001
    641          9.739302  -0.000000
    642          9.744380  -0.000000
    643          9.789164  -0.000000
    644          9.797682  -0.000000
    645          9.834872  -0.000000
    646          9.857950  -0.000000
    647          9.872842  -0.000000
    648          9.875686  -0.000000
    649          9.886767  -0.000000
    650          9.892540  -0.000000
    651          9.900866  -0.000000
    652          9.918621  -0.000000
    653          9.928442  -0.000000
    654          9.935273  -0.000000
    655          9.939763  -0.000000
    656          9.950798  -0.000000
    657          9.960414  -0.000000
    658          9.967063  -0.000000
    659          9.979070  -0.000000
    660          9.983555  -0.000000
    661          9.996610  -0.000000
    662         10.003376  -0.000000
    663         10.009802  -0.000000
    664         10.012365  -0.000000
    665         10.018132  -0.000000
    666         10.022099  -0.000000
    667         10.026299  -0.000000
    668         10.034141  -0.000000
    669         10.039487  -0.000000
    670         10.101203  -0.000000
    671         10.107246  -0.000000
    672         10.112338  -0.000000
    673         10.128537  -0.000000
    674         10.161750  -0.000000
    675         10.166609  -0.000000
    676         10.187870  -0.000000
    677         10.206117  -0.000000
    678         10.217847  -0.000000
    679         10.221375  -0.000000
    680         10.230330  -0.000000
    681         10.247972  -0.000000
    682         10.250608  -0.000000
    683         10.257150  -0.000000
    684         10.269099  -0.000000
    685         10.271009  -0.000000
    686         10.278396  -0.000000
    687         10.282272  -0.000000
    688         10.292900  -0.000000
    689         10.303300  -0.000000
    690         10.305525  -0.000000
    691         10.312257  -0.000000
 
 -0.2500000E+00  0.2500000E+00  0.3333333E+00  0.4166667E-01
      1        -39.894814   1.000000
      2        -39.882392   1.000000
      3        -39.863536   1.000000
      4        -39.854452   1.000000
      5        -39.849807   1.000000
      6        -39.849214   1.000000
      7        -39.841958   1.000000
      8        -39.839563   1.000000
      9        -39.837399   1.000000
     10        -39.827437   1.000000
     11        -39.825261   1.000000
     12        -39.819519   1.000000
     13        -39.817289   1.000000
     14        -39.815765   1.000000
     15        -39.814577   1.000000
     16        -39.812477   1.000000
     17        -39.808624   1.000000
     18        -39.804989   1.000000
     19        -39.803592   1.000000
     20        -39.795037   1.000000
     21        -39.792012   1.000000
     22        -39.789289   1.000000
     23        -39.787755   1.000000
     24        -39.785957   1.000000
     25        -39.785517   1.000000
     26        -39.783425   1.000000
     27        -39.782203   1.000000
     28        -39.780797   1.000000
     29        -39.779752   1.000000
     30        -39.775670   1.000000
     31        -39.773237   1.000000
     32        -39.771624   1.000000
     33        -39.770819   1.000000
     34        -39.769704   1.000000
     35        -39.768738   1.000000
     36        -39.767948   1.000000
     37        -39.767603   1.000000
     38        -39.766882   1.000000
     39        -39.765689   1.000000
     40        -39.764330   1.000000
     41        -39.763904   1.000000
     42        -39.762977   1.000000
     43        -39.761437   1.000000
     44        -39.760759   1.000000
     45        -39.759375   1.000000
     46        -39.755912   1.000000
     47        -39.755137   1.000000
     48        -39.754303   1.000000
     49        -39.753303   1.000000
     50        -39.752386   1.000000
     51        -39.751295   1.000000
     52        -39.751097   1.000000
     53        -39.750470   1.000000
     54        -39.749163   1.000000
     55        -39.748782   1.000000
     56        -39.748047   1.000000
     57        -39.747281   1.000000
     58        -39.746694   1.000000
     59        -39.746356   1.000000
     60        -39.744336   1.000000
     61        -39.743256   1.000000
     62        -39.742605   1.000000
     63        -39.741755   1.000000
     64        -39.741051   1.000000
     65        -39.740653   1.000000
     66        -39.739506   1.000000
     67        -39.739041   1.000000
     68        -39.738477   1.000000
     69        -39.737349   1.000000
     70        -39.737030   1.000000
     71        -39.736085   1.000000
     72        -39.735035   1.000000
     73        -39.733759   1.000000
     74        -39.733158   1.000000
     75        -39.731679   1.000000
     76        -39.730494   1.000000
     77        -39.729797   1.000000
     78        -39.728052   1.000000
     79        -39.726789   1.000000
     80        -39.726595   1.000000
     81        -39.726356   1.000000
     82        -39.725851   1.000000
     83        -39.724617   1.000000
     84        -39.724588   1.000000
     85        -39.723988   1.000000
     86        -39.723657   1.000000
     87        -39.722600   1.000000
     88        -39.721682   1.000000
     89        -39.720966   1.000000
     90        -39.720052   1.000000
     91        -39.719375   1.000000
     92        -39.719097   1.000000
     93        -39.717759   1.000000
     94        -39.715074   1.000000
     95        -39.714382   1.000000
     96        -39.712997   1.000000
     97        -18.377546   1.000000
     98        -18.316865   1.000000
     99        -18.314078   1.000000
    100        -18.307756   1.000000
    101        -18.300255   1.000000
    102        -18.297681   1.000000
    103        -18.296199   1.000000
    104        -18.295164   1.000000
    105        -18.290647   1.000000
    106        -18.282852   1.000000
    107        -18.280857   1.000000
    108        -18.272542   1.000000
    109        -18.261448   1.000000
    110        -18.260596   1.000000
    111        -18.256679   1.000000
    112        -18.254725   1.000000
    113        -18.248323   1.000000
    114        -18.241985   1.000000
    115        -18.237482   1.000000
    116        -18.235289   1.000000
    117        -18.221910   1.000000
    118        -18.220574   1.000000
    119        -18.217864   1.000000
    120        -18.216403   1.000000
    121        -18.212682   1.000000
    122        -18.210804   1.000000
    123        -18.206687   1.000000
    124        -18.205638   1.000000
    125        -18.204346   1.000000
    126        -18.203987   1.000000
    127        -18.202711   1.000000
    128        -18.201918   1.000000
    129        -18.201185   1.000000
    130        -18.199736   1.000000
    131        -18.198045   1.000000
    132        -18.197447   1.000000
    133        -18.196273   1.000000
    134        -18.185057   1.000000
    135        -18.181490   1.000000
    136        -18.178984   1.000000
    137        -18.174315   1.000000
    138        -18.171634   1.000000
    139        -18.169903   1.000000
    140        -18.167911   1.000000
    141        -18.167114   1.000000
    142        -18.162043   1.000000
    143        -18.160096   1.000000
    144        -18.155752   1.000000
    145        -18.154024   1.000000
    146        -18.145393   1.000000
    147        -18.138770   1.000000
    148        -18.138375   1.000000
    149        -18.136387   1.000000
    150        -18.135342   1.000000
    151        -18.128749   1.000000
    152        -18.127620   1.000000
    153        -18.121293   1.000000
    154        -18.116885   1.000000
    155        -18.115861   1.000000
    156        -18.113978   1.000000
    157        -18.111607   1.000000
    158        -18.093963   1.000000
    159        -18.092085   1.000000
    160        -18.082898   1.000000
    161        -18.079798   1.000000
    162        -18.079008   1.000000
    163        -18.075443   1.000000
    164        -18.075267   1.000000
    165        -18.074369   1.000000
    166        -18.072322   1.000000
    167        -18.063588   1.000000
    168        -18.062336   1.000000
    169        -18.061032   1.000000
    170        -18.059994   1.000000
    171        -18.054795   1.000000
    172        -18.053627   1.000000
    173        -18.051539   1.000000
    174        -18.025918   1.000000
    175        -18.001411   1.000000
    176        -17.988914   1.000000
    177        -17.983935   1.000000
    178        -17.982717   1.000000
    179        -17.971893   1.000000
    180        -17.960808   1.000000
    181        -17.956284   1.000000
    182        -17.952822   1.000000
    183        -17.951254   1.000000
    184        -17.949054   1.000000
    185        -17.947461   1.000000
    186        -17.945188   1.000000
    187        -17.943710   1.000000
    188        -17.943073   1.000000
    189        -17.941577   1.000000
    190        -17.938737   1.000000
    191        -17.936145   1.000000
    192        -17.934572   1.000000
    193        -17.927648   1.000000
    194        -17.925705   1.000000
    195        -17.915875   1.000000
    196        -17.912769   1.000000
    197        -17.903504   1.000000
    198        -17.895679   1.000000
    199        -17.892800   1.000000
    200        -17.887083   1.000000
    201        -17.879420   1.000000
    202        -17.874820   1.000000
    203        -17.873426   1.000000
    204        -17.872248   1.000000
    205        -17.869040   1.000000
    206        -17.863404   1.000000
    207        -17.862505   1.000000
    208        -17.861492   1.000000
    209        -17.859953   1.000000
    210        -17.858670   1.000000
    211        -17.857792   1.000000
    212        -17.855996   1.000000
    213        -17.852889   1.000000
    214        -17.850546   1.000000
    215        -17.836845   1.000000
    216        -17.833973   1.000000
    217        -17.830899   1.000000
    218        -17.829472   1.000000
    219        -17.828899   1.000000
    220        -17.825803   1.000000
    221        -17.819753   1.000000
    222        -17.817527   1.000000
    223        -17.807103   1.000000
    224        -17.804657   1.000000
    225        -17.800069   1.000000
    226        -17.798249   1.000000
    227        -17.796297   1.000000
    228        -17.795861   1.000000
    229        -17.793165   1.000000
    230        -17.792439   1.000000
    231        -17.787017   1.000000
    232        -17.785015   1.000000
    233        -17.782510   1.000000
    234        -17.779466   1.000000
    235        -17.773097   1.000000
    236        -17.770215   1.000000
    237        -17.767366   1.000000
    238        -17.766903   1.000000
    239        -17.763228   1.000000
    240        -17.762708   1.000000
    241        -17.761129   1.000000
    242        -17.752297   1.000000
    243        -17.749194   1.000000
    244        -17.748061   1.000000
    245        -17.745210   1.000000
    246        -17.742126   1.000000
    247        -17.741076   1.000000
    248        -17.738693   1.000000
    249        -17.735562   1.000000
    250        -17.732971   1.000000
    251        -17.729772   1.000000
    252        -17.728993   1.000000
    253        -17.726615   1.000000
    254        -17.723228   1.000000
    255        -17.709673   1.000000
    256        -17.708799   1.000000
    257        -17.706384   1.000000
    258        -17.704884   1.000000
    259        -17.703125   1.000000
    260        -17.696848   1.000000
    261        -17.687366   1.000000
    262        -17.686732   1.000000
    263        -17.685807   1.000000
    264        -17.684463   1.000000
    265        -17.683644   1.000000
    266        -17.683031   1.000000
    267        -17.682165   1.000000
    268        -17.680555   1.000000
    269        -17.678236   1.000000
    270        -17.675815   1.000000
    271        -17.673316   1.000000
    272        -17.672614   1.000000
    273        -17.670581   1.000000
    274        -17.669983   1.000000
    275        -17.666623   1.000000
    276        -17.662711   1.000000
    277        -17.660720   1.000000
    278        -17.659806   1.000000
    279        -17.659070   1.000000
    280        -17.650162   1.000000
    281        -17.648711   1.000000
    282        -17.647922   1.000000
    283        -17.646858   1.000000
    284        -17.645814   1.000000
    285        -17.644644   1.000000
    286        -17.642664   1.000000
    287        -17.640892   1.000000
    288        -17.640201   1.000000
    289        -17.639001   1.000000
    290        -17.638280   1.000000
    291        -17.636319   1.000000
    292        -17.634291   1.000000
    293        -17.633110   1.000000
    294        -17.632570   1.000000
    295        -17.630785   1.000000
    296        -17.630069   1.000000
    297        -17.629068   1.000000
    298        -17.627968   1.000000
    299        -17.626208   1.000000
    300        -17.624982   1.000000
    301        -17.623568   1.000000
    302        -17.622889   1.000000
    303        -17.621780   1.000000
    304        -17.620450   1.000000
    305        -17.619333   1.000000
    306        -17.618387   1.000000
    307        -17.618039   1.000000
    308        -17.617437   1.000000
    309        -17.616890   1.000000
    310        -17.615568   1.000000
    311        -17.614612   1.000000
    312        -17.606920   1.000000
    313        -17.605959   1.000000
    314        -17.605395   1.000000
    315        -17.604424   1.000000
    316        -17.603463   1.000000
    317        -17.596813   1.000000
    318        -17.596287   1.000000
    319        -17.595487   1.000000
    320        -17.595090   1.000000
    321        -17.593220   1.000000
    322        -17.591950   1.000000
    323        -17.586214   1.000000
    324        -17.582617   1.000000
    325        -17.581882   1.000000
    326        -17.581109   1.000000
    327        -17.580768   1.000000
    328        -17.579286   1.000000
    329        -17.578746   1.000000
    330        -17.578352   1.000000
    331        -17.576590   1.000000
    332        -17.571835   1.000000
    333        -17.570249   1.000000
    334        -17.569169   1.000000
    335        -17.567394   1.000000
    336        -17.566752   1.000000
    337        -17.565646   1.000000
    338        -17.564799   1.000000
    339        -17.563783   1.000000
    340        -17.563323   1.000000
    341        -17.561700   1.000000
    342        -17.560584   1.000000
    343        -17.558866   1.000000
    344        -17.554456   1.000000
    345        -17.552758   1.000000
    346        -17.550819   1.000000
    347        -17.549997   1.000000
    348        -17.548146   1.000000
    349        -17.547550   1.000000
    350        -17.546358   1.000000
    351        -17.545263   1.000000
    352        -17.544350   1.000000
    353        -17.541919   1.000000
    354        -17.536732   1.000000
    355        -17.534780   1.000000
    356        -17.529049   1.000000
    357        -17.522342   1.000000
    358        -17.520418   1.000000
    359        -17.517380   1.000000
    360        -17.516358   1.000000
    361        -17.514057   1.000000
    362        -17.513224   1.000000
    363        -17.511730   1.000000
    364        -17.506380   1.000000
    365        -17.503558   1.000000
    366        -17.500252   1.000000
    367        -17.499932   1.000000
    368        -17.498918   1.000000
    369        -17.497221   1.000000
    370        -17.496521   1.000000
    371        -17.493528   1.000000
    372        -17.490737   1.000000
    373        -17.488624   1.000000
    374        -17.481584   1.000000
    375        -17.480949   1.000000
    376        -17.478723   1.000000
    377        -17.476523   1.000000
    378        -17.474922   1.000000
    379        -17.469140   1.000000
    380        -17.454433   1.000000
    381        -17.448202   1.000000
    382        -17.438701   1.000000
    383        -17.436222   1.000000
    384        -17.426465   1.000000
    385          2.685665   1.000000
    386          3.574451   1.000000
    387          3.869036   1.000000
    388          4.329272   1.000000
    389          4.569590   1.000000
    390          4.652071   1.000000
    391          4.706860   1.000000
    392          4.821892   1.000000
    393          4.877022   1.000000
    394          4.959624   1.000000
    395          5.251448   1.000000
    396          5.280786   1.000000
    397          5.360402   1.000000
    398          5.403891   1.000000
    399          5.427494   1.000000
    400          5.454233   1.000000
    401          5.515783   1.000000
    402          5.579235   1.000000
    403          5.691814   1.000000
    404          5.738793   1.000000
    405          5.960253   1.000000
    406          5.967246   1.000000
    407          5.984934   1.000000
    408          5.989929   1.000000
    409          6.001570   1.000000
    410          6.014751   1.000000
    411          6.018457   1.000000
    412          6.031565   1.000000
    413          6.041269   1.000000
    414          6.055109   1.000000
    415          6.074353   1.000000
    416          6.111124   1.000000
    417          6.134476   1.000000
    418          6.202820   1.000000
    419          6.215726   1.000000
    420          6.241012   1.000000
    421          6.248121   1.000000
    422          6.266217   1.000000
    423          6.288870   1.000000
    424          6.296446   1.000000
    425          6.308221   1.000000
    426          6.320647   1.000000
    427          6.328680   1.000000
    428          6.347636   1.000000
    429          6.365903   1.000000
    430          6.394396   1.000000
    431          6.443285   1.000000
    432          6.515766   1.000000
    433          6.522424   1.000000
    434          6.524689   1.000000
    435          6.526232   1.000000
    436          6.532523   1.000000
    437          6.536053   1.000000
    438          6.541769   1.000000
    439          6.569526   1.000000
    440          6.586960   1.000000
    441          6.588813   1.000000
    442          6.591850   1.000000
    443          6.629327   1.000000
    444          6.649038   1.000000
    445          6.657522   1.000000
    446          6.679571   1.000000
    447          6.687364   1.000000
    448          6.704178   1.000000
    449          6.729373   1.000000
    450          6.769007   1.000000
    451          6.819686   1.000000
    452          6.855272   1.000000
    453          6.864552   1.000000
    454          6.885831   1.000000
    455          6.902485   1.000000
    456          6.921736   1.000000
    457          6.924451   1.000000
    458          6.927795   1.000000
    459          6.929625   1.000000
    460          6.929865   1.000000
    461          6.933010   1.000000
    462          6.934051   1.000000
    463          7.004971   1.000000
    464          7.054379   1.000000
    465          7.062133   1.000000
    466          7.065481   1.000000
    467          7.067688   1.000000
    468          7.074571   1.000000
    469          7.075441   1.000000
    470          7.076969   1.000000
    471          7.110821   1.000000
    472          7.133883   1.000000
    473          7.159291   1.000000
    474          7.164300   1.000000
    475          7.167866   1.000000
    476          7.178848   1.000000
    477          7.182800   1.000000
    478          7.187683   1.000000
    479          7.190114   1.000000
    480          7.243960   1.000000
    481          7.253000   1.000000
    482          7.261379   1.000000
    483          7.263116   1.000000
    484          7.281222   1.000000
    485          7.298178   1.000000
    486          7.406394   1.000000
    487          7.436132   1.000000
    488          7.449814   1.000000
    489          7.461612   1.000000
    490          7.469665   1.000000
    491          7.498884   1.000000
    492          7.515219   1.000000
    493          7.522693   1.000000
    494          7.537495   1.000000
    495          7.546929   1.000000
    496          7.564742   1.000000
    497          7.585591   1.000000
    498          7.604352   1.000000
    499          7.608735   1.000000
    500          7.617021   1.000000
    501          7.634277   1.000000
    502          7.658326   1.000000
    503          7.667986   1.000000
    504          7.673240   1.000000
    505          7.789454   1.000000
    506          7.812913   1.000000
    507          7.820000   1.000000
    508          7.832375   1.000000
    509          7.875409   1.000000
    510          7.879398   1.000000
    511          7.887580   1.000000
    512          7.906876   1.000000
    513          7.910790   1.000000
    514          7.939485   1.000000
    515          7.941712   1.000000
    516          7.948134   1.000000
    517          7.959283   1.000000
    518          7.969290   1.000000
    519          7.986323   1.000000
    520          8.002374   1.000000
    521          8.005199   1.000000
    522          8.027239   1.000000
    523          8.036967   1.000000
    524          8.038280   1.000000
    525          8.044266   1.000000
    526          8.046159   1.000000
    527          8.052616   1.000000
    528          8.054625   1.000000
    529          8.059523   1.000000
    530          8.062295   1.000000
    531          8.085163   1.000000
    532          8.094605   1.000000
    533          8.097284   1.000000
    534          8.100455   1.000000
    535          8.113649   1.000000
    536          8.142827   1.000000
    537          8.144651   1.000000
    538          8.147881   1.000000
    539          8.152091   1.000000
    540          8.155744   1.000000
    541          8.176405   1.000000
    542          8.212465   1.000001
    543          8.250842   1.000004
    544          8.269921   1.000007
    545          8.281187   1.000010
    546          8.308559   1.000024
    547          8.324293   1.000039
    548          8.331901   1.000048
    549          8.335232   1.000053
    550          8.343514   1.000067
    551          8.350776   1.000083
    552          8.366159   1.000127
    553          8.392856   1.000258
    554          8.397686   1.000293
    555          8.404545   1.000348
    556          8.423801   1.000560
    557          8.431636   1.000676
    558          8.433411   1.000705
    559          8.436637   1.000760
    560          8.440640   1.000835
    561          8.445292   1.000929
    562          8.448770   1.001006
    563          8.450495   1.001046
    564          8.466032   1.001475
    565          8.486794   1.002285
    566          8.540193   1.006244
    567          8.552350   1.007653
    568          8.560840   1.008771
    569          8.687632   1.033798
    570          8.737640   1.031958
    571          8.765730   1.018650
    572          8.774569   1.011797
    573          8.792880   0.992751
    574          8.881755   0.788200
    575          8.915896   0.662140
    576          8.929936   0.605276
    577          8.939449   0.565725
    578          8.960741   0.475863
    579          8.988988   0.358597
    580          8.997998   0.322772
    581          9.014463   0.260420
    582          9.057011   0.124522
    583          9.067994   0.096407
    584          9.078316   0.072757
    585          9.097974   0.035098
    586          9.113126   0.012434
    587          9.130896  -0.007649
    588          9.151753  -0.023340
    589          9.157188  -0.026209
    590          9.163862  -0.029123
    591          9.180619  -0.033816
    592          9.184803  -0.034476
    593          9.189397  -0.034994
    594          9.191453  -0.035161
    595          9.194569  -0.035341
    596          9.197139  -0.035426
    597          9.199223  -0.035456
    598          9.201915  -0.035444
    599          9.206385  -0.035307
    600          9.209215  -0.035150
    601          9.213299  -0.034835
    602          9.235768  -0.031637
    603          9.241513  -0.030530
    604          9.251260  -0.028484
    605          9.256836  -0.027248
    606          9.306911  -0.016040
    607          9.345167  -0.009345
    608          9.385522  -0.004738
    609          9.396850  -0.003842
    610          9.404564  -0.003316
    611          9.416701  -0.002611
    612          9.432987  -0.001868
    613          9.448749  -0.001331
    614          9.453754  -0.001191
    615          9.466198  -0.000899
    616          9.473190  -0.000765
    617          9.478597  -0.000673
    618          9.480851  -0.000638
    619          9.485208  -0.000575
    620          9.488547  -0.000530
    621          9.491427  -0.000494
    622          9.498159  -0.000419
    623          9.502310  -0.000378
    624          9.504118  -0.000361
    625          9.517572  -0.000256
    626          9.554701  -0.000094
    627          9.561172  -0.000079
    628          9.573600  -0.000055
    629          9.591601  -0.000032
    630          9.604692  -0.000022
    631          9.609314  -0.000019
    632          9.617091  -0.000015
    633          9.620429  -0.000013
    634          9.626493  -0.000011
    635          9.642382  -0.000007
    636          9.652924  -0.000005
    637          9.660350  -0.000004
    638          9.667677  -0.000003
    639          9.682720  -0.000002
    640          9.692784  -0.000001
    641          9.738335  -0.000000
    642          9.744627  -0.000000
    643          9.779680  -0.000000
    644          9.794381  -0.000000
    645          9.829437  -0.000000
    646          9.855863  -0.000000
    647          9.873536  -0.000000
    648          9.877933  -0.000000
    649          9.884917  -0.000000
    650          9.899854  -0.000000
    651          9.905986  -0.000000
    652          9.914515  -0.000000
    653          9.925038  -0.000000
    654          9.933716  -0.000000
    655          9.940998  -0.000000
    656          9.949986  -0.000000
    657          9.961363  -0.000000
    658          9.971778  -0.000000
    659          9.982320  -0.000000
    660          9.984372  -0.000000
    661          9.994949  -0.000000
    662          9.999985  -0.000000
    663         10.010689  -0.000000
    664         10.012702  -0.000000
    665         10.017399  -0.000000
    666         10.018368  -0.000000
    667         10.020678  -0.000000
    668         10.028160  -0.000000
    669         10.035756  -0.000000
    670         10.091631  -0.000000
    671         10.108117  -0.000000
    672         10.113966  -0.000000
    673         10.126972  -0.000000
    674         10.164711  -0.000000
    675         10.167929  -0.000000
    676         10.195548  -0.000000
    677         10.207621  -0.000000
    678         10.223712  -0.000000
    679         10.225420  -0.000000
    680         10.230602  -0.000000
    681         10.243246  -0.000000
    682         10.250343  -0.000000
    683         10.257569  -0.000000
    684         10.263511  -0.000000
    685         10.271224  -0.000000
    686         10.277290  -0.000000
    687         10.285383  -0.000000
    688         10.291010  -0.000000
    689         10.295769  -0.000000
    690         10.306174  -0.000000
    691         10.311809  -0.000000
 
 -0.2500000E+00  0.8988716E-17  0.3333333E+00  0.4166667E-01
      1        -39.894821   1.000000
      2        -39.882372   1.000000
      3        -39.863960   1.000000
      4        -39.853474   1.000000
      5        -39.849846   1.000000
      6        -39.849592   1.000000
      7        -39.840473   1.000000
      8        -39.839942   1.000000
      9        -39.838844   1.000000
     10        -39.826386   1.000000
     11        -39.825763   1.000000
     12        -39.819498   1.000000
     13        -39.818204   1.000000
     14        -39.817166   1.000000
     15        -39.813943   1.000000
     16        -39.811524   1.000000
     17        -39.807307   1.000000
     18        -39.804987   1.000000
     19        -39.804611   1.000000
     20        -39.794334   1.000000
     21        -39.794107   1.000000
     22        -39.790218   1.000000
     23        -39.786359   1.000000
     24        -39.786249   1.000000
     25        -39.784033   1.000000
     26        -39.782654   1.000000
     27        -39.782189   1.000000
     28        -39.780719   1.000000
     29        -39.779198   1.000000
     30        -39.776348   1.000000
     31        -39.773965   1.000000
     32        -39.772216   1.000000
     33        -39.770857   1.000000
     34        -39.769406   1.000000
     35        -39.768556   1.000000
     36        -39.767616   1.000000
     37        -39.767413   1.000000
     38        -39.766410   1.000000
     39        -39.765514   1.000000
     40        -39.765353   1.000000
     41        -39.763781   1.000000
     42        -39.762402   1.000000
     43        -39.761904   1.000000
     44        -39.759699   1.000000
     45        -39.759579   1.000000
     46        -39.756701   1.000000
     47        -39.756461   1.000000
     48        -39.754593   1.000000
     49        -39.753462   1.000000
     50        -39.752296   1.000000
     51        -39.751754   1.000000
     52        -39.750476   1.000000
     53        -39.749786   1.000000
     54        -39.749344   1.000000
     55        -39.748278   1.000000
     56        -39.748184   1.000000
     57        -39.747724   1.000000
     58        -39.747176   1.000000
     59        -39.745924   1.000000
     60        -39.744585   1.000000
     61        -39.743098   1.000000
     62        -39.742262   1.000000
     63        -39.741861   1.000000
     64        -39.740603   1.000000
     65        -39.740513   1.000000
     66        -39.739814   1.000000
     67        -39.738574   1.000000
     68        -39.738255   1.000000
     69        -39.737441   1.000000
     70        -39.736744   1.000000
     71        -39.735619   1.000000
     72        -39.734721   1.000000
     73        -39.734343   1.000000
     74        -39.733720   1.000000
     75        -39.732648   1.000000
     76        -39.730786   1.000000
     77        -39.728896   1.000000
     78        -39.727565   1.000000
     79        -39.727562   1.000000
     80        -39.726779   1.000000
     81        -39.725888   1.000000
     82        -39.725545   1.000000
     83        -39.725326   1.000000
     84        -39.724617   1.000000
     85        -39.723624   1.000000
     86        -39.723550   1.000000
     87        -39.722966   1.000000
     88        -39.722321   1.000000
     89        -39.720245   1.000000
     90        -39.719898   1.000000
     91        -39.719322   1.000000
     92        -39.719030   1.000000
     93        -39.717050   1.000000
     94        -39.715382   1.000000
     95        -39.714601   1.000000
     96        -39.713173   1.000000
     97        -18.377570   1.000000
     98        -18.316901   1.000000
     99        -18.314087   1.000000
    100        -18.307799   1.000000
    101        -18.300370   1.000000
    102        -18.298421   1.000000
    103        -18.295397   1.000000
    104        -18.295112   1.000000
    105        -18.290728   1.000000
    106        -18.282759   1.000000
    107        -18.280444   1.000000
    108        -18.272882   1.000000
    109        -18.261150   1.000000
    110        -18.261048   1.000000
    111        -18.257209   1.000000
    112        -18.254944   1.000000
    113        -18.247449   1.000000
    114        -18.242450   1.000000
    115        -18.237380   1.000000
    116        -18.234606   1.000000
    117        -18.221830   1.000000
    118        -18.220621   1.000000
    119        -18.217600   1.000000
    120        -18.217369   1.000000
    121        -18.213450   1.000000
    122        -18.211129   1.000000
    123        -18.207108   1.000000
    124        -18.204812   1.000000
    125        -18.204711   1.000000
    126        -18.202921   1.000000
    127        -18.202752   1.000000
    128        -18.201630   1.000000
    129        -18.201588   1.000000
    130        -18.199347   1.000000
    131        -18.199289   1.000000
    132        -18.197111   1.000000
    133        -18.196406   1.000000
    134        -18.185435   1.000000
    135        -18.180650   1.000000
    136        -18.179648   1.000000
    137        -18.174977   1.000000
    138        -18.170476   1.000000
    139        -18.169955   1.000000
    140        -18.167285   1.000000
    141        -18.166873   1.000000
    142        -18.161550   1.000000
    143        -18.159905   1.000000
    144        -18.156017   1.000000
    145        -18.153991   1.000000
    146        -18.144833   1.000000
    147        -18.138818   1.000000
    148        -18.138492   1.000000
    149        -18.136299   1.000000
    150        -18.135197   1.000000
    151        -18.129614   1.000000
    152        -18.128196   1.000000
    153        -18.120760   1.000000
    154        -18.117759   1.000000
    155        -18.116974   1.000000
    156        -18.112930   1.000000
    157        -18.110037   1.000000
    158        -18.093336   1.000000
    159        -18.091361   1.000000
    160        -18.084414   1.000000
    161        -18.080574   1.000000
    162        -18.079920   1.000000
    163        -18.076011   1.000000
    164        -18.075138   1.000000
    165        -18.074032   1.000000
    166        -18.072684   1.000000
    167        -18.066481   1.000000
    168        -18.063230   1.000000
    169        -18.060158   1.000000
    170        -18.060014   1.000000
    171        -18.052551   1.000000
    172        -18.051950   1.000000
    173        -18.050817   1.000000
    174        -18.026024   1.000000
    175        -17.998445   1.000000
    176        -17.992238   1.000000
    177        -17.982884   1.000000
    178        -17.982862   1.000000
    179        -17.970215   1.000000
    180        -17.958976   1.000000
    181        -17.955908   1.000000
    182        -17.953828   1.000000
    183        -17.953345   1.000000
    184        -17.949592   1.000000
    185        -17.948895   1.000000
    186        -17.945639   1.000000
    187        -17.944826   1.000000
    188        -17.940942   1.000000
    189        -17.940444   1.000000
    190        -17.938010   1.000000
    191        -17.933064   1.000000
    192        -17.932885   1.000000
    193        -17.930062   1.000000
    194        -17.927704   1.000000
    195        -17.915658   1.000000
    196        -17.913314   1.000000
    197        -17.904261   1.000000
    198        -17.898790   1.000000
    199        -17.896963   1.000000
    200        -17.884622   1.000000
    201        -17.879122   1.000000
    202        -17.875131   1.000000
    203        -17.873111   1.000000
    204        -17.870487   1.000000
    205        -17.869257   1.000000
    206        -17.861498   1.000000
    207        -17.861430   1.000000
    208        -17.859992   1.000000
    209        -17.859854   1.000000
    210        -17.858074   1.000000
    211        -17.855396   1.000000
    212        -17.854049   1.000000
    213        -17.853118   1.000000
    214        -17.851963   1.000000
    215        -17.837294   1.000000
    216        -17.834120   1.000000
    217        -17.832219   1.000000
    218        -17.830318   1.000000
    219        -17.827664   1.000000
    220        -17.825095   1.000000
    221        -17.822866   1.000000
    222        -17.820280   1.000000
    223        -17.808024   1.000000
    224        -17.805637   1.000000
    225        -17.799279   1.000000
    226        -17.796911   1.000000
    227        -17.796493   1.000000
    228        -17.795868   1.000000
    229        -17.794600   1.000000
    230        -17.794367   1.000000
    231        -17.787813   1.000000
    232        -17.786960   1.000000
    233        -17.781539   1.000000
    234        -17.780380   1.000000
    235        -17.769773   1.000000
    236        -17.768597   1.000000
    237        -17.766380   1.000000
    238        -17.765435   1.000000
    239        -17.762876   1.000000
    240        -17.762116   1.000000
    241        -17.760259   1.000000
    242        -17.750171   1.000000
    243        -17.749494   1.000000
    244        -17.748292   1.000000
    245        -17.746642   1.000000
    246        -17.742287   1.000000
    247        -17.740985   1.000000
    248        -17.739938   1.000000
    249        -17.735671   1.000000
    250        -17.733356   1.000000
    251        -17.731767   1.000000
    252        -17.728042   1.000000
    253        -17.724540   1.000000
    254        -17.724088   1.000000
    255        -17.712980   1.000000
    256        -17.709295   1.000000
    257        -17.706117   1.000000
    258        -17.703519   1.000000
    259        -17.701861   1.000000
    260        -17.696758   1.000000
    261        -17.689186   1.000000
    262        -17.687043   1.000000
    263        -17.685423   1.000000
    264        -17.684946   1.000000
    265        -17.684071   1.000000
    266        -17.681856   1.000000
    267        -17.681343   1.000000
    268        -17.679383   1.000000
    269        -17.677914   1.000000
    270        -17.673519   1.000000
    271        -17.673106   1.000000
    272        -17.671468   1.000000
    273        -17.671333   1.000000
    274        -17.670140   1.000000
    275        -17.668397   1.000000
    276        -17.663429   1.000000
    277        -17.660006   1.000000
    278        -17.659502   1.000000
    279        -17.658262   1.000000
    280        -17.649892   1.000000
    281        -17.649398   1.000000
    282        -17.648416   1.000000
    283        -17.647758   1.000000
    284        -17.646749   1.000000
    285        -17.645064   1.000000
    286        -17.644736   1.000000
    287        -17.641105   1.000000
    288        -17.640656   1.000000
    289        -17.639639   1.000000
    290        -17.637577   1.000000
    291        -17.635399   1.000000
    292        -17.633706   1.000000
    293        -17.633166   1.000000
    294        -17.632448   1.000000
    295        -17.632124   1.000000
    296        -17.629316   1.000000
    297        -17.628452   1.000000
    298        -17.628259   1.000000
    299        -17.626850   1.000000
    300        -17.626296   1.000000
    301        -17.624180   1.000000
    302        -17.622894   1.000000
    303        -17.620970   1.000000
    304        -17.619713   1.000000
    305        -17.619311   1.000000
    306        -17.618906   1.000000
    307        -17.617998   1.000000
    308        -17.617355   1.000000
    309        -17.616390   1.000000
    310        -17.615170   1.000000
    311        -17.614988   1.000000
    312        -17.607049   1.000000
    313        -17.605436   1.000000
    314        -17.605248   1.000000
    315        -17.604336   1.000000
    316        -17.603088   1.000000
    317        -17.596936   1.000000
    318        -17.596380   1.000000
    319        -17.594841   1.000000
    320        -17.593917   1.000000
    321        -17.592132   1.000000
    322        -17.591414   1.000000
    323        -17.586371   1.000000
    324        -17.582664   1.000000
    325        -17.582251   1.000000
    326        -17.581425   1.000000
    327        -17.581277   1.000000
    328        -17.579586   1.000000
    329        -17.578761   1.000000
    330        -17.577887   1.000000
    331        -17.577072   1.000000
    332        -17.573339   1.000000
    333        -17.570440   1.000000
    334        -17.569736   1.000000
    335        -17.568702   1.000000
    336        -17.567288   1.000000
    337        -17.565658   1.000000
    338        -17.564287   1.000000
    339        -17.563006   1.000000
    340        -17.562618   1.000000
    341        -17.561138   1.000000
    342        -17.560130   1.000000
    343        -17.558859   1.000000
    344        -17.553619   1.000000
    345        -17.553338   1.000000
    346        -17.550651   1.000000
    347        -17.549209   1.000000
    348        -17.548352   1.000000
    349        -17.547397   1.000000
    350        -17.547009   1.000000
    351        -17.546611   1.000000
    352        -17.543380   1.000000
    353        -17.542013   1.000000
    354        -17.536284   1.000000
    355        -17.535374   1.000000
    356        -17.529171   1.000000
    357        -17.522576   1.000000
    358        -17.520811   1.000000
    359        -17.516739   1.000000
    360        -17.515842   1.000000
    361        -17.514430   1.000000
    362        -17.513378   1.000000
    363        -17.512438   1.000000
    364        -17.505974   1.000000
    365        -17.502102   1.000000
    366        -17.500120   1.000000
    367        -17.500013   1.000000
    368        -17.498412   1.000000
    369        -17.497718   1.000000
    370        -17.496820   1.000000
    371        -17.493079   1.000000
    372        -17.489921   1.000000
    373        -17.489159   1.000000
    374        -17.481352   1.000000
    375        -17.481157   1.000000
    376        -17.478483   1.000000
    377        -17.476381   1.000000
    378        -17.474978   1.000000
    379        -17.469749   1.000000
    380        -17.454436   1.000000
    381        -17.447643   1.000000
    382        -17.439314   1.000000
    383        -17.436002   1.000000
    384        -17.426858   1.000000
    385          2.684653   1.000000
    386          3.574913   1.000000
    387          3.869150   1.000000
    388          4.332994   1.000000
    389          4.571700   1.000000
    390          4.652876   1.000000
    391          4.701223   1.000000
    392          4.821277   1.000000
    393          4.878081   1.000000
    394          4.959232   1.000000
    395          5.252294   1.000000
    396          5.282643   1.000000
    397          5.362475   1.000000
    398          5.403874   1.000000
    399          5.419993   1.000000
    400          5.453861   1.000000
    401          5.504745   1.000000
    402          5.595992   1.000000
    403          5.691511   1.000000
    404          5.729621   1.000000
    405          5.959799   1.000000
    406          5.964866   1.000000
    407          5.984598   1.000000
    408          5.992734   1.000000
    409          6.003472   1.000000
    410          6.010933   1.000000
    411          6.018967   1.000000
    412          6.031588   1.000000
    413          6.040318   1.000000
    414          6.064878   1.000000
    415          6.075232   1.000000
    416          6.097665   1.000000
    417          6.153365   1.000000
    418          6.205285   1.000000
    419          6.221421   1.000000
    420          6.241254   1.000000
    421          6.247336   1.000000
    422          6.253984   1.000000
    423          6.291267   1.000000
    424          6.301405   1.000000
    425          6.307093   1.000000
    426          6.315713   1.000000
    427          6.329677   1.000000
    428          6.343101   1.000000
    429          6.383729   1.000000
    430          6.391035   1.000000
    431          6.443605   1.000000
    432          6.514912   1.000000
    433          6.521119   1.000000
    434          6.526900   1.000000
    435          6.527431   1.000000
    436          6.530349   1.000000
    437          6.538508   1.000000
    438          6.540601   1.000000
    439          6.561005   1.000000
    440          6.582953   1.000000
    441          6.584747   1.000000
    442          6.591983   1.000000
    443          6.615204   1.000000
    444          6.645345   1.000000
    445          6.660961   1.000000
    446          6.677556   1.000000
    447          6.686702   1.000000
    448          6.706519   1.000000
    449          6.762830   1.000000
    450          6.770072   1.000000
    451          6.805380   1.000000
    452          6.855997   1.000000
    453          6.877441   1.000000
    454          6.887741   1.000000
    455          6.902130   1.000000
    456          6.924223   1.000000
    457          6.924758   1.000000
    458          6.925243   1.000000
    459          6.928309   1.000000
    460          6.928930   1.000000
    461          6.931992   1.000000
    462          6.938021   1.000000
    463          6.986632   1.000000
    464          7.057145   1.000000
    465          7.063005   1.000000
    466          7.063210   1.000000
    467          7.071316   1.000000
    468          7.073227   1.000000
    469          7.082697   1.000000
    470          7.083225   1.000000
    471          7.103793   1.000000
    472          7.131988   1.000000
    473          7.137984   1.000000
    474          7.167327   1.000000
    475          7.175493   1.000000
    476          7.179495   1.000000
    477          7.183075   1.000000
    478          7.186419   1.000000
    479          7.186709   1.000000
    480          7.243660   1.000000
    481          7.257125   1.000000
    482          7.259439   1.000000
    483          7.263642   1.000000
    484          7.294765   1.000000
    485          7.300218   1.000000
    486          7.414998   1.000000
    487          7.436058   1.000000
    488          7.437702   1.000000
    489          7.464846   1.000000
    490          7.465258   1.000000
    491          7.488859   1.000000
    492          7.508029   1.000000
    493          7.524887   1.000000
    494          7.531805   1.000000
    495          7.544185   1.000000
    496          7.563804   1.000000
    497          7.595447   1.000000
    498          7.604619   1.000000
    499          7.605228   1.000000
    500          7.617536   1.000000
    501          7.657456   1.000000
    502          7.657804   1.000000
    503          7.663737   1.000000
    504          7.669934   1.000000
    505          7.789812   1.000000
    506          7.806644   1.000000
    507          7.823095   1.000000
    508          7.837907   1.000000
    509          7.872304   1.000000
    510          7.874242   1.000000
    511          7.887089   1.000000
    512          7.900593   1.000000
    513          7.911476   1.000000
    514          7.922706   1.000000
    515          7.947098   1.000000
    516          7.947824   1.000000
    517          7.959361   1.000000
    518          7.970895   1.000000
    519          7.995058   1.000000
    520          8.000285   1.000000
    521          8.003755   1.000000
    522          8.021714   1.000000
    523          8.032017   1.000000
    524          8.039105   1.000000
    525          8.040547   1.000000
    526          8.043186   1.000000
    527          8.054455   1.000000
    528          8.056640   1.000000
    529          8.056814   1.000000
    530          8.067643   1.000000
    531          8.080648   1.000000
    532          8.091465   1.000000
    533          8.094397   1.000000
    534          8.100752   1.000000
    535          8.131056   1.000000
    536          8.140843   1.000000
    537          8.143024   1.000000
    538          8.147280   1.000000
    539          8.148239   1.000000
    540          8.155472   1.000000
    541          8.179276   1.000000
    542          8.213119   1.000001
    543          8.247502   1.000003
    544          8.263751   1.000006
    545          8.280018   1.000010
    546          8.312602   1.000027
    547          8.321939   1.000036
    548          8.327863   1.000043
    549          8.337536   1.000057
    550          8.351750   1.000085
    551          8.352119   1.000086
    552          8.371049   1.000145
    553          8.389788   1.000239
    554          8.395195   1.000275
    555          8.415819   1.000461
    556          8.426717   1.000601
    557          8.427845   1.000618
    558          8.434303   1.000720
    559          8.436665   1.000761
    560          8.439277   1.000809
    561          8.442255   1.000866
    562          8.451955   1.001081
    563          8.453806   1.001127
    564          8.466287   1.001483
    565          8.484911   1.002199
    566          8.546786   1.006981
    567          8.552316   1.007649
    568          8.556691   1.008211
    569          8.681172   1.032833
    570          8.742908   1.030329
    571          8.763027   1.020467
    572          8.774430   1.011917
    573          8.794723   0.990444
    574          8.882301   0.786358
    575          8.914008   0.669611
    576          8.935683   0.581457
    577          8.938964   0.567754
    578          8.964048   0.461901
    579          8.992689   0.343755
    580          9.002403   0.305661
    581          9.015205   0.257721
    582          9.054462   0.131477
    583          9.064711   0.104494
    584          9.070019   0.091555
    585          9.091442   0.046553
    586          9.102777   0.027334
    587          9.120678   0.003080
    588          9.158715  -0.026933
    589          9.164006  -0.029178
    590          9.179030  -0.033516
    591          9.180753  -0.033840
    592          9.184693  -0.034461
    593          9.187093  -0.034760
    594          9.191883  -0.035191
    595          9.195043  -0.035361
    596          9.196611  -0.035413
    597          9.198326  -0.035447
    598          9.200558  -0.035457
    599          9.203703  -0.035406
    600          9.209491  -0.035132
    601          9.218353  -0.034314
    602          9.237014  -0.031404
    603          9.240065  -0.030817
    604          9.246159  -0.029577
    605          9.249797  -0.028802
    606          9.306201  -0.016185
    607          9.351969  -0.008398
    608          9.379435  -0.005285
    609          9.404587  -0.003315
    610          9.413751  -0.002769
    611          9.415179  -0.002692
    612          9.434743  -0.001800
    613          9.452220  -0.001233
    614          9.463974  -0.000946
    615          9.470847  -0.000807
    616          9.474360  -0.000744
    617          9.474894  -0.000735
    618          9.484093  -0.000590
    619          9.488145  -0.000535
    620          9.491669  -0.000491
    621          9.497467  -0.000426
    622          9.498410  -0.000416
    623          9.500823  -0.000392
    624          9.506285  -0.000342
    625          9.506960  -0.000336
    626          9.539720  -0.000142
    627          9.566329  -0.000068
    628          9.571811  -0.000058
    629          9.594008  -0.000030
    630          9.598191  -0.000027
    631          9.604102  -0.000022
    632          9.621411  -0.000013
    633          9.622948  -0.000012
    634          9.626765  -0.000011
    635          9.632803  -0.000009
    636          9.642479  -0.000007
    637          9.668119  -0.000003
    638          9.671718  -0.000002
    639          9.684924  -0.000002
    640          9.690974  -0.000001
    641          9.741012  -0.000000
    642          9.744695  -0.000000
    643          9.782825  -0.000000
    644          9.793957  -0.000000
    645          9.845102  -0.000000
    646          9.845952  -0.000000
    647          9.867543  -0.000000
    648          9.872278  -0.000000
    649          9.884890  -0.000000
    650          9.897194  -0.000000
    651          9.902467  -0.000000
    652          9.920416  -0.000000
    653          9.925255  -0.000000
    654          9.932472  -0.000000
    655          9.939614  -0.000000
    656          9.949304  -0.000000
    657          9.963009  -0.000000
    658          9.974940  -0.000000
    659          9.975031  -0.000000
    660          9.984687  -0.000000
    661          9.993711  -0.000000
    662         10.005805  -0.000000
    663         10.007670  -0.000000
    664         10.012371  -0.000000
    665         10.015210  -0.000000
    666         10.020286  -0.000000
    667         10.029915  -0.000000
    668         10.031521  -0.000000
    669         10.038909  -0.000000
    670         10.095613  -0.000000
    671         10.106911  -0.000000
    672         10.109273  -0.000000
    673         10.122678  -0.000000
    674         10.158963  -0.000000
    675         10.166599  -0.000000
    676         10.199663  -0.000000
    677         10.201323  -0.000000
    678         10.215927  -0.000000
    679         10.222712  -0.000000
    680         10.223269  -0.000000
    681         10.250800  -0.000000
    682         10.253031  -0.000000
    683         10.257458  -0.000000
    684         10.269561  -0.000000
    685         10.274649  -0.000000
    686         10.280317  -0.000000
    687         10.281199  -0.000000
    688         10.296181  -0.000000
    689         10.301852  -0.000000
    690         10.303880  -0.000000
    691         10.316889  -0.000000
 
 -0.1345275E-16 -0.2500000E+00  0.3333333E+00  0.4166667E-01
      1        -39.894814   1.000000
      2        -39.882392   1.000000
      3        -39.863536   1.000000
      4        -39.854452   1.000000
      5        -39.849807   1.000000
      6        -39.849213   1.000000
      7        -39.841958   1.000000
      8        -39.839563   1.000000
      9        -39.837399   1.000000
     10        -39.827437   1.000000
     11        -39.825261   1.000000
     12        -39.819519   1.000000
     13        -39.817289   1.000000
     14        -39.815765   1.000000
     15        -39.814577   1.000000
     16        -39.812477   1.000000
     17        -39.808624   1.000000
     18        -39.804989   1.000000
     19        -39.803592   1.000000
     20        -39.795037   1.000000
     21        -39.792012   1.000000
     22        -39.789289   1.000000
     23        -39.787755   1.000000
     24        -39.785957   1.000000
     25        -39.785517   1.000000
     26        -39.783425   1.000000
     27        -39.782203   1.000000
     28        -39.780797   1.000000
     29        -39.779752   1.000000
     30        -39.775670   1.000000
     31        -39.773237   1.000000
     32        -39.771624   1.000000
     33        -39.770819   1.000000
     34        -39.769704   1.000000
     35        -39.768738   1.000000
     36        -39.767948   1.000000
     37        -39.767603   1.000000
     38        -39.766882   1.000000
     39        -39.765689   1.000000
     40        -39.764330   1.000000
     41        -39.763904   1.000000
     42        -39.762977   1.000000
     43        -39.761437   1.000000
     44        -39.760759   1.000000
     45        -39.759375   1.000000
     46        -39.755912   1.000000
     47        -39.755137   1.000000
     48        -39.754303   1.000000
     49        -39.753303   1.000000
     50        -39.752386   1.000000
     51        -39.751295   1.000000
     52        -39.751097   1.000000
     53        -39.750470   1.000000
     54        -39.749163   1.000000
     55        -39.748782   1.000000
     56        -39.748047   1.000000
     57        -39.747281   1.000000
     58        -39.746694   1.000000
     59        -39.746356   1.000000
     60        -39.744337   1.000000
     61        -39.743256   1.000000
     62        -39.742605   1.000000
     63        -39.741755   1.000000
     64        -39.741051   1.000000
     65        -39.740653   1.000000
     66        -39.739506   1.000000
     67        -39.739041   1.000000
     68        -39.738477   1.000000
     69        -39.737349   1.000000
     70        -39.737030   1.000000
     71        -39.736085   1.000000
     72        -39.735035   1.000000
     73        -39.733759   1.000000
     74        -39.733158   1.000000
     75        -39.731679   1.000000
     76        -39.730494   1.000000
     77        -39.729797   1.000000
     78        -39.728052   1.000000
     79        -39.726789   1.000000
     80        -39.726595   1.000000
     81        -39.726356   1.000000
     82        -39.725851   1.000000
     83        -39.724617   1.000000
     84        -39.724588   1.000000
     85        -39.723988   1.000000
     86        -39.723657   1.000000
     87        -39.722600   1.000000
     88        -39.721682   1.000000
     89        -39.720966   1.000000
     90        -39.720052   1.000000
     91        -39.719375   1.000000
     92        -39.719097   1.000000
     93        -39.717759   1.000000
     94        -39.715074   1.000000
     95        -39.714382   1.000000
     96        -39.712997   1.000000
     97        -18.377546   1.000000
     98        -18.316865   1.000000
     99        -18.314078   1.000000
    100        -18.307756   1.000000
    101        -18.300255   1.000000
    102        -18.297681   1.000000
    103        -18.296199   1.000000
    104        -18.295164   1.000000
    105        -18.290647   1.000000
    106        -18.282852   1.000000
    107        -18.280857   1.000000
    108        -18.272542   1.000000
    109        -18.261448   1.000000
    110        -18.260596   1.000000
    111        -18.256679   1.000000
    112        -18.254725   1.000000
    113        -18.248323   1.000000
    114        -18.241985   1.000000
    115        -18.237482   1.000000
    116        -18.235289   1.000000
    117        -18.221910   1.000000
    118        -18.220574   1.000000
    119        -18.217864   1.000000
    120        -18.216403   1.000000
    121        -18.212682   1.000000
    122        -18.210804   1.000000
    123        -18.206687   1.000000
    124        -18.205638   1.000000
    125        -18.204346   1.000000
    126        -18.203987   1.000000
    127        -18.202711   1.000000
    128        -18.201918   1.000000
    129        -18.201185   1.000000
    130        -18.199736   1.000000
    131        -18.198045   1.000000
    132        -18.197447   1.000000
    133        -18.196273   1.000000
    134        -18.185057   1.000000
    135        -18.181490   1.000000
    136        -18.178984   1.000000
    137        -18.174315   1.000000
    138        -18.171634   1.000000
    139        -18.169903   1.000000
    140        -18.167911   1.000000
    141        -18.167114   1.000000
    142        -18.162043   1.000000
    143        -18.160096   1.000000
    144        -18.155752   1.000000
    145        -18.154024   1.000000
    146        -18.145393   1.000000
    147        -18.138770   1.000000
    148        -18.138375   1.000000
    149        -18.136387   1.000000
    150        -18.135342   1.000000
    151        -18.128749   1.000000
    152        -18.127620   1.000000
    153        -18.121293   1.000000
    154        -18.116885   1.000000
    155        -18.115861   1.000000
    156        -18.113978   1.000000
    157        -18.111607   1.000000
    158        -18.093963   1.000000
    159        -18.092085   1.000000
    160        -18.082898   1.000000
    161        -18.079798   1.000000
    162        -18.079008   1.000000
    163        -18.075443   1.000000
    164        -18.075267   1.000000
    165        -18.074369   1.000000
    166        -18.072322   1.000000
    167        -18.063588   1.000000
    168        -18.062336   1.000000
    169        -18.061032   1.000000
    170        -18.059994   1.000000
    171        -18.054795   1.000000
    172        -18.053627   1.000000
    173        -18.051539   1.000000
    174        -18.025918   1.000000
    175        -18.001411   1.000000
    176        -17.988914   1.000000
    177        -17.983935   1.000000
    178        -17.982717   1.000000
    179        -17.971893   1.000000
    180        -17.960808   1.000000
    181        -17.956284   1.000000
    182        -17.952822   1.000000
    183        -17.951254   1.000000
    184        -17.949054   1.000000
    185        -17.947461   1.000000
    186        -17.945188   1.000000
    187        -17.943710   1.000000
    188        -17.943073   1.000000
    189        -17.941577   1.000000
    190        -17.938737   1.000000
    191        -17.936145   1.000000
    192        -17.934572   1.000000
    193        -17.927648   1.000000
    194        -17.925705   1.000000
    195        -17.915875   1.000000
    196        -17.912769   1.000000
    197        -17.903504   1.000000
    198        -17.895679   1.000000
    199        -17.892800   1.000000
    200        -17.887083   1.000000
    201        -17.879420   1.000000
    202        -17.874820   1.000000
    203        -17.873426   1.000000
    204        -17.872248   1.000000
    205        -17.869040   1.000000
    206        -17.863404   1.000000
    207        -17.862505   1.000000
    208        -17.861492   1.000000
    209        -17.859953   1.000000
    210        -17.858670   1.000000
    211        -17.857792   1.000000
    212        -17.855996   1.000000
    213        -17.852889   1.000000
    214        -17.850546   1.000000
    215        -17.836845   1.000000
    216        -17.833973   1.000000
    217        -17.830899   1.000000
    218        -17.829472   1.000000
    219        -17.828899   1.000000
    220        -17.825803   1.000000
    221        -17.819753   1.000000
    222        -17.817527   1.000000
    223        -17.807103   1.000000
    224        -17.804657   1.000000
    225        -17.800069   1.000000
    226        -17.798249   1.000000
    227        -17.796297   1.000000
    228        -17.795861   1.000000
    229        -17.793165   1.000000
    230        -17.792439   1.000000
    231        -17.787017   1.000000
    232        -17.785015   1.000000
    233        -17.782510   1.000000
    234        -17.779466   1.000000
    235        -17.773097   1.000000
    236        -17.770215   1.000000
    237        -17.767366   1.000000
    238        -17.766903   1.000000
    239        -17.763228   1.000000
    240        -17.762708   1.000000
    241        -17.761129   1.000000
    242        -17.752297   1.000000
    243        -17.749194   1.000000
    244        -17.748061   1.000000
    245        -17.745210   1.000000
    246        -17.742126   1.000000
    247        -17.741076   1.000000
    248        -17.738693   1.000000
    249        -17.735562   1.000000
    250        -17.732971   1.000000
    251        -17.729772   1.000000
    252        -17.728993   1.000000
    253        -17.726615   1.000000
    254        -17.723228   1.000000
    255        -17.709673   1.000000
    256        -17.708799   1.000000
    257        -17.706384   1.000000
    258        -17.704884   1.000000
    259        -17.703125   1.000000
    260        -17.696848   1.000000
    261        -17.687366   1.000000
    262        -17.686732   1.000000
    263        -17.685807   1.000000
    264        -17.684463   1.000000
    265        -17.683644   1.000000
    266        -17.683031   1.000000
    267        -17.682165   1.000000
    268        -17.680555   1.000000
    269        -17.678236   1.000000
    270        -17.675815   1.000000
    271        -17.673316   1.000000
    272        -17.672614   1.000000
    273        -17.670581   1.000000
    274        -17.669983   1.000000
    275        -17.666623   1.000000
    276        -17.662711   1.000000
    277        -17.660720   1.000000
    278        -17.659806   1.000000
    279        -17.659070   1.000000
    280        -17.650162   1.000000
    281        -17.648711   1.000000
    282        -17.647922   1.000000
    283        -17.646858   1.000000
    284        -17.645814   1.000000
    285        -17.644644   1.000000
    286        -17.642664   1.000000
    287        -17.640892   1.000000
    288        -17.640201   1.000000
    289        -17.639001   1.000000
    290        -17.638280   1.000000
    291        -17.636319   1.000000
    292        -17.634291   1.000000
    293        -17.633110   1.000000
    294        -17.632570   1.000000
    295        -17.630785   1.000000
    296        -17.630069   1.000000
    297        -17.629068   1.000000
    298        -17.627968   1.000000
    299        -17.626208   1.000000
    300        -17.624982   1.000000
    301        -17.623568   1.000000
    302        -17.622889   1.000000
    303        -17.621780   1.000000
    304        -17.620450   1.000000
    305        -17.619333   1.000000
    306        -17.618387   1.000000
    307        -17.618039   1.000000
    308        -17.617437   1.000000
    309        -17.616890   1.000000
    310        -17.615568   1.000000
    311        -17.614612   1.000000
    312        -17.606920   1.000000
    313        -17.605959   1.000000
    314        -17.605395   1.000000
    315        -17.604424   1.000000
    316        -17.603463   1.000000
    317        -17.596813   1.000000
    318        -17.596287   1.000000
    319        -17.595487   1.000000
    320        -17.595090   1.000000
    321        -17.593220   1.000000
    322        -17.591950   1.000000
    323        -17.586214   1.000000
    324        -17.582617   1.000000
    325        -17.581882   1.000000
    326        -17.581109   1.000000
    327        -17.580768   1.000000
    328        -17.579286   1.000000
    329        -17.578746   1.000000
    330        -17.578352   1.000000
    331        -17.576590   1.000000
    332        -17.571835   1.000000
    333        -17.570249   1.000000
    334        -17.569169   1.000000
    335        -17.567394   1.000000
    336        -17.566752   1.000000
    337        -17.565646   1.000000
    338        -17.564799   1.000000
    339        -17.563783   1.000000
    340        -17.563323   1.000000
    341        -17.561700   1.000000
    342        -17.560584   1.000000
    343        -17.558866   1.000000
    344        -17.554456   1.000000
    345        -17.552758   1.000000
    346        -17.550819   1.000000
    347        -17.549997   1.000000
    348        -17.548146   1.000000
    349        -17.547550   1.000000
    350        -17.546358   1.000000
    351        -17.545263   1.000000
    352        -17.544350   1.000000
    353        -17.541919   1.000000
    354        -17.536732   1.000000
    355        -17.534780   1.000000
    356        -17.529049   1.000000
    357        -17.522342   1.000000
    358        -17.520418   1.000000
    359        -17.517380   1.000000
    360        -17.516358   1.000000
    361        -17.514057   1.000000
    362        -17.513224   1.000000
    363        -17.511730   1.000000
    364        -17.506380   1.000000
    365        -17.503558   1.000000
    366        -17.500252   1.000000
    367        -17.499932   1.000000
    368        -17.498918   1.000000
    369        -17.497221   1.000000
    370        -17.496521   1.000000
    371        -17.493528   1.000000
    372        -17.490737   1.000000
    373        -17.488624   1.000000
    374        -17.481584   1.000000
    375        -17.480949   1.000000
    376        -17.478723   1.000000
    377        -17.476523   1.000000
    378        -17.474922   1.000000
    379        -17.469140   1.000000
    380        -17.454433   1.000000
    381        -17.448202   1.000000
    382        -17.438701   1.000000
    383        -17.436222   1.000000
    384        -17.426465   1.000000
    385          2.685665   1.000000
    386          3.574451   1.000000
    387          3.869036   1.000000
    388          4.329272   1.000000
    389          4.569590   1.000000
    390          4.652071   1.000000
    391          4.706860   1.000000
    392          4.821892   1.000000
    393          4.877022   1.000000
    394          4.959624   1.000000
    395          5.251448   1.000000
    396          5.280786   1.000000
    397          5.360402   1.000000
    398          5.403891   1.000000
    399          5.427494   1.000000
    400          5.454233   1.000000
    401          5.515783   1.000000
    402          5.579235   1.000000
    403          5.691814   1.000000
    404          5.738793   1.000000
    405          5.960253   1.000000
    406          5.967246   1.000000
    407          5.984934   1.000000
    408          5.989929   1.000000
    409          6.001570   1.000000
    410          6.014751   1.000000
    411          6.018457   1.000000
    412          6.031565   1.000000
    413          6.041269   1.000000
    414          6.055109   1.000000
    415          6.074353   1.000000
    416          6.111124   1.000000
    417          6.134476   1.000000
    418          6.202820   1.000000
    419          6.215726   1.000000
    420          6.241012   1.000000
    421          6.248121   1.000000
    422          6.266217   1.000000
    423          6.288870   1.000000
    424          6.296446   1.000000
    425          6.308221   1.000000
    426          6.320647   1.000000
    427          6.328680   1.000000
    428          6.347636   1.000000
    429          6.365903   1.000000
    430          6.394396   1.000000
    431          6.443285   1.000000
    432          6.515766   1.000000
    433          6.522424   1.000000
    434          6.524689   1.000000
    435          6.526232   1.000000
    436          6.532523   1.000000
    437          6.536053   1.000000
    438          6.541769   1.000000
    439          6.569526   1.000000
    440          6.586960   1.000000
    441          6.588813   1.000000
    442          6.591850   1.000000
    443          6.629327   1.000000
    444          6.649038   1.000000
    445          6.657522   1.000000
    446          6.679571   1.000000
    447          6.687364   1.000000
    448          6.704178   1.000000
    449          6.729373   1.000000
    450          6.769007   1.000000
    451          6.819686   1.000000
    452          6.855272   1.000000
    453          6.864552   1.000000
    454          6.885831   1.000000
    455          6.902485   1.000000
    456          6.921736   1.000000
    457          6.924451   1.000000
    458          6.927795   1.000000
    459          6.929625   1.000000
    460          6.929865   1.000000
    461          6.933010   1.000000
    462          6.934051   1.000000
    463          7.004971   1.000000
    464          7.054379   1.000000
    465          7.062133   1.000000
    466          7.065481   1.000000
    467          7.067688   1.000000
    468          7.074571   1.000000
    469          7.075441   1.000000
    470          7.076969   1.000000
    471          7.110821   1.000000
    472          7.133883   1.000000
    473          7.159291   1.000000
    474          7.164300   1.000000
    475          7.167866   1.000000
    476          7.178848   1.000000
    477          7.182800   1.000000
    478          7.187683   1.000000
    479          7.190114   1.000000
    480          7.243960   1.000000
    481          7.253000   1.000000
    482          7.261379   1.000000
    483          7.263116   1.000000
    484          7.281222   1.000000
    485          7.298178   1.000000
    486          7.406394   1.000000
    487          7.436132   1.000000
    488          7.449814   1.000000
    489          7.461612   1.000000
    490          7.469665   1.000000
    491          7.498884   1.000000
    492          7.515219   1.000000
    493          7.522693   1.000000
    494          7.537495   1.000000
    495          7.546929   1.000000
    496          7.564742   1.000000
    497          7.585591   1.000000
    498          7.604352   1.000000
    499          7.608735   1.000000
    500          7.617021   1.000000
    501          7.634277   1.000000
    502          7.658326   1.000000
    503          7.667986   1.000000
    504          7.673240   1.000000
    505          7.789454   1.000000
    506          7.812913   1.000000
    507          7.820000   1.000000
    508          7.832375   1.000000
    509          7.875409   1.000000
    510          7.879398   1.000000
    511          7.887580   1.000000
    512          7.906876   1.000000
    513          7.910790   1.000000
    514          7.939485   1.000000
    515          7.941712   1.000000
    516          7.948134   1.000000
    517          7.959283   1.000000
    518          7.969290   1.000000
    519          7.986322   1.000000
    520          8.002374   1.000000
    521          8.005199   1.000000
    522          8.027239   1.000000
    523          8.036967   1.000000
    524          8.038280   1.000000
    525          8.044266   1.000000
    526          8.046159   1.000000
    527          8.052616   1.000000
    528          8.054625   1.000000
    529          8.059523   1.000000
    530          8.062295   1.000000
    531          8.085163   1.000000
    532          8.094605   1.000000
    533          8.097284   1.000000
    534          8.100455   1.000000
    535          8.113649   1.000000
    536          8.142827   1.000000
    537          8.144651   1.000000
    538          8.147881   1.000000
    539          8.152092   1.000000
    540          8.155744   1.000000
    541          8.176405   1.000000
    542          8.212465   1.000001
    543          8.250842   1.000004
    544          8.269921   1.000007
    545          8.281187   1.000010
    546          8.308559   1.000024
    547          8.324293   1.000039
    548          8.331901   1.000048
    549          8.335232   1.000053
    550          8.343514   1.000067
    551          8.350776   1.000083
    552          8.366159   1.000127
    553          8.392856   1.000258
    554          8.397686   1.000293
    555          8.404545   1.000348
    556          8.423801   1.000560
    557          8.431636   1.000676
    558          8.433411   1.000705
    559          8.436637   1.000760
    560          8.440640   1.000835
    561          8.445292   1.000929
    562          8.448770   1.001006
    563          8.450495   1.001046
    564          8.466032   1.001475
    565          8.486794   1.002285
    566          8.540193   1.006244
    567          8.552350   1.007654
    568          8.560840   1.008771
    569          8.687632   1.033799
    570          8.737640   1.031958
    571          8.765730   1.018650
    572          8.774569   1.011797
    573          8.792880   0.992751
    574          8.881755   0.788200
    575          8.915896   0.662140
    576          8.929936   0.605276
    577          8.939449   0.565725
    578          8.960741   0.475863
    579          8.988988   0.358597
    580          8.997998   0.322772
    581          9.014463   0.260420
    582          9.057011   0.124521
    583          9.067994   0.096408
    584          9.078316   0.072757
    585          9.097974   0.035098
    586          9.113126   0.012434
    587          9.130896  -0.007649
    588          9.151753  -0.023340
    589          9.157188  -0.026209
    590          9.163862  -0.029123
    591          9.180618  -0.033816
    592          9.184803  -0.034476
    593          9.189397  -0.034994
    594          9.191453  -0.035161
    595          9.194569  -0.035341
    596          9.197139  -0.035426
    597          9.199223  -0.035456
    598          9.201915  -0.035444
    599          9.206385  -0.035307
    600          9.209215  -0.035150
    601          9.213299  -0.034835
    602          9.235768  -0.031637
    603          9.241513  -0.030530
    604          9.251260  -0.028484
    605          9.256836  -0.027248
    606          9.306911  -0.016040
    607          9.345167  -0.009345
    608          9.385522  -0.004738
    609          9.396850  -0.003842
    610          9.404564  -0.003316
    611          9.416701  -0.002611
    612          9.432987  -0.001868
    613          9.448749  -0.001331
    614          9.453754  -0.001191
    615          9.466198  -0.000899
    616          9.473190  -0.000765
    617          9.478597  -0.000673
    618          9.480851  -0.000638
    619          9.485208  -0.000575
    620          9.488547  -0.000530
    621          9.491427  -0.000494
    622          9.498159  -0.000419
    623          9.502310  -0.000378
    624          9.504118  -0.000361
    625          9.517572  -0.000256
    626          9.554701  -0.000094
    627          9.561172  -0.000079
    628          9.573600  -0.000055
    629          9.591601  -0.000032
    630          9.604693  -0.000022
    631          9.609314  -0.000019
    632          9.617091  -0.000015
    633          9.620429  -0.000013
    634          9.626493  -0.000011
    635          9.642382  -0.000007
    636          9.652924  -0.000005
    637          9.660350  -0.000004
    638          9.667677  -0.000003
    639          9.682720  -0.000002
    640          9.692784  -0.000001
    641          9.738334  -0.000000
    642          9.744627  -0.000000
    643          9.779680  -0.000000
    644          9.794381  -0.000000
    645          9.829437  -0.000000
    646          9.855863  -0.000000
    647          9.873536  -0.000000
    648          9.877933  -0.000000
    649          9.884917  -0.000000
    650          9.899854  -0.000000
    651          9.905986  -0.000000
    652          9.914515  -0.000000
    653          9.925038  -0.000000
    654          9.933716  -0.000000
    655          9.940998  -0.000000
    656          9.949986  -0.000000
    657          9.961363  -0.000000
    658          9.971778  -0.000000
    659          9.982320  -0.000000
    660          9.984372  -0.000000
    661          9.994949  -0.000000
    662          9.999985  -0.000000
    663         10.010689  -0.000000
    664         10.012702  -0.000000
    665         10.017399  -0.000000
    666         10.018368  -0.000000
    667         10.020678  -0.000000
    668         10.028160  -0.000000
    669         10.035756  -0.000000
    670         10.091631  -0.000000
    671         10.108117  -0.000000
    672         10.113966  -0.000000
    673         10.126972  -0.000000
    674         10.164711  -0.000000
    675         10.167929  -0.000000
    676         10.195547  -0.000000
    677         10.207621  -0.000000
    678         10.223712  -0.000000
    679         10.225420  -0.000000
    680         10.230602  -0.000000
    681         10.243246  -0.000000
    682         10.250343  -0.000000
    683         10.257569  -0.000000
    684         10.263511  -0.000000
    685         10.271224  -0.000000
    686         10.277290  -0.000000
    687         10.285383  -0.000000
    688         10.291010  -0.000000
    689         10.295790  -0.000000
    690         10.306386  -0.000000
    691         10.310402  -0.000000
 
  0.2500000E+00 -0.2500000E+00  0.3333333E+00  0.4166667E-01
      1        -39.894811   1.000000
      2        -39.882378   1.000000
      3        -39.863886   1.000000
      4        -39.852990   1.000000
      5        -39.850739   1.000000
      6        -39.849297   1.000000
      7        -39.842197   1.000000
      8        -39.839629   1.000000
      9        -39.837482   1.000000
     10        -39.826908   1.000000
     11        -39.825044   1.000000
     12        -39.819510   1.000000
     13        -39.817940   1.000000
     14        -39.816414   1.000000
     15        -39.814080   1.000000
     16        -39.812658   1.000000
     17        -39.808191   1.000000
     18        -39.805125   1.000000
     19        -39.802954   1.000000
     20        -39.795641   1.000000
     21        -39.791818   1.000000
     22        -39.789098   1.000000
     23        -39.788030   1.000000
     24        -39.786271   1.000000
     25        -39.785166   1.000000
     26        -39.783369   1.000000
     27        -39.782504   1.000000
     28        -39.779946   1.000000
     29        -39.779430   1.000000
     30        -39.776293   1.000000
     31        -39.774020   1.000000
     32        -39.772608   1.000000
     33        -39.770729   1.000000
     34        -39.769487   1.000000
     35        -39.768436   1.000000
     36        -39.767669   1.000000
     37        -39.767324   1.000000
     38        -39.767029   1.000000
     39        -39.765047   1.000000
     40        -39.763848   1.000000
     41        -39.763497   1.000000
     42        -39.762946   1.000000
     43        -39.761846   1.000000
     44        -39.760491   1.000000
     45        -39.759331   1.000000
     46        -39.758059   1.000000
     47        -39.754914   1.000000
     48        -39.754455   1.000000
     49        -39.753156   1.000000
     50        -39.752047   1.000000
     51        -39.751789   1.000000
     52        -39.750713   1.000000
     53        -39.749352   1.000000
     54        -39.749223   1.000000
     55        -39.748422   1.000000
     56        -39.748093   1.000000
     57        -39.747506   1.000000
     58        -39.746499   1.000000
     59        -39.745966   1.000000
     60        -39.744782   1.000000
     61        -39.743365   1.000000
     62        -39.743004   1.000000
     63        -39.741930   1.000000
     64        -39.740921   1.000000
     65        -39.740428   1.000000
     66        -39.739841   1.000000
     67        -39.739202   1.000000
     68        -39.738925   1.000000
     69        -39.737197   1.000000
     70        -39.736591   1.000000
     71        -39.735575   1.000000
     72        -39.734756   1.000000
     73        -39.734488   1.000000
     74        -39.733501   1.000000
     75        -39.731916   1.000000
     76        -39.729787   1.000000
     77        -39.729389   1.000000
     78        -39.728645   1.000000
     79        -39.727014   1.000000
     80        -39.726609   1.000000
     81        -39.726070   1.000000
     82        -39.725321   1.000000
     83        -39.724820   1.000000
     84        -39.724594   1.000000
     85        -39.724383   1.000000
     86        -39.723688   1.000000
     87        -39.722585   1.000000
     88        -39.721541   1.000000
     89        -39.721088   1.000000
     90        -39.719876   1.000000
     91        -39.719310   1.000000
     92        -39.719097   1.000000
     93        -39.717864   1.000000
     94        -39.715092   1.000000
     95        -39.714409   1.000000
     96        -39.712975   1.000000
     97        -18.377499   1.000000
     98        -18.316743   1.000000
     99        -18.314222   1.000000
    100        -18.308020   1.000000
    101        -18.300002   1.000000
    102        -18.298200   1.000000
    103        -18.295899   1.000000
    104        -18.295050   1.000000
    105        -18.290830   1.000000
    106        -18.282763   1.000000
    107        -18.280640   1.000000
    108        -18.272531   1.000000
    109        -18.261867   1.000000
    110        -18.260377   1.000000
    111        -18.256973   1.000000
    112        -18.254772   1.000000
    113        -18.248399   1.000000
    114        -18.241505   1.000000
    115        -18.237168   1.000000
    116        -18.234732   1.000000
    117        -18.221337   1.000000
    118        -18.220938   1.000000
    119        -18.218005   1.000000
    120        -18.216810   1.000000
    121        -18.212944   1.000000
    122        -18.211205   1.000000
    123        -18.207755   1.000000
    124        -18.205624   1.000000
    125        -18.204876   1.000000
    126        -18.203025   1.000000
    127        -18.202059   1.000000
    128        -18.201735   1.000000
    129        -18.201462   1.000000
    130        -18.200601   1.000000
    131        -18.198527   1.000000
    132        -18.197526   1.000000
    133        -18.196818   1.000000
    134        -18.185527   1.000000
    135        -18.180230   1.000000
    136        -18.178838   1.000000
    137        -18.173974   1.000000
    138        -18.171272   1.000000
    139        -18.168991   1.000000
    140        -18.167862   1.000000
    141        -18.166167   1.000000
    142        -18.160996   1.000000
    143        -18.159405   1.000000
    144        -18.156183   1.000000
    145        -18.154345   1.000000
    146        -18.144885   1.000000
    147        -18.139138   1.000000
    148        -18.138801   1.000000
    149        -18.135806   1.000000
    150        -18.134922   1.000000
    151        -18.130082   1.000000
    152        -18.128155   1.000000
    153        -18.121174   1.000000
    154        -18.118202   1.000000
    155        -18.116631   1.000000
    156        -18.112590   1.000000
    157        -18.110436   1.000000
    158        -18.093548   1.000000
    159        -18.091555   1.000000
    160        -18.084366   1.000000
    161        -18.080979   1.000000
    162        -18.080046   1.000000
    163        -18.076765   1.000000
    164        -18.075726   1.000000
    165        -18.074037   1.000000
    166        -18.073251   1.000000
    167        -18.065902   1.000000
    168        -18.063424   1.000000
    169        -18.060419   1.000000
    170        -18.058992   1.000000
    171        -18.052736   1.000000
    172        -18.052043   1.000000
    173        -18.051148   1.000000
    174        -18.025781   1.000000
    175        -17.998966   1.000000
    176        -17.991863   1.000000
    177        -17.983336   1.000000
    178        -17.982554   1.000000
    179        -17.970543   1.000000
    180        -17.959419   1.000000
    181        -17.955922   1.000000
    182        -17.953872   1.000000
    183        -17.952317   1.000000
    184        -17.950396   1.000000
    185        -17.948354   1.000000
    186        -17.945320   1.000000
    187        -17.944895   1.000000
    188        -17.940943   1.000000
    189        -17.939844   1.000000
    190        -17.936330   1.000000
    191        -17.933795   1.000000
    192        -17.932888   1.000000
    193        -17.930569   1.000000
    194        -17.927802   1.000000
    195        -17.916341   1.000000
    196        -17.913317   1.000000
    197        -17.904772   1.000000
    198        -17.897419   1.000000
    199        -17.895837   1.000000
    200        -17.884531   1.000000
    201        -17.879665   1.000000
    202        -17.875092   1.000000
    203        -17.872650   1.000000
    204        -17.871375   1.000000
    205        -17.868775   1.000000
    206        -17.862168   1.000000
    207        -17.861175   1.000000
    208        -17.860328   1.000000
    209        -17.859267   1.000000
    210        -17.857187   1.000000
    211        -17.856176   1.000000
    212        -17.854144   1.000000
    213        -17.853512   1.000000
    214        -17.852940   1.000000
    215        -17.837160   1.000000
    216        -17.834090   1.000000
    217        -17.832176   1.000000
    218        -17.830545   1.000000
    219        -17.828050   1.000000
    220        -17.825258   1.000000
    221        -17.822466   1.000000
    222        -17.820370   1.000000
    223        -17.808114   1.000000
    224        -17.805489   1.000000
    225        -17.799060   1.000000
    226        -17.797250   1.000000
    227        -17.796615   1.000000
    228        -17.795693   1.000000
    229        -17.794717   1.000000
    230        -17.793502   1.000000
    231        -17.788917   1.000000
    232        -17.786196   1.000000
    233        -17.781627   1.000000
    234        -17.780227   1.000000
    235        -17.770419   1.000000
    236        -17.768747   1.000000
    237        -17.766177   1.000000
    238        -17.765550   1.000000
    239        -17.762754   1.000000
    240        -17.762121   1.000000
    241        -17.759906   1.000000
    242        -17.750071   1.000000
    243        -17.749095   1.000000
    244        -17.748807   1.000000
    245        -17.746023   1.000000
    246        -17.742240   1.000000
    247        -17.741525   1.000000
    248        -17.739524   1.000000
    249        -17.736504   1.000000
    250        -17.731849   1.000000
    251        -17.730528   1.000000
    252        -17.727730   1.000000
    253        -17.724860   1.000000
    254        -17.723602   1.000000
    255        -17.712500   1.000000
    256        -17.710432   1.000000
    257        -17.706389   1.000000
    258        -17.704187   1.000000
    259        -17.701967   1.000000
    260        -17.696733   1.000000
    261        -17.690098   1.000000
    262        -17.686768   1.000000
    263        -17.685054   1.000000
    264        -17.684155   1.000000
    265        -17.683330   1.000000
    266        -17.682583   1.000000
    267        -17.681603   1.000000
    268        -17.680739   1.000000
    269        -17.678091   1.000000
    270        -17.673997   1.000000
    271        -17.672537   1.000000
    272        -17.671781   1.000000
    273        -17.670522   1.000000
    274        -17.669529   1.000000
    275        -17.668019   1.000000
    276        -17.664117   1.000000
    277        -17.660312   1.000000
    278        -17.659767   1.000000
    279        -17.658676   1.000000
    280        -17.650198   1.000000
    281        -17.649453   1.000000
    282        -17.648847   1.000000
    283        -17.648526   1.000000
    284        -17.646733   1.000000
    285        -17.644765   1.000000
    286        -17.643812   1.000000
    287        -17.641176   1.000000
    288        -17.640616   1.000000
    289        -17.639013   1.000000
    290        -17.637308   1.000000
    291        -17.635512   1.000000
    292        -17.634217   1.000000
    293        -17.633364   1.000000
    294        -17.632587   1.000000
    295        -17.631682   1.000000
    296        -17.630354   1.000000
    297        -17.629652   1.000000
    298        -17.627951   1.000000
    299        -17.627102   1.000000
    300        -17.625583   1.000000
    301        -17.623428   1.000000
    302        -17.622435   1.000000
    303        -17.620646   1.000000
    304        -17.619365   1.000000
    305        -17.618923   1.000000
    306        -17.618114   1.000000
    307        -17.617659   1.000000
    308        -17.617292   1.000000
    309        -17.616466   1.000000
    310        -17.615629   1.000000
    311        -17.614390   1.000000
    312        -17.606583   1.000000
    313        -17.605879   1.000000
    314        -17.605244   1.000000
    315        -17.604545   1.000000
    316        -17.602763   1.000000
    317        -17.596558   1.000000
    318        -17.595658   1.000000
    319        -17.594746   1.000000
    320        -17.593967   1.000000
    321        -17.592332   1.000000
    322        -17.591980   1.000000
    323        -17.586863   1.000000
    324        -17.582965   1.000000
    325        -17.582182   1.000000
    326        -17.581398   1.000000
    327        -17.581161   1.000000
    328        -17.579472   1.000000
    329        -17.578739   1.000000
    330        -17.577954   1.000000
    331        -17.577643   1.000000
    332        -17.572922   1.000000
    333        -17.570542   1.000000
    334        -17.569612   1.000000
    335        -17.567906   1.000000
    336        -17.567122   1.000000
    337        -17.565994   1.000000
    338        -17.564956   1.000000
    339        -17.563522   1.000000
    340        -17.562581   1.000000
    341        -17.560891   1.000000
    342        -17.560439   1.000000
    343        -17.558946   1.000000
    344        -17.553463   1.000000
    345        -17.552988   1.000000
    346        -17.550996   1.000000
    347        -17.549057   1.000000
    348        -17.548148   1.000000
    349        -17.547624   1.000000
    350        -17.546775   1.000000
    351        -17.546056   1.000000
    352        -17.543504   1.000000
    353        -17.541965   1.000000
    354        -17.536952   1.000000
    355        -17.534896   1.000000
    356        -17.529194   1.000000
    357        -17.522120   1.000000
    358        -17.520455   1.000000
    359        -17.517047   1.000000
    360        -17.516343   1.000000
    361        -17.514088   1.000000
    362        -17.513598   1.000000
    363        -17.512274   1.000000
    364        -17.506180   1.000000
    365        -17.502629   1.000000
    366        -17.500866   1.000000
    367        -17.499774   1.000000
    368        -17.498753   1.000000
    369        -17.496987   1.000000
    370        -17.496622   1.000000
    371        -17.493325   1.000000
    372        -17.490228   1.000000
    373        -17.489261   1.000000
    374        -17.481884   1.000000
    375        -17.481389   1.000000
    376        -17.478629   1.000000
    377        -17.476924   1.000000
    378        -17.474647   1.000000
    379        -17.469289   1.000000
    380        -17.454137   1.000000
    381        -17.448391   1.000000
    382        -17.438962   1.000000
    383        -17.435859   1.000000
    384        -17.426391   1.000000
    385          2.685704   1.000000
    386          3.573757   1.000000
    387          3.869713   1.000000
    388          4.331623   1.000000
    389          4.567988   1.000000
    390          4.652052   1.000000
    391          4.704157   1.000000
    392          4.820735   1.000000
    393          4.877155   1.000000
    394          4.962111   1.000000
    395          5.251585   1.000000
    396          5.284664   1.000000
    397          5.361781   1.000000
    398          5.403463   1.000000
    399          5.424922   1.000000
    400          5.456300   1.000000
    401          5.501725   1.000000
    402          5.592553   1.000000
    403          5.690765   1.000000
    404          5.735126   1.000000
    405          5.960226   1.000000
    406          5.963926   1.000000
    407          5.985456   1.000000
    408          5.991917   1.000000
    409          6.005487   1.000000
    410          6.011759   1.000000
    411          6.017452   1.000000
    412          6.029746   1.000000
    413          6.040013   1.000000
    414          6.061334   1.000000
    415          6.074891   1.000000
    416          6.099689   1.000000
    417          6.145997   1.000000
    418          6.204973   1.000000
    419          6.222122   1.000000
    420          6.236814   1.000000
    421          6.249012   1.000000
    422          6.255815   1.000000
    423          6.289726   1.000000
    424          6.299563   1.000000
    425          6.307959   1.000000
    426          6.317188   1.000000
    427          6.328904   1.000000
    428          6.344750   1.000000
    429          6.380362   1.000000
    430          6.390846   1.000000
    431          6.445801   1.000000
    432          6.511323   1.000000
    433          6.521850   1.000000
    434          6.526354   1.000000
    435          6.528702   1.000000
    436          6.531036   1.000000
    437          6.537919   1.000000
    438          6.543226   1.000000
    439          6.562018   1.000000
    440          6.583582   1.000000
    441          6.584873   1.000000
    442          6.589751   1.000000
    443          6.622067   1.000000
    444          6.644196   1.000000
    445          6.661172   1.000000
    446          6.679908   1.000000
    447          6.687391   1.000000
    448          6.705687   1.000000
    449          6.762064   1.000000
    450          6.771232   1.000000
    451          6.803999   1.000000
    452          6.854715   1.000000
    453          6.873356   1.000000
    454          6.886314   1.000000
    455          6.906519   1.000000
    456          6.921854   1.000000
    457          6.924349   1.000000
    458          6.926467   1.000000
    459          6.928000   1.000000
    460          6.928613   1.000000
    461          6.932398   1.000000
    462          6.936775   1.000000
    463          6.980766   1.000000
    464          7.055593   1.000000
    465          7.062195   1.000000
    466          7.063804   1.000000
    467          7.068263   1.000000
    468          7.072940   1.000000
    469          7.081362   1.000000
    470          7.084315   1.000000
    471          7.116138   1.000000
    472          7.132974   1.000000
    473          7.138409   1.000000
    474          7.166323   1.000000
    475          7.174959   1.000000
    476          7.179182   1.000000
    477          7.183556   1.000000
    478          7.186142   1.000000
    479          7.189292   1.000000
    480          7.239780   1.000000
    481          7.254253   1.000000
    482          7.261662   1.000000
    483          7.262603   1.000000
    484          7.292888   1.000000
    485          7.301483   1.000000
    486          7.406229   1.000000
    487          7.434342   1.000000
    488          7.443094   1.000000
    489          7.463648   1.000000
    490          7.476046   1.000000
    491          7.489048   1.000000
    492          7.513776   1.000000
    493          7.524119   1.000000
    494          7.533592   1.000000
    495          7.544422   1.000000
    496          7.558396   1.000000
    497          7.596491   1.000000
    498          7.603853   1.000000
    499          7.610055   1.000000
    500          7.616482   1.000000
    501          7.653223   1.000000
    502          7.659088   1.000000
    503          7.663320   1.000000
    504          7.670877   1.000000
    505          7.793713   1.000000
    506          7.807004   1.000000
    507          7.820287   1.000000
    508          7.834375   1.000000
    509          7.873660   1.000000
    510          7.880189   1.000000
    511          7.886972   1.000000
    512          7.905693   1.000000
    513          7.911258   1.000000
    514          7.919926   1.000000
    515          7.939117   1.000000
    516          7.949140   1.000000
    517          7.959954   1.000000
    518          7.968625   1.000000
    519          7.995074   1.000000
    520          8.001527   1.000000
    521          8.013671   1.000000
    522          8.023136   1.000000
    523          8.029530   1.000000
    524          8.037601   1.000000
    525          8.041724   1.000000
    526          8.043710   1.000000
    527          8.053380   1.000000
    528          8.054791   1.000000
    529          8.059576   1.000000
    530          8.063561   1.000000
    531          8.084515   1.000000
    532          8.094773   1.000000
    533          8.098065   1.000000
    534          8.101734   1.000000
    535          8.127795   1.000000
    536          8.142242   1.000000
    537          8.144737   1.000000
    538          8.147713   1.000000
    539          8.149802   1.000000
    540          8.157719   1.000000
    541          8.173994   1.000000
    542          8.217670   1.000001
    543          8.253494   1.000004
    544          8.259526   1.000005
    545          8.287397   1.000012
    546          8.309367   1.000025
    547          8.326509   1.000041
    548          8.329214   1.000045
    549          8.336187   1.000055
    550          8.350226   1.000082
    551          8.352634   1.000087
    552          8.365490   1.000125
    553          8.391242   1.000248
    554          8.396808   1.000286
    555          8.413983   1.000441
    556          8.418589   1.000494
    557          8.429964   1.000650
    558          8.433357   1.000704
    559          8.435562   1.000741
    560          8.438103   1.000787
    561          8.443092   1.000883
    562          8.448347   1.000996
    563          8.452407   1.001092
    564          8.467413   1.001520
    565          8.483665   1.002143
    566          8.535908   1.005799
    567          8.553395   1.007785
    568          8.560329   1.008700
    569          8.686368   1.033623
    570          8.748401   1.028235
    571          8.763175   1.020371
    572          8.773824   1.012431
    573          8.787329   0.999258
    574          8.864079   0.844257
    575          8.913263   0.672542
    576          8.933029   0.592489
    577          8.938559   0.569450
    578          8.972554   0.426181
    579          8.985785   0.371569
    580          9.001162   0.310455
    581          9.035744   0.187368
    582          9.052803   0.136091
    583          9.060131   0.116228
    584          9.076360   0.077033
    585          9.090043   0.049142
    586          9.113832   0.011506
    587          9.131529  -0.008243
    588          9.149826  -0.022210
    589          9.160488  -0.027731
    590          9.173202  -0.032167
    591          9.180438  -0.033783
    592          9.181417  -0.033956
    593          9.187217  -0.034774
    594          9.192054  -0.035202
    595          9.195085  -0.035362
    596          9.198470  -0.035449
    597          9.200570  -0.035457
    598          9.202295  -0.035438
    599          9.202961  -0.035424
    600          9.208395  -0.035200
    601          9.217849  -0.034372
    602          9.236763  -0.031452
    603          9.241544  -0.030523
    604          9.244603  -0.029901
    605          9.246557  -0.029493
    606          9.310593  -0.015299
    607          9.358837  -0.007515
    608          9.379328  -0.005295
    609          9.404242  -0.003337
    610          9.410247  -0.002968
    611          9.413817  -0.002766
    612          9.436067  -0.001750
    613          9.448607  -0.001335
    614          9.464269  -0.000940
    615          9.470220  -0.000819
    616          9.472313  -0.000780
    617          9.476801  -0.000702
    618          9.483332  -0.000601
    619          9.487101  -0.000549
    620          9.489220  -0.000522
    621          9.494764  -0.000456
    622          9.497230  -0.000429
    623          9.500939  -0.000391
    624          9.505248  -0.000351
    625          9.508332  -0.000325
    626          9.540396  -0.000140
    627          9.556205  -0.000090
    628          9.569789  -0.000061
    629          9.588177  -0.000036
    630          9.603114  -0.000023
    631          9.612470  -0.000017
    632          9.617279  -0.000015
    633          9.621752  -0.000013
    634          9.626673  -0.000011
    635          9.631031  -0.000010
    636          9.641299  -0.000007
    637          9.661186  -0.000004
    638          9.667049  -0.000003
    639          9.685306  -0.000002
    640          9.694670  -0.000001
    641          9.739302  -0.000000
    642          9.744380  -0.000000
    643          9.789164  -0.000000
    644          9.797682  -0.000000
    645          9.834873  -0.000000
    646          9.857950  -0.000000
    647          9.872842  -0.000000
    648          9.875686  -0.000000
    649          9.886767  -0.000000
    650          9.892540  -0.000000
    651          9.900866  -0.000000
    652          9.918621  -0.000000
    653          9.928442  -0.000000
    654          9.935273  -0.000000
    655          9.939763  -0.000000
    656          9.950798  -0.000000
    657          9.960414  -0.000000
    658          9.967063  -0.000000
    659          9.979070  -0.000000
    660          9.983555  -0.000000
    661          9.996610  -0.000000
    662         10.003376  -0.000000
    663         10.009802  -0.000000
    664         10.012365  -0.000000
    665         10.018132  -0.000000
    666         10.022099  -0.000000
    667         10.026299  -0.000000
    668         10.034141  -0.000000
    669         10.039487  -0.000000
    670         10.101203  -0.000000
    671         10.107246  -0.000000
    672         10.112338  -0.000000
    673         10.128537  -0.000000
    674         10.161750  -0.000000
    675         10.166609  -0.000000
    676         10.187870  -0.000000
    677         10.206117  -0.000000
    678         10.217847  -0.000000
    679         10.221375  -0.000000
    680         10.230330  -0.000000
    681         10.247972  -0.000000
    682         10.250608  -0.000000
    683         10.257151  -0.000000
    684         10.269099  -0.000000
    685         10.271009  -0.000000
    686         10.278396  -0.000000
    687         10.282271  -0.000000
    688         10.292897  -0.000000
    689         10.303305  -0.000000
    690         10.305909  -0.000000
    691         10.311037  -0.000000
 
  0.5000000E+00 -0.1797743E-16  0.3333333E+00  0.4166667E-01
      1        -39.883653   1.000000
      2        -39.881446   1.000000
      3        -39.871788   1.000000
      4        -39.869576   1.000000
      5        -39.853016   1.000000
      6        -39.852856   1.000000
      7        -39.842854   1.000000
      8        -39.842734   1.000000
      9        -39.832095   1.000000
     10        -39.828648   1.000000
     11        -39.815433   1.000000
     12        -39.814354   1.000000
     13        -39.808673   1.000000
     14        -39.807253   1.000000
     15        -39.806827   1.000000
     16        -39.804654   1.000000
     17        -39.804527   1.000000
     18        -39.803803   1.000000
     19        -39.801098   1.000000
     20        -39.800861   1.000000
     21        -39.797918   1.000000
     22        -39.796720   1.000000
     23        -39.793245   1.000000
     24        -39.790988   1.000000
     25        -39.788105   1.000000
     26        -39.787661   1.000000
     27        -39.785678   1.000000
     28        -39.783702   1.000000
     29        -39.778240   1.000000
     30        -39.777339   1.000000
     31        -39.772546   1.000000
     32        -39.771564   1.000000
     33        -39.770636   1.000000
     34        -39.770024   1.000000
     35        -39.768969   1.000000
     36        -39.767690   1.000000
     37        -39.767559   1.000000
     38        -39.766898   1.000000
     39        -39.764969   1.000000
     40        -39.764377   1.000000
     41        -39.763468   1.000000
     42        -39.762377   1.000000
     43        -39.760905   1.000000
     44        -39.760047   1.000000
     45        -39.759132   1.000000
     46        -39.758658   1.000000
     47        -39.756946   1.000000
     48        -39.756204   1.000000
     49        -39.754092   1.000000
     50        -39.753739   1.000000
     51        -39.752344   1.000000
     52        -39.750837   1.000000
     53        -39.749950   1.000000
     54        -39.748885   1.000000
     55        -39.748849   1.000000
     56        -39.747935   1.000000
     57        -39.747035   1.000000
     58        -39.745855   1.000000
     59        -39.744914   1.000000
     60        -39.744063   1.000000
     61        -39.743669   1.000000
     62        -39.742265   1.000000
     63        -39.740490   1.000000
     64        -39.739957   1.000000
     65        -39.739930   1.000000
     66        -39.739017   1.000000
     67        -39.737725   1.000000
     68        -39.737313   1.000000
     69        -39.736744   1.000000
     70        -39.736025   1.000000
     71        -39.735662   1.000000
     72        -39.733961   1.000000
     73        -39.733070   1.000000
     74        -39.730574   1.000000
     75        -39.730471   1.000000
     76        -39.729858   1.000000
     77        -39.729596   1.000000
     78        -39.728555   1.000000
     79        -39.728018   1.000000
     80        -39.726623   1.000000
     81        -39.726619   1.000000
     82        -39.726386   1.000000
     83        -39.725195   1.000000
     84        -39.725194   1.000000
     85        -39.723871   1.000000
     86        -39.723685   1.000000
     87        -39.723224   1.000000
     88        -39.722897   1.000000
     89        -39.720680   1.000000
     90        -39.720211   1.000000
     91        -39.719198   1.000000
     92        -39.718690   1.000000
     93        -39.717168   1.000000
     94        -39.716698   1.000000
     95        -39.714945   1.000000
     96        -39.713466   1.000000
     97        -18.346102   1.000000
     98        -18.345674   1.000000
     99        -18.283610   1.000000
    100        -18.281280   1.000000
    101        -18.279896   1.000000
    102        -18.277927   1.000000
    103        -18.276165   1.000000
    104        -18.275351   1.000000
    105        -18.269169   1.000000
    106        -18.268993   1.000000
    107        -18.260201   1.000000
    108        -18.258610   1.000000
    109        -18.258218   1.000000
    110        -18.256035   1.000000
    111        -18.252270   1.000000
    112        -18.251515   1.000000
    113        -18.250137   1.000000
    114        -18.249433   1.000000
    115        -18.248874   1.000000
    116        -18.245695   1.000000
    117        -18.244315   1.000000
    118        -18.243054   1.000000
    119        -18.225130   1.000000
    120        -18.224535   1.000000
    121        -18.219945   1.000000
    122        -18.219062   1.000000
    123        -18.218217   1.000000
    124        -18.217041   1.000000
    125        -18.215673   1.000000
    126        -18.213905   1.000000
    127        -18.211631   1.000000
    128        -18.210777   1.000000
    129        -18.201935   1.000000
    130        -18.201914   1.000000
    131        -18.196611   1.000000
    132        -18.195203   1.000000
    133        -18.190836   1.000000
    134        -18.190268   1.000000
    135        -18.188626   1.000000
    136        -18.188476   1.000000
    137        -18.176231   1.000000
    138        -18.176150   1.000000
    139        -18.173270   1.000000
    140        -18.172798   1.000000
    141        -18.171471   1.000000
    142        -18.171458   1.000000
    143        -18.163369   1.000000
    144        -18.163009   1.000000
    145        -18.160535   1.000000
    146        -18.160037   1.000000
    147        -18.149468   1.000000
    148        -18.149420   1.000000
    149        -18.130710   1.000000
    150        -18.129959   1.000000
    151        -18.129495   1.000000
    152        -18.127670   1.000000
    153        -18.127143   1.000000
    154        -18.125783   1.000000
    155        -18.125334   1.000000
    156        -18.125114   1.000000
    157        -18.091036   1.000000
    158        -18.090676   1.000000
    159        -18.085078   1.000000
    160        -18.082628   1.000000
    161        -18.070163   1.000000
    162        -18.068050   1.000000
    163        -18.067259   1.000000
    164        -18.067252   1.000000
    165        -18.066270   1.000000
    166        -18.063003   1.000000
    167        -18.044633   1.000000
    168        -18.038435   1.000000
    169        -18.032134   1.000000
    170        -18.031019   1.000000
    171        -18.020772   1.000000
    172        -18.020463   1.000000
    173        -18.015478   1.000000
    174        -18.015229   1.000000
    175        -18.013724   1.000000
    176        -18.012745   1.000000
    177        -18.005179   1.000000
    178        -18.000693   1.000000
    179        -17.999829   1.000000
    180        -17.999093   1.000000
    181        -17.997853   1.000000
    182        -17.997340   1.000000
    183        -17.989070   1.000000
    184        -17.983746   1.000000
    185        -17.982979   1.000000
    186        -17.979766   1.000000
    187        -17.967783   1.000000
    188        -17.967714   1.000000
    189        -17.954719   1.000000
    190        -17.953916   1.000000
    191        -17.951123   1.000000
    192        -17.951007   1.000000
    193        -17.938869   1.000000
    194        -17.936468   1.000000
    195        -17.927456   1.000000
    196        -17.926929   1.000000
    197        -17.924110   1.000000
    198        -17.923733   1.000000
    199        -17.900463   1.000000
    200        -17.898696   1.000000
    201        -17.892495   1.000000
    202        -17.890740   1.000000
    203        -17.890533   1.000000
    204        -17.888118   1.000000
    205        -17.888036   1.000000
    206        -17.887362   1.000000
    207        -17.884601   1.000000
    208        -17.883499   1.000000
    209        -17.871985   1.000000
    210        -17.870971   1.000000
    211        -17.869797   1.000000
    212        -17.868446   1.000000
    213        -17.819490   1.000000
    214        -17.817220   1.000000
    215        -17.803194   1.000000
    216        -17.801635   1.000000
    217        -17.801517   1.000000
    218        -17.797328   1.000000
    219        -17.797226   1.000000
    220        -17.795366   1.000000
    221        -17.794775   1.000000
    222        -17.794541   1.000000
    223        -17.790511   1.000000
    224        -17.787163   1.000000
    225        -17.786254   1.000000
    226        -17.784763   1.000000
    227        -17.784284   1.000000
    228        -17.782935   1.000000
    229        -17.771914   1.000000
    230        -17.771222   1.000000
    231        -17.764677   1.000000
    232        -17.764473   1.000000
    233        -17.761585   1.000000
    234        -17.759601   1.000000
    235        -17.758881   1.000000
    236        -17.756027   1.000000
    237        -17.756026   1.000000
    238        -17.753450   1.000000
    239        -17.742987   1.000000
    240        -17.740591   1.000000
    241        -17.740330   1.000000
    242        -17.738876   1.000000
    243        -17.735439   1.000000
    244        -17.734309   1.000000
    245        -17.732054   1.000000
    246        -17.731050   1.000000
    247        -17.730479   1.000000
    248        -17.727826   1.000000
    249        -17.727407   1.000000
    250        -17.726152   1.000000
    251        -17.725728   1.000000
    252        -17.725086   1.000000
    253        -17.724522   1.000000
    254        -17.724078   1.000000
    255        -17.723223   1.000000
    256        -17.721567   1.000000
    257        -17.721405   1.000000
    258        -17.720680   1.000000
    259        -17.710195   1.000000
    260        -17.709440   1.000000
    261        -17.708868   1.000000
    262        -17.708009   1.000000
    263        -17.705590   1.000000
    264        -17.704805   1.000000
    265        -17.702671   1.000000
    266        -17.702304   1.000000
    267        -17.698471   1.000000
    268        -17.697935   1.000000
    269        -17.668681   1.000000
    270        -17.665554   1.000000
    271        -17.663886   1.000000
    272        -17.662775   1.000000
    273        -17.662660   1.000000
    274        -17.660253   1.000000
    275        -17.659523   1.000000
    276        -17.657980   1.000000
    277        -17.657868   1.000000
    278        -17.656865   1.000000
    279        -17.655741   1.000000
    280        -17.650248   1.000000
    281        -17.646802   1.000000
    282        -17.646272   1.000000
    283        -17.645682   1.000000
    284        -17.643657   1.000000
    285        -17.642852   1.000000
    286        -17.641617   1.000000
    287        -17.641225   1.000000
    288        -17.638572   1.000000
    289        -17.631607   1.000000
    290        -17.631133   1.000000
    291        -17.629106   1.000000
    292        -17.629097   1.000000
    293        -17.628025   1.000000
    294        -17.626377   1.000000
    295        -17.625813   1.000000
    296        -17.625003   1.000000
    297        -17.620052   1.000000
    298        -17.619327   1.000000
    299        -17.614467   1.000000
    300        -17.614102   1.000000
    301        -17.612298   1.000000
    302        -17.611936   1.000000
    303        -17.611151   1.000000
    304        -17.608813   1.000000
    305        -17.604625   1.000000
    306        -17.603740   1.000000
    307        -17.602214   1.000000
    308        -17.601107   1.000000
    309        -17.601030   1.000000
    310        -17.599084   1.000000
    311        -17.594783   1.000000
    312        -17.594674   1.000000
    313        -17.593101   1.000000
    314        -17.591561   1.000000
    315        -17.591464   1.000000
    316        -17.589453   1.000000
    317        -17.589092   1.000000
    318        -17.588041   1.000000
    319        -17.587680   1.000000
    320        -17.586841   1.000000
    321        -17.586774   1.000000
    322        -17.585389   1.000000
    323        -17.584504   1.000000
    324        -17.584293   1.000000
    325        -17.583669   1.000000
    326        -17.583474   1.000000
    327        -17.582565   1.000000
    328        -17.582167   1.000000
    329        -17.581315   1.000000
    330        -17.580833   1.000000
    331        -17.580642   1.000000
    332        -17.579814   1.000000
    333        -17.578580   1.000000
    334        -17.577870   1.000000
    335        -17.577263   1.000000
    336        -17.576635   1.000000
    337        -17.574556   1.000000
    338        -17.572270   1.000000
    339        -17.571435   1.000000
    340        -17.570923   1.000000
    341        -17.569699   1.000000
    342        -17.569688   1.000000
    343        -17.567442   1.000000
    344        -17.567054   1.000000
    345        -17.555543   1.000000
    346        -17.552453   1.000000
    347        -17.552426   1.000000
    348        -17.548401   1.000000
    349        -17.547638   1.000000
    350        -17.546788   1.000000
    351        -17.545761   1.000000
    352        -17.543938   1.000000
    353        -17.542838   1.000000
    354        -17.542486   1.000000
    355        -17.540082   1.000000
    356        -17.539764   1.000000
    357        -17.538956   1.000000
    358        -17.538759   1.000000
    359        -17.537772   1.000000
    360        -17.536632   1.000000
    361        -17.535127   1.000000
    362        -17.533644   1.000000
    363        -17.525984   1.000000
    364        -17.523889   1.000000
    365        -17.517170   1.000000
    366        -17.515509   1.000000
    367        -17.502122   1.000000
    368        -17.501147   1.000000
    369        -17.500793   1.000000
    370        -17.500261   1.000000
    371        -17.497863   1.000000
    372        -17.496842   1.000000
    373        -17.491220   1.000000
    374        -17.489346   1.000000
    375        -17.486832   1.000000
    376        -17.484360   1.000000
    377        -17.476310   1.000000
    378        -17.473589   1.000000
    379        -17.456591   1.000000
    380        -17.455593   1.000000
    381        -17.452196   1.000000
    382        -17.450335   1.000000
    383        -17.438489   1.000000
    384        -17.436675   1.000000
    385          2.695728   1.000000
    386          3.817385   1.000000
    387          3.902225   1.000000
    388          4.097245   1.000000
    389          4.213983   1.000000
    390          4.576219   1.000000
    391          4.636196   1.000000
    392          4.810758   1.000000
    393          4.876056   1.000000
    394          5.070967   1.000000
    395          5.132264   1.000000
    396          5.623122   1.000000
    397          5.631494   1.000000
    398          5.656082   1.000000
    399          5.676905   1.000000
    400          5.740226   1.000000
    401          5.742079   1.000000
    402          5.745501   1.000000
    403          5.773183   1.000000
    404          5.832380   1.000000
    405          5.833552   1.000000
    406          5.836628   1.000000
    407          5.851614   1.000000
    408          5.862892   1.000000
    409          5.889190   1.000000
    410          5.908255   1.000000
    411          5.973950   1.000000
    412          6.049621   1.000000
    413          6.081556   1.000000
    414          6.184600   1.000000
    415          6.192980   1.000000
    416          6.230848   1.000000
    417          6.231805   1.000000
    418          6.232021   1.000000
    419          6.234378   1.000000
    420          6.241320   1.000000
    421          6.244041   1.000000
    422          6.244164   1.000000
    423          6.254113   1.000000
    424          6.257758   1.000000
    425          6.275002   1.000000
    426          6.291483   1.000000
    427          6.291536   1.000000
    428          6.295155   1.000000
    429          6.295176   1.000000
    430          6.299028   1.000000
    431          6.302237   1.000000
    432          6.306746   1.000000
    433          6.375429   1.000000
    434          6.404975   1.000000
    435          6.405563   1.000000
    436          6.406770   1.000000
    437          6.455519   1.000000
    438          6.511860   1.000000
    439          6.512443   1.000000
    440          6.515478   1.000000
    441          6.534836   1.000000
    442          6.547843   1.000000
    443          6.551487   1.000000
    444          6.552313   1.000000
    445          6.655261   1.000000
    446          6.710507   1.000000
    447          6.714009   1.000000
    448          6.716168   1.000000
    449          6.773304   1.000000
    450          6.820572   1.000000
    451          6.823300   1.000000
    452          6.826539   1.000000
    453          6.827935   1.000000
    454          6.832611   1.000000
    455          6.844772   1.000000
    456          6.850204   1.000000
    457          6.865302   1.000000
    458          6.872440   1.000000
    459          6.872620   1.000000
    460          6.880208   1.000000
    461          6.912642   1.000000
    462          6.922710   1.000000
    463          6.927401   1.000000
    464          6.929614   1.000000
    465          6.958837   1.000000
    466          6.975209   1.000000
    467          7.056032   1.000000
    468          7.170766   1.000000
    469          7.174177   1.000000
    470          7.176755   1.000000
    471          7.181789   1.000000
    472          7.184385   1.000000
    473          7.200907   1.000000
    474          7.214278   1.000000
    475          7.218441   1.000000
    476          7.220133   1.000000
    477          7.242697   1.000000
    478          7.246968   1.000000
    479          7.247162   1.000000
    480          7.251920   1.000000
    481          7.253623   1.000000
    482          7.256792   1.000000
    483          7.329845   1.000000
    484          7.409186   1.000000
    485          7.410408   1.000000
    486          7.411707   1.000000
    487          7.415473   1.000000
    488          7.416402   1.000000
    489          7.437660   1.000000
    490          7.444740   1.000000
    491          7.445386   1.000000
    492          7.448993   1.000000
    493          7.450682   1.000000
    494          7.451268   1.000000
    495          7.458790   1.000000
    496          7.470450   1.000000
    497          7.525054   1.000000
    498          7.554548   1.000000
    499          7.559303   1.000000
    500          7.559309   1.000000
    501          7.571846   1.000000
    502          7.579875   1.000000
    503          7.637561   1.000000
    504          7.648035   1.000000
    505          7.732181   1.000000
    506          7.738304   1.000000
    507          7.830364   1.000000
    508          7.866875   1.000000
    509          7.872573   1.000000
    510          7.923813   1.000000
    511          7.928870   1.000000
    512          7.929403   1.000000
    513          7.931563   1.000000
    514          7.935718   1.000000
    515          7.937509   1.000000
    516          7.946077   1.000000
    517          7.980518   1.000000
    518          8.014270   1.000000
    519          8.022027   1.000000
    520          8.037486   1.000000
    521          8.041430   1.000000
    522          8.041764   1.000000
    523          8.054424   1.000000
    524          8.066837   1.000000
    525          8.067993   1.000000
    526          8.071137   1.000000
    527          8.089932   1.000000
    528          8.116297   1.000000
    529          8.121702   1.000000
    530          8.123593   1.000000
    531          8.127250   1.000000
    532          8.131106   1.000000
    533          8.132122   1.000000
    534          8.133268   1.000000
    535          8.134238   1.000000
    536          8.136507   1.000000
    537          8.189222   1.000000
    538          8.229539   1.000002
    539          8.233195   1.000002
    540          8.234751   1.000002
    541          8.237139   1.000002
    542          8.237508   1.000002
    543          8.239245   1.000003
    544          8.240811   1.000003
    545          8.243489   1.000003
    546          8.245717   1.000003
    547          8.246229   1.000003
    548          8.247934   1.000003
    549          8.259412   1.000005
    550          8.261008   1.000005
    551          8.264814   1.000006
    552          8.265462   1.000006
    553          8.330297   1.000046
    554          8.334325   1.000052
    555          8.337826   1.000057
    556          8.340539   1.000062
    557          8.371822   1.000148
    558          8.390220   1.000241
    559          8.418757   1.000496
    560          8.430073   1.000651
    561          8.463294   1.001390
    562          8.466470   1.001489
    563          8.498912   1.002916
    564          8.507189   1.003426
    565          8.518102   1.004210
    566          8.532808   1.005492
    567          8.681245   1.032845
    568          8.708230   1.035445
    569          8.770068   1.015465
    570          8.785997   1.000721
    571          8.812363   0.964449
    572          8.820097   0.950723
    573          8.916234   0.660799
    574          8.980020   0.395185
    575          8.995639   0.332048
    576          9.009164   0.279995
    577          9.026900   0.216579
    578          9.066762   0.099409
    579          9.071086   0.089039
    580          9.073526   0.083398
    581          9.075204   0.079604
    582          9.081537   0.065928
    583          9.093005   0.043717
    584          9.099390   0.032753
    585          9.105734   0.022824
    586          9.113895   0.011423
    587          9.124898  -0.001612
    588          9.156193  -0.025718
    589          9.156428  -0.025836
    590          9.163146  -0.028841
    591          9.177659  -0.033234
    592          9.200402  -0.035457
    593          9.208593  -0.035189
    594          9.212255  -0.034925
    595          9.218865  -0.034254
    596          9.267016  -0.024921
    597          9.267537  -0.024801
    598          9.272195  -0.023723
    599          9.272907  -0.023558
    600          9.276206  -0.022795
    601          9.284539  -0.020885
    602          9.287866  -0.020134
    603          9.293487  -0.018886
    604          9.297517  -0.018009
    605          9.305692  -0.016289
    606          9.332215  -0.011355
    607          9.336980  -0.010584
    608          9.338447  -0.010354
    609          9.342685  -0.009710
    610          9.343362  -0.009609
    611          9.348336  -0.008895
    612          9.350389  -0.008611
    613          9.353384  -0.008210
    614          9.356944  -0.007751
    615          9.369259  -0.006310
    616          9.370575  -0.006170
    617          9.375168  -0.005698
    618          9.380641  -0.005173
    619          9.448691  -0.001333
    620          9.454372  -0.001175
    621          9.466805  -0.000887
    622          9.481399  -0.000630
    623          9.483638  -0.000597
    624          9.489126  -0.000523
    625          9.638179  -0.000008
    626          9.654644  -0.000004
    627          9.668238  -0.000003
    628          9.716205  -0.000001
    629          9.732296  -0.000000
    630          9.735593  -0.000000
    631          9.738659  -0.000000
    632          9.743778  -0.000000
    633          9.751962  -0.000000
    634          9.756680  -0.000000
    635          9.762349  -0.000000
    636          9.764915  -0.000000
    637          9.777846  -0.000000
    638          9.784907  -0.000000
    639          9.786694  -0.000000
    640          9.792927  -0.000000
    641          9.799133  -0.000000
    642          9.800745  -0.000000
    643          9.804787  -0.000000
    644          9.804866  -0.000000
    645          9.810036  -0.000000
    646          9.811157  -0.000000
    647          9.813237  -0.000000
    648          9.823099  -0.000000
    649          9.823802  -0.000000
    650          9.836251  -0.000000
    651          9.847920  -0.000000
    652          9.867774  -0.000000
    653          9.877421  -0.000000
    654          9.881639  -0.000000
    655          9.891541  -0.000000
    656          9.897009  -0.000000
    657          9.928940  -0.000000
    658          9.929079  -0.000000
    659          9.936816  -0.000000
    660          9.940872  -0.000000
    661          9.944291  -0.000000
    662          9.945183  -0.000000
    663          9.958569  -0.000000
    664          9.962969  -0.000000
    665          9.968624  -0.000000
    666          9.971035  -0.000000
    667          9.972284  -0.000000
    668          9.977525  -0.000000
    669          9.991356  -0.000000
    670         10.008387  -0.000000
    671         10.010658  -0.000000
    672         10.011120  -0.000000
    673         10.047738  -0.000000
    674         10.056590  -0.000000
    675         10.073112  -0.000000
    676         10.094571  -0.000000
    677         10.094712  -0.000000
    678         10.101124  -0.000000
    679         10.103443  -0.000000
    680         10.104416  -0.000000
    681         10.107382  -0.000000
    682         10.111502  -0.000000
    683         10.120588  -0.000000
    684         10.125895  -0.000000
    685         10.138161  -0.000000
    686         10.139116  -0.000000
    687         10.197677  -0.000000
    688         10.216271  -0.000000
    689         10.225458  -0.000000
    690         10.229412  -0.000000
    691         10.288338  -0.000000
 
  0.2690550E-16  0.5000000E+00  0.3333333E+00  0.4166667E-01
      1        -39.883650   1.000000
      2        -39.881441   1.000000
      3        -39.871701   1.000000
      4        -39.869423   1.000000
      5        -39.853914   1.000000
      6        -39.852485   1.000000
      7        -39.843709   1.000000
      8        -39.842438   1.000000
      9        -39.830886   1.000000
     10        -39.828777   1.000000
     11        -39.815813   1.000000
     12        -39.814421   1.000000
     13        -39.808127   1.000000
     14        -39.806778   1.000000
     15        -39.806310   1.000000
     16        -39.804591   1.000000
     17        -39.803703   1.000000
     18        -39.803270   1.000000
     19        -39.802208   1.000000
     20        -39.800627   1.000000
     21        -39.798640   1.000000
     22        -39.797940   1.000000
     23        -39.794005   1.000000
     24        -39.790795   1.000000
     25        -39.788284   1.000000
     26        -39.786738   1.000000
     27        -39.784867   1.000000
     28        -39.783935   1.000000
     29        -39.778416   1.000000
     30        -39.776556   1.000000
     31        -39.775139   1.000000
     32        -39.773250   1.000000
     33        -39.771753   1.000000
     34        -39.769612   1.000000
     35        -39.768146   1.000000
     36        -39.767408   1.000000
     37        -39.767152   1.000000
     38        -39.766044   1.000000
     39        -39.765012   1.000000
     40        -39.763613   1.000000
     41        -39.762930   1.000000
     42        -39.761956   1.000000
     43        -39.761678   1.000000
     44        -39.760525   1.000000
     45        -39.759520   1.000000
     46        -39.758648   1.000000
     47        -39.757119   1.000000
     48        -39.755797   1.000000
     49        -39.753639   1.000000
     50        -39.752756   1.000000
     51        -39.751181   1.000000
     52        -39.750472   1.000000
     53        -39.749554   1.000000
     54        -39.748904   1.000000
     55        -39.748028   1.000000
     56        -39.747495   1.000000
     57        -39.747177   1.000000
     58        -39.746265   1.000000
     59        -39.745387   1.000000
     60        -39.744935   1.000000
     61        -39.743859   1.000000
     62        -39.743230   1.000000
     63        -39.741746   1.000000
     64        -39.740712   1.000000
     65        -39.739701   1.000000
     66        -39.739175   1.000000
     67        -39.738185   1.000000
     68        -39.737625   1.000000
     69        -39.737028   1.000000
     70        -39.734874   1.000000
     71        -39.733987   1.000000
     72        -39.733375   1.000000
     73        -39.733210   1.000000
     74        -39.731713   1.000000
     75        -39.731146   1.000000
     76        -39.729345   1.000000
     77        -39.728919   1.000000
     78        -39.728376   1.000000
     79        -39.727617   1.000000
     80        -39.727076   1.000000
     81        -39.726693   1.000000
     82        -39.726043   1.000000
     83        -39.725057   1.000000
     84        -39.724593   1.000000
     85        -39.724304   1.000000
     86        -39.723864   1.000000
     87        -39.722917   1.000000
     88        -39.722384   1.000000
     89        -39.721708   1.000000
     90        -39.720446   1.000000
     91        -39.719248   1.000000
     92        -39.719015   1.000000
     93        -39.718492   1.000000
     94        -39.716073   1.000000
     95        -39.714539   1.000000
     96        -39.713036   1.000000
     97        -18.346666   1.000000
     98        -18.345084   1.000000
     99        -18.283913   1.000000
    100        -18.280500   1.000000
    101        -18.279190   1.000000
    102        -18.278733   1.000000
    103        -18.276335   1.000000
    104        -18.274805   1.000000
    105        -18.269689   1.000000
    106        -18.268756   1.000000
    107        -18.259982   1.000000
    108        -18.257919   1.000000
    109        -18.257202   1.000000
    110        -18.256569   1.000000
    111        -18.252092   1.000000
    112        -18.251695   1.000000
    113        -18.250260   1.000000
    114        -18.249380   1.000000
    115        -18.247608   1.000000
    116        -18.247346   1.000000
    117        -18.244052   1.000000
    118        -18.243709   1.000000
    119        -18.225446   1.000000
    120        -18.224498   1.000000
    121        -18.219954   1.000000
    122        -18.219184   1.000000
    123        -18.217208   1.000000
    124        -18.216107   1.000000
    125        -18.215772   1.000000
    126        -18.215199   1.000000
    127        -18.211433   1.000000
    128        -18.210833   1.000000
    129        -18.202558   1.000000
    130        -18.201380   1.000000
    131        -18.197235   1.000000
    132        -18.195608   1.000000
    133        -18.191512   1.000000
    134        -18.189117   1.000000
    135        -18.189042   1.000000
    136        -18.187984   1.000000
    137        -18.177060   1.000000
    138        -18.176087   1.000000
    139        -18.173765   1.000000
    140        -18.172329   1.000000
    141        -18.171737   1.000000
    142        -18.171182   1.000000
    143        -18.163716   1.000000
    144        -18.162089   1.000000
    145        -18.160839   1.000000
    146        -18.159908   1.000000
    147        -18.149955   1.000000
    148        -18.149146   1.000000
    149        -18.130911   1.000000
    150        -18.129618   1.000000
    151        -18.129288   1.000000
    152        -18.128324   1.000000
    153        -18.127046   1.000000
    154        -18.125932   1.000000
    155        -18.125491   1.000000
    156        -18.124697   1.000000
    157        -18.091426   1.000000
    158        -18.090119   1.000000
    159        -18.084324   1.000000
    160        -18.082916   1.000000
    161        -18.070259   1.000000
    162        -18.068099   1.000000
    163        -18.067520   1.000000
    164        -18.066694   1.000000
    165        -18.065650   1.000000
    166        -18.064070   1.000000
    167        -18.044304   1.000000
    168        -18.039318   1.000000
    169        -18.032688   1.000000
    170        -18.030402   1.000000
    171        -18.020753   1.000000
    172        -18.019946   1.000000
    173        -18.016240   1.000000
    174        -18.014679   1.000000
    175        -18.014205   1.000000
    176        -18.012724   1.000000
    177        -18.005843   1.000000
    178        -18.001714   1.000000
    179        -17.999920   1.000000
    180        -17.998911   1.000000
    181        -17.997438   1.000000
    182        -17.996669   1.000000
    183        -17.989219   1.000000
    184        -17.984739   1.000000
    185        -17.983100   1.000000
    186        -17.979536   1.000000
    187        -17.968788   1.000000
    188        -17.967770   1.000000
    189        -17.953914   1.000000
    190        -17.952360   1.000000
    191        -17.951413   1.000000
    192        -17.950769   1.000000
    193        -17.939829   1.000000
    194        -17.936069   1.000000
    195        -17.927182   1.000000
    196        -17.926642   1.000000
    197        -17.924884   1.000000
    198        -17.924139   1.000000
    199        -17.901708   1.000000
    200        -17.898314   1.000000
    201        -17.891808   1.000000
    202        -17.890979   1.000000
    203        -17.889638   1.000000
    204        -17.888825   1.000000
    205        -17.887609   1.000000
    206        -17.887056   1.000000
    207        -17.884600   1.000000
    208        -17.883313   1.000000
    209        -17.872164   1.000000
    210        -17.871245   1.000000
    211        -17.869705   1.000000
    212        -17.868151   1.000000
    213        -17.820055   1.000000
    214        -17.817660   1.000000
    215        -17.803710   1.000000
    216        -17.801639   1.000000
    217        -17.800321   1.000000
    218        -17.798753   1.000000
    219        -17.797357   1.000000
    220        -17.796034   1.000000
    221        -17.795134   1.000000
    222        -17.794260   1.000000
    223        -17.790438   1.000000
    224        -17.787420   1.000000
    225        -17.785701   1.000000
    226        -17.784105   1.000000
    227        -17.783590   1.000000
    228        -17.782739   1.000000
    229        -17.771784   1.000000
    230        -17.770276   1.000000
    231        -17.765258   1.000000
    232        -17.763421   1.000000
    233        -17.760832   1.000000
    234        -17.759417   1.000000
    235        -17.759088   1.000000
    236        -17.756566   1.000000
    237        -17.755259   1.000000
    238        -17.752982   1.000000
    239        -17.743326   1.000000
    240        -17.740038   1.000000
    241        -17.739538   1.000000
    242        -17.739040   1.000000
    243        -17.735432   1.000000
    244        -17.733457   1.000000
    245        -17.732480   1.000000
    246        -17.730888   1.000000
    247        -17.730298   1.000000
    248        -17.728895   1.000000
    249        -17.727302   1.000000
    250        -17.726605   1.000000
    251        -17.726210   1.000000
    252        -17.725463   1.000000
    253        -17.724921   1.000000
    254        -17.723567   1.000000
    255        -17.722722   1.000000
    256        -17.722182   1.000000
    257        -17.721352   1.000000
    258        -17.720051   1.000000
    259        -17.711491   1.000000
    260        -17.709013   1.000000
    261        -17.708520   1.000000
    262        -17.707906   1.000000
    263        -17.705072   1.000000
    264        -17.704536   1.000000
    265        -17.703514   1.000000
    266        -17.701923   1.000000
    267        -17.699386   1.000000
    268        -17.697034   1.000000
    269        -17.670160   1.000000
    270        -17.664948   1.000000
    271        -17.663905   1.000000
    272        -17.663555   1.000000
    273        -17.662755   1.000000
    274        -17.661077   1.000000
    275        -17.660283   1.000000
    276        -17.659093   1.000000
    277        -17.657510   1.000000
    278        -17.656804   1.000000
    279        -17.654534   1.000000
    280        -17.651741   1.000000
    281        -17.646231   1.000000
    282        -17.645375   1.000000
    283        -17.644309   1.000000
    284        -17.642948   1.000000
    285        -17.642036   1.000000
    286        -17.641667   1.000000
    287        -17.641176   1.000000
    288        -17.640120   1.000000
    289        -17.633604   1.000000
    290        -17.630429   1.000000
    291        -17.629796   1.000000
    292        -17.628315   1.000000
    293        -17.627675   1.000000
    294        -17.626908   1.000000
    295        -17.625529   1.000000
    296        -17.624274   1.000000
    297        -17.621161   1.000000
    298        -17.617917   1.000000
    299        -17.614572   1.000000
    300        -17.614265   1.000000
    301        -17.612023   1.000000
    302        -17.611595   1.000000
    303        -17.609742   1.000000
    304        -17.609049   1.000000
    305        -17.604592   1.000000
    306        -17.603292   1.000000
    307        -17.601998   1.000000
    308        -17.601370   1.000000
    309        -17.599026   1.000000
    310        -17.598756   1.000000
    311        -17.595161   1.000000
    312        -17.594227   1.000000
    313        -17.592804   1.000000
    314        -17.592051   1.000000
    315        -17.591417   1.000000
    316        -17.589519   1.000000
    317        -17.588840   1.000000
    318        -17.587788   1.000000
    319        -17.587647   1.000000
    320        -17.586960   1.000000
    321        -17.586410   1.000000
    322        -17.585650   1.000000
    323        -17.584770   1.000000
    324        -17.584209   1.000000
    325        -17.583795   1.000000
    326        -17.583068   1.000000
    327        -17.582636   1.000000
    328        -17.582368   1.000000
    329        -17.581795   1.000000
    330        -17.581095   1.000000
    331        -17.580504   1.000000
    332        -17.579822   1.000000
    333        -17.578796   1.000000
    334        -17.577475   1.000000
    335        -17.577059   1.000000
    336        -17.576436   1.000000
    337        -17.574433   1.000000
    338        -17.572483   1.000000
    339        -17.571744   1.000000
    340        -17.570677   1.000000
    341        -17.569988   1.000000
    342        -17.568911   1.000000
    343        -17.568095   1.000000
    344        -17.567115   1.000000
    345        -17.555334   1.000000
    346        -17.552808   1.000000
    347        -17.551205   1.000000
    348        -17.548704   1.000000
    349        -17.547809   1.000000
    350        -17.547217   1.000000
    351        -17.546003   1.000000
    352        -17.544848   1.000000
    353        -17.544223   1.000000
    354        -17.541749   1.000000
    355        -17.541337   1.000000
    356        -17.540410   1.000000
    357        -17.539336   1.000000
    358        -17.538451   1.000000
    359        -17.537564   1.000000
    360        -17.536338   1.000000
    361        -17.535046   1.000000
    362        -17.534046   1.000000
    363        -17.525804   1.000000
    364        -17.523520   1.000000
    365        -17.516738   1.000000
    366        -17.515584   1.000000
    367        -17.503567   1.000000
    368        -17.501773   1.000000
    369        -17.500608   1.000000
    370        -17.499347   1.000000
    371        -17.498386   1.000000
    372        -17.496322   1.000000
    373        -17.491355   1.000000
    374        -17.489341   1.000000
    375        -17.487450   1.000000
    376        -17.484120   1.000000
    377        -17.476146   1.000000
    378        -17.474524   1.000000
    379        -17.456594   1.000000
    380        -17.455762   1.000000
    381        -17.452272   1.000000
    382        -17.449841   1.000000
    383        -17.438280   1.000000
    384        -17.435959   1.000000
    385          2.697775   1.000000
    386          3.817763   1.000000
    387          3.899896   1.000000
    388          4.097639   1.000000
    389          4.207393   1.000000
    390          4.575334   1.000000
    391          4.639152   1.000000
    392          4.809828   1.000000
    393          4.882078   1.000000
    394          5.071317   1.000000
    395          5.131290   1.000000
    396          5.623419   1.000000
    397          5.630637   1.000000
    398          5.655318   1.000000
    399          5.677697   1.000000
    400          5.741020   1.000000
    401          5.743222   1.000000
    402          5.745696   1.000000
    403          5.777435   1.000000
    404          5.832172   1.000000
    405          5.835291   1.000000
    406          5.836725   1.000000
    407          5.855961   1.000000
    408          5.862592   1.000000
    409          5.891987   1.000000
    410          5.906539   1.000000
    411          5.964618   1.000000
    412          6.051296   1.000000
    413          6.071862   1.000000
    414          6.183821   1.000000
    415          6.192864   1.000000
    416          6.228170   1.000000
    417          6.231544   1.000000
    418          6.233981   1.000000
    419          6.236405   1.000000
    420          6.241039   1.000000
    421          6.243371   1.000000
    422          6.244022   1.000000
    423          6.255989   1.000000
    424          6.258079   1.000000
    425          6.272850   1.000000
    426          6.290479   1.000000
    427          6.291922   1.000000
    428          6.293456   1.000000
    429          6.299606   1.000000
    430          6.299835   1.000000
    431          6.302726   1.000000
    432          6.305747   1.000000
    433          6.369502   1.000000
    434          6.402890   1.000000
    435          6.406081   1.000000
    436          6.408867   1.000000
    437          6.456375   1.000000
    438          6.510734   1.000000
    439          6.512656   1.000000
    440          6.514114   1.000000
    441          6.533320   1.000000
    442          6.547023   1.000000
    443          6.550948   1.000000
    444          6.552056   1.000000
    445          6.675058   1.000000
    446          6.709636   1.000000
    447          6.713865   1.000000
    448          6.716170   1.000000
    449          6.743180   1.000000
    450          6.821413   1.000000
    451          6.825065   1.000000
    452          6.826620   1.000000
    453          6.829435   1.000000
    454          6.832255   1.000000
    455          6.842790   1.000000
    456          6.848356   1.000000
    457          6.863407   1.000000
    458          6.871587   1.000000
    459          6.873705   1.000000
    460          6.878230   1.000000
    461          6.913457   1.000000
    462          6.922098   1.000000
    463          6.928165   1.000000
    464          6.930216   1.000000
    465          6.963063   1.000000
    466          6.974172   1.000000
    467          7.060245   1.000000
    468          7.169064   1.000000
    469          7.174047   1.000000
    470          7.177016   1.000000
    471          7.180847   1.000000
    472          7.184888   1.000000
    473          7.203975   1.000000
    474          7.215774   1.000000
    475          7.217480   1.000000
    476          7.221543   1.000000
    477          7.233748   1.000000
    478          7.246528   1.000000
    479          7.249126   1.000000
    480          7.250722   1.000000
    481          7.254150   1.000000
    482          7.255883   1.000000
    483          7.352685   1.000000
    484          7.407534   1.000000
    485          7.409698   1.000000
    486          7.411258   1.000000
    487          7.414894   1.000000
    488          7.417109   1.000000
    489          7.435908   1.000000
    490          7.444089   1.000000
    491          7.446130   1.000000
    492          7.447665   1.000000
    493          7.450418   1.000000
    494          7.452322   1.000000
    495          7.464232   1.000000
    496          7.469656   1.000000
    497          7.533969   1.000000
    498          7.553733   1.000000
    499          7.556569   1.000000
    500          7.559490   1.000000
    501          7.573953   1.000000
    502          7.579773   1.000000
    503          7.636734   1.000000
    504          7.647266   1.000000
    505          7.722408   1.000000
    506          7.737199   1.000000
    507          7.834867   1.000000
    508          7.866905   1.000000
    509          7.877768   1.000000
    510          7.925206   1.000000
    511          7.928324   1.000000
    512          7.929629   1.000000
    513          7.930995   1.000000
    514          7.934424   1.000000
    515          7.942607   1.000000
    516          7.946788   1.000000
    517          7.995671   1.000000
    518          8.014706   1.000000
    519          8.025852   1.000000
    520          8.037590   1.000000
    521          8.041892   1.000000
    522          8.043647   1.000000
    523          8.054213   1.000000
    524          8.066690   1.000000
    525          8.068413   1.000000
    526          8.071755   1.000000
    527          8.097116   1.000000
    528          8.116916   1.000000
    529          8.121434   1.000000
    530          8.123162   1.000000
    531          8.127818   1.000000
    532          8.131426   1.000000
    533          8.132067   1.000000
    534          8.133215   1.000000
    535          8.134574   1.000000
    536          8.138255   1.000000
    537          8.186168   1.000000
    538          8.223790   1.000001
    539          8.233273   1.000002
    540          8.234740   1.000002
    541          8.236529   1.000002
    542          8.237167   1.000002
    543          8.239536   1.000003
    544          8.240910   1.000003
    545          8.242514   1.000003
    546          8.246450   1.000003
    547          8.247669   1.000003
    548          8.250405   1.000004
    549          8.259641   1.000005
    550          8.262331   1.000006
    551          8.263455   1.000006
    552          8.269858   1.000007
    553          8.330794   1.000047
    554          8.334586   1.000052
    555          8.338053   1.000058
    556          8.342577   1.000066
    557          8.364877   1.000123
    558          8.389215   1.000235
    559          8.407626   1.000376
    560          8.430661   1.000660
    561          8.458549   1.001252
    562          8.470701   1.001631
    563          8.498016   1.002864
    564          8.503873   1.003213
    565          8.514525   1.003938
    566          8.535650   1.005773
    567          8.678964   1.032466
    568          8.705401   1.035376
    569          8.773272   1.012893
    570          8.781210   1.005678
    571          8.808848   0.970208
    572          8.820275   0.950390
    573          8.914851   0.666282
    574          8.978969   0.399520
    575          8.989252   0.357535
    576          9.022669   0.231148
    577          9.033672   0.194057
    578          9.063199   0.108309
    579          9.068587   0.094975
    580          9.071903   0.087135
    581          9.076031   0.077760
    582          9.085545   0.057794
    583          9.088017   0.052977
    584          9.098073   0.034933
    585          9.102931   0.027094
    586          9.115023   0.009966
    587          9.132627  -0.009257
    588          9.148468  -0.021376
    589          9.155961  -0.025602
    590          9.162278  -0.028489
    591          9.185260  -0.034537
    592          9.199202  -0.035456
    593          9.208737  -0.035180
    594          9.213764  -0.034793
    595          9.232458  -0.032233
    596          9.257072  -0.027195
    597          9.264929  -0.025403
    598          9.269954  -0.024242
    599          9.274748  -0.023132
    600          9.277278  -0.022548
    601          9.284985  -0.020784
    602          9.288815  -0.019921
    603          9.293813  -0.018814
    604          9.296193  -0.018296
    605          9.311441  -0.015132
    606          9.325496  -0.012503
    607          9.337247  -0.010542
    608          9.338903  -0.010283
    609          9.341370  -0.009907
    610          9.342855  -0.009684
    611          9.347782  -0.008972
    612          9.352111  -0.008379
    613          9.352702  -0.008300
    614          9.357313  -0.007704
    615          9.362247  -0.007103
    616          9.366430  -0.006621
    617          9.374364  -0.005778
    618          9.382899  -0.004968
    619          9.441883  -0.001546
    620          9.455787  -0.001139
    621          9.467701  -0.000869
    622          9.477476  -0.000691
    623          9.484300  -0.000588
    624          9.491303  -0.000496
    625          9.631105  -0.000010
    626          9.645547  -0.000006
    627          9.663779  -0.000003
    628          9.717521  -0.000000
    629          9.729892  -0.000000
    630          9.738363  -0.000000
    631          9.742152  -0.000000
    632          9.743932  -0.000000
    633          9.752650  -0.000000
    634          9.754944  -0.000000
    635          9.761232  -0.000000
    636          9.766001  -0.000000
    637          9.777349  -0.000000
    638          9.782396  -0.000000
    639          9.789643  -0.000000
    640          9.794095  -0.000000
    641          9.795877  -0.000000
    642          9.798613  -0.000000
    643          9.800032  -0.000000
    644          9.805121  -0.000000
    645          9.806855  -0.000000
    646          9.809105  -0.000000
    647          9.815042  -0.000000
    648          9.822663  -0.000000
    649          9.829108  -0.000000
    650          9.838359  -0.000000
    651          9.848459  -0.000000
    652          9.868977  -0.000000
    653          9.878075  -0.000000
    654          9.882682  -0.000000
    655          9.890407  -0.000000
    656          9.896515  -0.000000
    657          9.916269  -0.000000
    658          9.928492  -0.000000
    659          9.936363  -0.000000
    660          9.940359  -0.000000
    661          9.944833  -0.000000
    662          9.945804  -0.000000
    663          9.960303  -0.000000
    664          9.962625  -0.000000
    665          9.967479  -0.000000
    666          9.971400  -0.000000
    667          9.972557  -0.000000
    668          9.981398  -0.000000
    669         10.000696  -0.000000
    670         10.006534  -0.000000
    671         10.008701  -0.000000
    672         10.011889  -0.000000
    673         10.051892  -0.000000
    674         10.056205  -0.000000
    675         10.073334  -0.000000
    676         10.095384  -0.000000
    677         10.099042  -0.000000
    678         10.101383  -0.000000
    679         10.104083  -0.000000
    680         10.106427  -0.000000
    681         10.110155  -0.000000
    682         10.112092  -0.000000
    683         10.121382  -0.000000
    684         10.131379  -0.000000
    685         10.135333  -0.000000
    686         10.141419  -0.000000
    687         10.199683  -0.000000
    688         10.221470  -0.000000
    689         10.225433  -0.000000
    690         10.232550  -0.000000
    691         10.286357  -0.000000
 
  0.5000000E+00  0.5000000E+00  0.3333333E+00  0.4166667E-01
      1        -39.883650   1.000000
      2        -39.881441   1.000000
      3        -39.871701   1.000000
      4        -39.869423   1.000000
      5        -39.853914   1.000000
      6        -39.852485   1.000000
      7        -39.843709   1.000000
      8        -39.842438   1.000000
      9        -39.830886   1.000000
     10        -39.828777   1.000000
     11        -39.815813   1.000000
     12        -39.814421   1.000000
     13        -39.808127   1.000000
     14        -39.806778   1.000000
     15        -39.806310   1.000000
     16        -39.804591   1.000000
     17        -39.803703   1.000000
     18        -39.803270   1.000000
     19        -39.802208   1.000000
     20        -39.800627   1.000000
     21        -39.798640   1.000000
     22        -39.797940   1.000000
     23        -39.794005   1.000000
     24        -39.790795   1.000000
     25        -39.788284   1.000000
     26        -39.786738   1.000000
     27        -39.784867   1.000000
     28        -39.783935   1.000000
     29        -39.778416   1.000000
     30        -39.776556   1.000000
     31        -39.775139   1.000000
     32        -39.773250   1.000000
     33        -39.771753   1.000000
     34        -39.769612   1.000000
     35        -39.768146   1.000000
     36        -39.767408   1.000000
     37        -39.767152   1.000000
     38        -39.766044   1.000000
     39        -39.765012   1.000000
     40        -39.763613   1.000000
     41        -39.762930   1.000000
     42        -39.761956   1.000000
     43        -39.761678   1.000000
     44        -39.760525   1.000000
     45        -39.759520   1.000000
     46        -39.758648   1.000000
     47        -39.757119   1.000000
     48        -39.755797   1.000000
     49        -39.753639   1.000000
     50        -39.752756   1.000000
     51        -39.751181   1.000000
     52        -39.750472   1.000000
     53        -39.749554   1.000000
     54        -39.748904   1.000000
     55        -39.748028   1.000000
     56        -39.747495   1.000000
     57        -39.747177   1.000000
     58        -39.746265   1.000000
     59        -39.745387   1.000000
     60        -39.744935   1.000000
     61        -39.743859   1.000000
     62        -39.743230   1.000000
     63        -39.741746   1.000000
     64        -39.740712   1.000000
     65        -39.739701   1.000000
     66        -39.739175   1.000000
     67        -39.738185   1.000000
     68        -39.737625   1.000000
     69        -39.737028   1.000000
     70        -39.734874   1.000000
     71        -39.733987   1.000000
     72        -39.733375   1.000000
     73        -39.733210   1.000000
     74        -39.731713   1.000000
     75        -39.731146   1.000000
     76        -39.729345   1.000000
     77        -39.728919   1.000000
     78        -39.728376   1.000000
     79        -39.727617   1.000000
     80        -39.727076   1.000000
     81        -39.726693   1.000000
     82        -39.726043   1.000000
     83        -39.725057   1.000000
     84        -39.724593   1.000000
     85        -39.724304   1.000000
     86        -39.723864   1.000000
     87        -39.722917   1.000000
     88        -39.722384   1.000000
     89        -39.721708   1.000000
     90        -39.720446   1.000000
     91        -39.719248   1.000000
     92        -39.719015   1.000000
     93        -39.718492   1.000000
     94        -39.716073   1.000000
     95        -39.714539   1.000000
     96        -39.713036   1.000000
     97        -18.346666   1.000000
     98        -18.345084   1.000000
     99        -18.283913   1.000000
    100        -18.280500   1.000000
    101        -18.279190   1.000000
    102        -18.278733   1.000000
    103        -18.276335   1.000000
    104        -18.274805   1.000000
    105        -18.269689   1.000000
    106        -18.268756   1.000000
    107        -18.259982   1.000000
    108        -18.257919   1.000000
    109        -18.257202   1.000000
    110        -18.256569   1.000000
    111        -18.252092   1.000000
    112        -18.251695   1.000000
    113        -18.250260   1.000000
    114        -18.249380   1.000000
    115        -18.247608   1.000000
    116        -18.247346   1.000000
    117        -18.244052   1.000000
    118        -18.243709   1.000000
    119        -18.225446   1.000000
    120        -18.224498   1.000000
    121        -18.219954   1.000000
    122        -18.219184   1.000000
    123        -18.217208   1.000000
    124        -18.216107   1.000000
    125        -18.215772   1.000000
    126        -18.215199   1.000000
    127        -18.211433   1.000000
    128        -18.210833   1.000000
    129        -18.202558   1.000000
    130        -18.201380   1.000000
    131        -18.197235   1.000000
    132        -18.195608   1.000000
    133        -18.191512   1.000000
    134        -18.189117   1.000000
    135        -18.189042   1.000000
    136        -18.187984   1.000000
    137        -18.177060   1.000000
    138        -18.176087   1.000000
    139        -18.173765   1.000000
    140        -18.172329   1.000000
    141        -18.171737   1.000000
    142        -18.171182   1.000000
    143        -18.163716   1.000000
    144        -18.162089   1.000000
    145        -18.160839   1.000000
    146        -18.159908   1.000000
    147        -18.149955   1.000000
    148        -18.149146   1.000000
    149        -18.130911   1.000000
    150        -18.129618   1.000000
    151        -18.129288   1.000000
    152        -18.128324   1.000000
    153        -18.127046   1.000000
    154        -18.125932   1.000000
    155        -18.125491   1.000000
    156        -18.124697   1.000000
    157        -18.091426   1.000000
    158        -18.090119   1.000000
    159        -18.084324   1.000000
    160        -18.082916   1.000000
    161        -18.070259   1.000000
    162        -18.068099   1.000000
    163        -18.067520   1.000000
    164        -18.066694   1.000000
    165        -18.065650   1.000000
    166        -18.064070   1.000000
    167        -18.044304   1.000000
    168        -18.039318   1.000000
    169        -18.032688   1.000000
    170        -18.030402   1.000000
    171        -18.020753   1.000000
    172        -18.019946   1.000000
    173        -18.016240   1.000000
    174        -18.014679   1.000000
    175        -18.014205   1.000000
    176        -18.012724   1.000000
    177        -18.005843   1.000000
    178        -18.001714   1.000000
    179        -17.999920   1.000000
    180        -17.998911   1.000000
    181        -17.997438   1.000000
    182        -17.996669   1.000000
    183        -17.989219   1.000000
    184        -17.984739   1.000000
    185        -17.983100   1.000000
    186        -17.979536   1.000000
    187        -17.968788   1.000000
    188        -17.967770   1.000000
    189        -17.953914   1.000000
    190        -17.952360   1.000000
    191        -17.951413   1.000000
    192        -17.950769   1.000000
    193        -17.939829   1.000000
    194        -17.936069   1.000000
    195        -17.927182   1.000000
    196        -17.926642   1.000000
    197        -17.924884   1.000000
    198        -17.924139   1.000000
    199        -17.901708   1.000000
    200        -17.898314   1.000000
    201        -17.891808   1.000000
    202        -17.890979   1.000000
    203        -17.889638   1.000000
    204        -17.888825   1.000000
    205        -17.887609   1.000000
    206        -17.887056   1.000000
    207        -17.884600   1.000000
    208        -17.883313   1.000000
    209        -17.872164   1.000000
    210        -17.871245   1.000000
    211        -17.869705   1.000000
    212        -17.868151   1.000000
    213        -17.820055   1.000000
    214        -17.817660   1.000000
    215        -17.803710   1.000000
    216        -17.801639   1.000000
    217        -17.800321   1.000000
    218        -17.798753   1.000000
    219        -17.797357   1.000000
    220        -17.796034   1.000000
    221        -17.795134   1.000000
    222        -17.794260   1.000000
    223        -17.790438   1.000000
    224        -17.787420   1.000000
    225        -17.785701   1.000000
    226        -17.784105   1.000000
    227        -17.783590   1.000000
    228        -17.782739   1.000000
    229        -17.771784   1.000000
    230        -17.770276   1.000000
    231        -17.765258   1.000000
    232        -17.763421   1.000000
    233        -17.760832   1.000000
    234        -17.759417   1.000000
    235        -17.759088   1.000000
    236        -17.756566   1.000000
    237        -17.755259   1.000000
    238        -17.752982   1.000000
    239        -17.743326   1.000000
    240        -17.740038   1.000000
    241        -17.739538   1.000000
    242        -17.739040   1.000000
    243        -17.735432   1.000000
    244        -17.733457   1.000000
    245        -17.732480   1.000000
    246        -17.730888   1.000000
    247        -17.730297   1.000000
    248        -17.728895   1.000000
    249        -17.727302   1.000000
    250        -17.726605   1.000000
    251        -17.726210   1.000000
    252        -17.725463   1.000000
    253        -17.724921   1.000000
    254        -17.723567   1.000000
    255        -17.722722   1.000000
    256        -17.722182   1.000000
    257        -17.721352   1.000000
    258        -17.720051   1.000000
    259        -17.711491   1.000000
    260        -17.709013   1.000000
    261        -17.708520   1.000000
    262        -17.707906   1.000000
    263        -17.705072   1.000000
    264        -17.704536   1.000000
    265        -17.703514   1.000000
    266        -17.701923   1.000000
    267        -17.699386   1.000000
    268        -17.697034   1.000000
    269        -17.670160   1.000000
    270        -17.664948   1.000000
    271        -17.663905   1.000000
    272        -17.663555   1.000000
    273        -17.662755   1.000000
    274        -17.661077   1.000000
    275        -17.660283   1.000000
    276        -17.659093   1.000000
    277        -17.657510   1.000000
    278        -17.656804   1.000000
    279        -17.654534   1.000000
    280        -17.651741   1.000000
    281        -17.646231   1.000000
    282        -17.645375   1.000000
    283        -17.644309   1.000000
    284        -17.642948   1.000000
    285        -17.642036   1.000000
    286        -17.641667   1.000000
    287        -17.641176   1.000000
    288        -17.640120   1.000000
    289        -17.633604   1.000000
    290        -17.630429   1.000000
    291        -17.629796   1.000000
    292        -17.628315   1.000000
    293        -17.627675   1.000000
    294        -17.626908   1.000000
    295        -17.625529   1.000000
    296        -17.624274   1.000000
    297        -17.621161   1.000000
    298        -17.617917   1.000000
    299        -17.614572   1.000000
    300        -17.614265   1.000000
    301        -17.612023   1.000000
    302        -17.611595   1.000000
    303        -17.609742   1.000000
    304        -17.609049   1.000000
    305        -17.604592   1.000000
    306        -17.603292   1.000000
    307        -17.601998   1.000000
    308        -17.601370   1.000000
    309        -17.599026   1.000000
    310        -17.598756   1.000000
    311        -17.595161   1.000000
    312        -17.594227   1.000000
    313        -17.592804   1.000000
    314        -17.592051   1.000000
    315        -17.591417   1.000000
    316        -17.589519   1.000000
    317        -17.588840   1.000000
    318        -17.587788   1.000000
    319        -17.587647   1.000000
    320        -17.586960   1.000000
    321        -17.586410   1.000000
    322        -17.585650   1.000000
    323        -17.584770   1.000000
    324        -17.584209   1.000000
    325        -17.583795   1.000000
    326        -17.583068   1.000000
    327        -17.582636   1.000000
    328        -17.582368   1.000000
    329        -17.581795   1.000000
    330        -17.581095   1.000000
    331        -17.580504   1.000000
    332        -17.579822   1.000000
    333        -17.578796   1.000000
    334        -17.577475   1.000000
    335        -17.577059   1.000000
    336        -17.576436   1.000000
    337        -17.574433   1.000000
    338        -17.572483   1.000000
    339        -17.571744   1.000000
    340        -17.570677   1.000000
    341        -17.569988   1.000000
    342        -17.568911   1.000000
    343        -17.568095   1.000000
    344        -17.567115   1.000000
    345        -17.555334   1.000000
    346        -17.552808   1.000000
    347        -17.551205   1.000000
    348        -17.548704   1.000000
    349        -17.547809   1.000000
    350        -17.547217   1.000000
    351        -17.546003   1.000000
    352        -17.544847   1.000000
    353        -17.544223   1.000000
    354        -17.541749   1.000000
    355        -17.541337   1.000000
    356        -17.540410   1.000000
    357        -17.539336   1.000000
    358        -17.538451   1.000000
    359        -17.537564   1.000000
    360        -17.536338   1.000000
    361        -17.535046   1.000000
    362        -17.534046   1.000000
    363        -17.525804   1.000000
    364        -17.523520   1.000000
    365        -17.516738   1.000000
    366        -17.515584   1.000000
    367        -17.503567   1.000000
    368        -17.501773   1.000000
    369        -17.500608   1.000000
    370        -17.499347   1.000000
    371        -17.498386   1.000000
    372        -17.496322   1.000000
    373        -17.491355   1.000000
    374        -17.489341   1.000000
    375        -17.487450   1.000000
    376        -17.484120   1.000000
    377        -17.476146   1.000000
    378        -17.474524   1.000000
    379        -17.456594   1.000000
    380        -17.455762   1.000000
    381        -17.452272   1.000000
    382        -17.449842   1.000000
    383        -17.438280   1.000000
    384        -17.435959   1.000000
    385          2.697775   1.000000
    386          3.817763   1.000000
    387          3.899896   1.000000
    388          4.097639   1.000000
    389          4.207393   1.000000
    390          4.575334   1.000000
    391          4.639152   1.000000
    392          4.809828   1.000000
    393          4.882078   1.000000
    394          5.071317   1.000000
    395          5.131290   1.000000
    396          5.623419   1.000000
    397          5.630637   1.000000
    398          5.655318   1.000000
    399          5.677697   1.000000
    400          5.741020   1.000000
    401          5.743222   1.000000
    402          5.745696   1.000000
    403          5.777435   1.000000
    404          5.832172   1.000000
    405          5.835291   1.000000
    406          5.836725   1.000000
    407          5.855961   1.000000
    408          5.862592   1.000000
    409          5.891987   1.000000
    410          5.906539   1.000000
    411          5.964618   1.000000
    412          6.051296   1.000000
    413          6.071862   1.000000
    414          6.183821   1.000000
    415          6.192864   1.000000
    416          6.228170   1.000000
    417          6.231544   1.000000
    418          6.233981   1.000000
    419          6.236405   1.000000
    420          6.241039   1.000000
    421          6.243371   1.000000
    422          6.244022   1.000000
    423          6.255989   1.000000
    424          6.258079   1.000000
    425          6.272850   1.000000
    426          6.290479   1.000000
    427          6.291922   1.000000
    428          6.293456   1.000000
    429          6.299606   1.000000
    430          6.299835   1.000000
    431          6.302726   1.000000
    432          6.305747   1.000000
    433          6.369502   1.000000
    434          6.402890   1.000000
    435          6.406081   1.000000
    436          6.408867   1.000000
    437          6.456375   1.000000
    438          6.510734   1.000000
    439          6.512656   1.000000
    440          6.514114   1.000000
    441          6.533320   1.000000
    442          6.547023   1.000000
    443          6.550948   1.000000
    444          6.552056   1.000000
    445          6.675058   1.000000
    446          6.709636   1.000000
    447          6.713864   1.000000
    448          6.716169   1.000000
    449          6.743180   1.000000
    450          6.821413   1.000000
    451          6.825065   1.000000
    452          6.826620   1.000000
    453          6.829435   1.000000
    454          6.832255   1.000000
    455          6.842790   1.000000
    456          6.848356   1.000000
    457          6.863407   1.000000
    458          6.871587   1.000000
    459          6.873705   1.000000
    460          6.878230   1.000000
    461          6.913457   1.000000
    462          6.922098   1.000000
    463          6.928165   1.000000
    464          6.930216   1.000000
    465          6.963063   1.000000
    466          6.974172   1.000000
    467          7.060245   1.000000
    468          7.169064   1.000000
    469          7.174047   1.000000
    470          7.177016   1.000000
    471          7.180847   1.000000
    472          7.184888   1.000000
    473          7.203975   1.000000
    474          7.215774   1.000000
    475          7.217480   1.000000
    476          7.221543   1.000000
    477          7.233748   1.000000
    478          7.246528   1.000000
    479          7.249126   1.000000
    480          7.250722   1.000000
    481          7.254150   1.000000
    482          7.255884   1.000000
    483          7.352685   1.000000
    484          7.407534   1.000000
    485          7.409698   1.000000
    486          7.411258   1.000000
    487          7.414894   1.000000
    488          7.417109   1.000000
    489          7.435908   1.000000
    490          7.444090   1.000000
    491          7.446130   1.000000
    492          7.447665   1.000000
    493          7.450418   1.000000
    494          7.452322   1.000000
    495          7.464232   1.000000
    496          7.469655   1.000000
    497          7.533969   1.000000
    498          7.553733   1.000000
    499          7.556569   1.000000
    500          7.559490   1.000000
    501          7.573953   1.000000
    502          7.579773   1.000000
    503          7.636734   1.000000
    504          7.647266   1.000000
    505          7.722408   1.000000
    506          7.737199   1.000000
    507          7.834867   1.000000
    508          7.866905   1.000000
    509          7.877768   1.000000
    510          7.925206   1.000000
    511          7.928324   1.000000
    512          7.929629   1.000000
    513          7.930995   1.000000
    514          7.934424   1.000000
    515          7.942607   1.000000
    516          7.946788   1.000000
    517          7.995671   1.000000
    518          8.014705   1.000000
    519          8.025852   1.000000
    520          8.037590   1.000000
    521          8.041892   1.000000
    522          8.043647   1.000000
    523          8.054213   1.000000
    524          8.066690   1.000000
    525          8.068413   1.000000
    526          8.071755   1.000000
    527          8.097116   1.000000
    528          8.116917   1.000000
    529          8.121434   1.000000
    530          8.123162   1.000000
    531          8.127818   1.000000
    532          8.131426   1.000000
    533          8.132067   1.000000
    534          8.133215   1.000000
    535          8.134574   1.000000
    536          8.138255   1.000000
    537          8.186168   1.000000
    538          8.223790   1.000001
    539          8.233273   1.000002
    540          8.234740   1.000002
    541          8.236529   1.000002
    542          8.237167   1.000002
    543          8.239536   1.000003
    544          8.240910   1.000003
    545          8.242514   1.000003
    546          8.246450   1.000003
    547          8.247669   1.000003
    548          8.250405   1.000004
    549          8.259641   1.000005
    550          8.262331   1.000006
    551          8.263455   1.000006
    552          8.269858   1.000007
    553          8.330794   1.000047
    554          8.334586   1.000052
    555          8.338052   1.000058
    556          8.342577   1.000066
    557          8.364877   1.000123
    558          8.389215   1.000235
    559          8.407626   1.000376
    560          8.430661   1.000660
    561          8.458549   1.001252
    562          8.470701   1.001631
    563          8.498016   1.002864
    564          8.503873   1.003213
    565          8.514525   1.003938
    566          8.535650   1.005773
    567          8.678964   1.032466
    568          8.705401   1.035376
    569          8.773272   1.012893
    570          8.781210   1.005678
    571          8.808848   0.970208
    572          8.820275   0.950390
    573          8.914851   0.666282
    574          8.978969   0.399519
    575          8.989252   0.357535
    576          9.022669   0.231148
    577          9.033672   0.194057
    578          9.063199   0.108309
    579          9.068587   0.094975
    580          9.071903   0.087135
    581          9.076031   0.077760
    582          9.085545   0.057794
    583          9.088017   0.052977
    584          9.098073   0.034933
    585          9.102931   0.027094
    586          9.115023   0.009966
    587          9.132627  -0.009257
    588          9.148468  -0.021376
    589          9.155961  -0.025602
    590          9.162278  -0.028489
    591          9.185260  -0.034537
    592          9.199202  -0.035456
    593          9.208737  -0.035180
    594          9.213764  -0.034793
    595          9.232458  -0.032233
    596          9.257072  -0.027195
    597          9.264929  -0.025403
    598          9.269954  -0.024242
    599          9.274748  -0.023132
    600          9.277278  -0.022548
    601          9.284984  -0.020784
    602          9.288815  -0.019921
    603          9.293813  -0.018814
    604          9.296193  -0.018296
    605          9.311441  -0.015132
    606          9.325496  -0.012503
    607          9.337247  -0.010542
    608          9.338903  -0.010283
    609          9.341370  -0.009907
    610          9.342855  -0.009684
    611          9.347782  -0.008972
    612          9.352111  -0.008379
    613          9.352702  -0.008300
    614          9.357313  -0.007704
    615          9.362247  -0.007103
    616          9.366430  -0.006621
    617          9.374364  -0.005778
    618          9.382899  -0.004968
    619          9.441883  -0.001546
    620          9.455787  -0.001139
    621          9.467701  -0.000869
    622          9.477476  -0.000691
    623          9.484300  -0.000588
    624          9.491303  -0.000496
    625          9.631105  -0.000010
    626          9.645547  -0.000006
    627          9.663779  -0.000003
    628          9.717521  -0.000000
    629          9.729892  -0.000000
    630          9.738363  -0.000000
    631          9.742152  -0.000000
    632          9.743932  -0.000000
    633          9.752650  -0.000000
    634          9.754944  -0.000000
    635          9.761232  -0.000000
    636          9.766001  -0.000000
    637          9.777349  -0.000000
    638          9.782396  -0.000000
    639          9.789643  -0.000000
    640          9.794095  -0.000000
    641          9.795877  -0.000000
    642          9.798613  -0.000000
    643          9.800032  -0.000000
    644          9.805121  -0.000000
    645          9.806855  -0.000000
    646          9.809105  -0.000000
    647          9.815042  -0.000000
    648          9.822663  -0.000000
    649          9.829108  -0.000000
    650          9.838359  -0.000000
    651          9.848459  -0.000000
    652          9.868977  -0.000000
    653          9.878075  -0.000000
    654          9.882682  -0.000000
    655          9.890407  -0.000000
    656          9.896515  -0.000000
    657          9.916269  -0.000000
    658          9.928492  -0.000000
    659          9.936363  -0.000000
    660          9.940359  -0.000000
    661          9.944833  -0.000000
    662          9.945805  -0.000000
    663          9.960303  -0.000000
    664          9.962625  -0.000000
    665          9.967479  -0.000000
    666          9.971400  -0.000000
    667          9.972557  -0.000000
    668          9.981398  -0.000000
    669         10.000696  -0.000000
    670         10.006534  -0.000000
    671         10.008701  -0.000000
    672         10.011889  -0.000000
    673         10.051892  -0.000000
    674         10.056205  -0.000000
    675         10.073334  -0.000000
    676         10.095384  -0.000000
    677         10.099042  -0.000000
    678         10.101383  -0.000000
    679         10.104083  -0.000000
    680         10.106427  -0.000000
    681         10.110155  -0.000000
    682         10.112092  -0.000000
    683         10.121382  -0.000000
    684         10.131379  -0.000000
    685         10.135333  -0.000000
    686         10.141419  -0.000000
    687         10.199683  -0.000000
    688         10.221470  -0.000000
    689         10.225433  -0.000000
    690         10.232550  -0.000000
    691         10.284820  -0.000000
 
  0.2500000E+00  0.2500000E+00  0.3333333E+00  0.4166667E-01
      1        -39.886625   1.000000
      2        -39.874991   1.000000
      3        -39.871614   1.000000
      4        -39.869707   1.000000
      5        -39.860413   1.000000
      6        -39.858339   1.000000
      7        -39.834629   1.000000
      8        -39.832822   1.000000
      9        -39.830031   1.000000
     10        -39.825740   1.000000
     11        -39.823276   1.000000
     12        -39.819653   1.000000
     13        -39.819244   1.000000
     14        -39.810182   1.000000
     15        -39.808651   1.000000
     16        -39.805318   1.000000
     17        -39.802493   1.000000
     18        -39.800711   1.000000
     19        -39.799032   1.000000
     20        -39.797971   1.000000
     21        -39.796039   1.000000
     22        -39.793515   1.000000
     23        -39.790682   1.000000
     24        -39.790146   1.000000
     25        -39.786827   1.000000
     26        -39.784077   1.000000
     27        -39.782844   1.000000
     28        -39.781440   1.000000
     29        -39.780375   1.000000
     30        -39.778566   1.000000
     31        -39.776891   1.000000
     32        -39.776266   1.000000
     33        -39.774790   1.000000
     34        -39.772348   1.000000
     35        -39.771312   1.000000
     36        -39.769652   1.000000
     37        -39.768578   1.000000
     38        -39.766667   1.000000
     39        -39.764582   1.000000
     40        -39.762489   1.000000
     41        -39.760590   1.000000
     42        -39.759932   1.000000
     43        -39.758853   1.000000
     44        -39.757935   1.000000
     45        -39.757342   1.000000
     46        -39.756933   1.000000
     47        -39.756093   1.000000
     48        -39.755792   1.000000
     49        -39.754767   1.000000
     50        -39.754460   1.000000
     51        -39.753448   1.000000
     52        -39.752240   1.000000
     53        -39.751759   1.000000
     54        -39.750419   1.000000
     55        -39.749003   1.000000
     56        -39.747478   1.000000
     57        -39.746299   1.000000
     58        -39.745482   1.000000
     59        -39.744770   1.000000
     60        -39.743961   1.000000
     61        -39.743002   1.000000
     62        -39.742372   1.000000
     63        -39.741346   1.000000
     64        -39.740691   1.000000
     65        -39.739802   1.000000
     66        -39.739347   1.000000
     67        -39.738132   1.000000
     68        -39.737108   1.000000
     69        -39.736040   1.000000
     70        -39.735489   1.000000
     71        -39.734796   1.000000
     72        -39.733887   1.000000
     73        -39.732614   1.000000
     74        -39.731295   1.000000
     75        -39.730861   1.000000
     76        -39.729954   1.000000
     77        -39.729295   1.000000
     78        -39.729040   1.000000
     79        -39.727872   1.000000
     80        -39.726841   1.000000
     81        -39.726291   1.000000
     82        -39.725792   1.000000
     83        -39.725546   1.000000
     84        -39.725042   1.000000
     85        -39.724244   1.000000
     86        -39.723684   1.000000
     87        -39.723148   1.000000
     88        -39.722680   1.000000
     89        -39.721072   1.000000
     90        -39.720354   1.000000
     91        -39.719434   1.000000
     92        -39.718885   1.000000
     93        -39.717605   1.000000
     94        -39.716123   1.000000
     95        -39.714804   1.000000
     96        -39.713259   1.000000
     97        -18.356169   1.000000
     98        -18.316939   1.000000
     99        -18.315023   1.000000
    100        -18.296643   1.000000
    101        -18.284198   1.000000
    102        -18.278766   1.000000
    103        -18.276641   1.000000
    104        -18.274834   1.000000
    105        -18.267241   1.000000
    106        -18.262209   1.000000
    107        -18.261186   1.000000
    108        -18.258245   1.000000
    109        -18.256803   1.000000
    110        -18.254914   1.000000
    111        -18.253262   1.000000
    112        -18.242381   1.000000
    113        -18.241188   1.000000
    114        -18.238064   1.000000
    115        -18.235015   1.000000
    116        -18.233774   1.000000
    117        -18.232463   1.000000
    118        -18.231645   1.000000
    119        -18.229485   1.000000
    120        -18.227016   1.000000
    121        -18.220120   1.000000
    122        -18.218324   1.000000
    123        -18.217316   1.000000
    124        -18.216378   1.000000
    125        -18.215322   1.000000
    126        -18.214776   1.000000
    127        -18.212365   1.000000
    128        -18.211674   1.000000
    129        -18.210557   1.000000
    130        -18.209584   1.000000
    131        -18.200198   1.000000
    132        -18.199772   1.000000
    133        -18.196972   1.000000
    134        -18.195583   1.000000
    135        -18.194043   1.000000
    136        -18.192510   1.000000
    137        -18.190479   1.000000
    138        -18.186381   1.000000
    139        -18.179355   1.000000
    140        -18.173678   1.000000
    141        -18.172773   1.000000
    142        -18.169779   1.000000
    143        -18.168858   1.000000
    144        -18.168258   1.000000
    145        -18.166541   1.000000
    146        -18.160526   1.000000
    147        -18.155243   1.000000
    148        -18.141654   1.000000
    149        -18.118524   1.000000
    150        -18.117333   1.000000
    151        -18.115800   1.000000
    152        -18.115628   1.000000
    153        -18.113492   1.000000
    154        -18.112427   1.000000
    155        -18.111623   1.000000
    156        -18.110724   1.000000
    157        -18.109361   1.000000
    158        -18.107507   1.000000
    159        -18.088632   1.000000
    160        -18.086743   1.000000
    161        -18.078079   1.000000
    162        -18.060906   1.000000
    163        -18.058111   1.000000
    164        -18.052838   1.000000
    165        -18.051868   1.000000
    166        -18.049455   1.000000
    167        -18.046075   1.000000
    168        -18.045801   1.000000
    169        -18.044527   1.000000
    170        -18.044131   1.000000
    171        -18.041771   1.000000
    172        -18.041589   1.000000
    173        -18.039809   1.000000
    174        -18.035459   1.000000
    175        -18.033422   1.000000
    176        -18.030903   1.000000
    177        -18.028444   1.000000
    178        -18.027056   1.000000
    179        -18.005012   1.000000
    180        -17.986365   1.000000
    181        -17.981913   1.000000
    182        -17.979630   1.000000
    183        -17.975923   1.000000
    184        -17.972244   1.000000
    185        -17.967724   1.000000
    186        -17.963103   1.000000
    187        -17.955844   1.000000
    188        -17.951925   1.000000
    189        -17.942347   1.000000
    190        -17.940209   1.000000
    191        -17.938968   1.000000
    192        -17.931679   1.000000
    193        -17.930553   1.000000
    194        -17.925583   1.000000
    195        -17.921922   1.000000
    196        -17.913877   1.000000
    197        -17.913105   1.000000
    198        -17.912031   1.000000
    199        -17.908747   1.000000
    200        -17.897028   1.000000
    201        -17.894916   1.000000
    202        -17.893419   1.000000
    203        -17.892220   1.000000
    204        -17.891406   1.000000
    205        -17.890094   1.000000
    206        -17.888659   1.000000
    207        -17.887812   1.000000
    208        -17.885094   1.000000
    209        -17.875939   1.000000
    210        -17.863336   1.000000
    211        -17.862000   1.000000
    212        -17.855529   1.000000
    213        -17.854069   1.000000
    214        -17.850523   1.000000
    215        -17.834151   1.000000
    216        -17.832925   1.000000
    217        -17.829925   1.000000
    218        -17.825434   1.000000
    219        -17.821344   1.000000
    220        -17.817221   1.000000
    221        -17.815498   1.000000
    222        -17.814502   1.000000
    223        -17.802569   1.000000
    224        -17.793279   1.000000
    225        -17.783801   1.000000
    226        -17.770784   1.000000
    227        -17.770438   1.000000
    228        -17.766345   1.000000
    229        -17.765235   1.000000
    230        -17.762693   1.000000
    231        -17.762206   1.000000
    232        -17.759537   1.000000
    233        -17.757500   1.000000
    234        -17.753345   1.000000
    235        -17.752414   1.000000
    236        -17.751331   1.000000
    237        -17.745702   1.000000
    238        -17.740243   1.000000
    239        -17.739169   1.000000
    240        -17.734113   1.000000
    241        -17.733102   1.000000
    242        -17.730355   1.000000
    243        -17.728832   1.000000
    244        -17.727697   1.000000
    245        -17.727150   1.000000
    246        -17.725504   1.000000
    247        -17.724854   1.000000
    248        -17.723521   1.000000
    249        -17.722635   1.000000
    250        -17.721924   1.000000
    251        -17.720812   1.000000
    252        -17.719739   1.000000
    253        -17.719000   1.000000
    254        -17.717397   1.000000
    255        -17.713343   1.000000
    256        -17.712291   1.000000
    257        -17.710757   1.000000
    258        -17.709983   1.000000
    259        -17.708859   1.000000
    260        -17.707227   1.000000
    261        -17.706618   1.000000
    262        -17.703109   1.000000
    263        -17.700411   1.000000
    264        -17.698482   1.000000
    265        -17.695599   1.000000
    266        -17.684849   1.000000
    267        -17.683349   1.000000
    268        -17.681890   1.000000
    269        -17.680776   1.000000
    270        -17.680409   1.000000
    271        -17.678581   1.000000
    272        -17.677124   1.000000
    273        -17.675697   1.000000
    274        -17.669309   1.000000
    275        -17.668715   1.000000
    276        -17.667782   1.000000
    277        -17.667511   1.000000
    278        -17.665658   1.000000
    279        -17.664567   1.000000
    280        -17.663788   1.000000
    281        -17.651257   1.000000
    282        -17.650446   1.000000
    283        -17.647732   1.000000
    284        -17.646930   1.000000
    285        -17.640317   1.000000
    286        -17.638374   1.000000
    287        -17.631093   1.000000
    288        -17.629017   1.000000
    289        -17.628250   1.000000
    290        -17.626450   1.000000
    291        -17.625625   1.000000
    292        -17.625031   1.000000
    293        -17.623993   1.000000
    294        -17.623661   1.000000
    295        -17.622663   1.000000
    296        -17.620962   1.000000
    297        -17.620514   1.000000
    298        -17.618792   1.000000
    299        -17.617769   1.000000
    300        -17.616234   1.000000
    301        -17.614687   1.000000
    302        -17.613706   1.000000
    303        -17.613324   1.000000
    304        -17.612609   1.000000
    305        -17.611257   1.000000
    306        -17.610568   1.000000
    307        -17.609026   1.000000
    308        -17.607600   1.000000
    309        -17.606956   1.000000
    310        -17.600574   1.000000
    311        -17.600070   1.000000
    312        -17.596145   1.000000
    313        -17.595176   1.000000
    314        -17.593991   1.000000
    315        -17.593041   1.000000
    316        -17.591539   1.000000
    317        -17.590591   1.000000
    318        -17.589402   1.000000
    319        -17.588880   1.000000
    320        -17.588436   1.000000
    321        -17.586851   1.000000
    322        -17.586422   1.000000
    323        -17.585306   1.000000
    324        -17.584641   1.000000
    325        -17.584335   1.000000
    326        -17.583641   1.000000
    327        -17.583023   1.000000
    328        -17.582602   1.000000
    329        -17.581255   1.000000
    330        -17.580660   1.000000
    331        -17.580048   1.000000
    332        -17.579008   1.000000
    333        -17.578232   1.000000
    334        -17.577955   1.000000
    335        -17.577215   1.000000
    336        -17.576346   1.000000
    337        -17.574948   1.000000
    338        -17.572633   1.000000
    339        -17.570545   1.000000
    340        -17.569841   1.000000
    341        -17.568004   1.000000
    342        -17.566240   1.000000
    343        -17.563235   1.000000
    344        -17.562513   1.000000
    345        -17.561469   1.000000
    346        -17.555291   1.000000
    347        -17.554421   1.000000
    348        -17.553328   1.000000
    349        -17.552463   1.000000
    350        -17.543379   1.000000
    351        -17.542770   1.000000
    352        -17.541169   1.000000
    353        -17.539501   1.000000
    354        -17.538558   1.000000
    355        -17.537366   1.000000
    356        -17.535690   1.000000
    357        -17.534657   1.000000
    358        -17.533824   1.000000
    359        -17.529792   1.000000
    360        -17.528225   1.000000
    361        -17.526692   1.000000
    362        -17.521959   1.000000
    363        -17.521576   1.000000
    364        -17.520134   1.000000
    365        -17.518152   1.000000
    366        -17.517656   1.000000
    367        -17.516796   1.000000
    368        -17.516385   1.000000
    369        -17.514446   1.000000
    370        -17.513321   1.000000
    371        -17.511439   1.000000
    372        -17.494153   1.000000
    373        -17.488218   1.000000
    374        -17.487108   1.000000
    375        -17.471310   1.000000
    376        -17.469347   1.000000
    377        -17.468615   1.000000
    378        -17.467947   1.000000
    379        -17.464899   1.000000
    380        -17.454589   1.000000
    381        -17.453793   1.000000
    382        -17.449717   1.000000
    383        -17.448964   1.000000
    384        -17.436364   1.000000
    385          2.696643   1.000000
    386          3.762291   1.000000
    387          4.027016   1.000000
    388          4.114530   1.000000
    389          4.208500   1.000000
    390          4.378830   1.000000
    391          4.496639   1.000000
    392          5.004540   1.000000
    393          5.149584   1.000000
    394          5.181319   1.000000
    395          5.311809   1.000000
    396          5.320371   1.000000
    397          5.331954   1.000000
    398          5.406179   1.000000
    399          5.554314   1.000000
    400          5.741585   1.000000
    401          5.789190   1.000000
    402          5.796510   1.000000
    403          5.817303   1.000000
    404          5.830800   1.000000
    405          5.856729   1.000000
    406          5.861592   1.000000
    407          5.906352   1.000000
    408          6.003915   1.000000
    409          6.005523   1.000000
    410          6.008281   1.000000
    411          6.037621   1.000000
    412          6.105703   1.000000
    413          6.110487   1.000000
    414          6.114686   1.000000
    415          6.117708   1.000000
    416          6.125319   1.000000
    417          6.145221   1.000000
    418          6.154117   1.000000
    419          6.161827   1.000000
    420          6.185792   1.000000
    421          6.206605   1.000000
    422          6.210825   1.000000
    423          6.225422   1.000000
    424          6.247202   1.000000
    425          6.283291   1.000000
    426          6.310947   1.000000
    427          6.314929   1.000000
    428          6.327445   1.000000
    429          6.334746   1.000000
    430          6.365161   1.000000
    431          6.394925   1.000000
    432          6.418880   1.000000
    433          6.440760   1.000000
    434          6.453958   1.000000
    435          6.480082   1.000000
    436          6.503571   1.000000
    437          6.515942   1.000000
    438          6.522627   1.000000
    439          6.527327   1.000000
    440          6.532069   1.000000
    441          6.541216   1.000000
    442          6.554358   1.000000
    443          6.559263   1.000000
    444          6.580747   1.000000
    445          6.591784   1.000000
    446          6.619011   1.000000
    447          6.648447   1.000000
    448          6.666432   1.000000
    449          6.677195   1.000000
    450          6.684017   1.000000
    451          6.695557   1.000000
    452          6.700911   1.000000
    453          6.753620   1.000000
    454          6.779182   1.000000
    455          6.810294   1.000000
    456          6.822960   1.000000
    457          6.864400   1.000000
    458          6.900498   1.000000
    459          6.906932   1.000000
    460          6.912137   1.000000
    461          6.918295   1.000000
    462          6.972147   1.000000
    463          6.998686   1.000000
    464          7.012139   1.000000
    465          7.015399   1.000000
    466          7.042707   1.000000
    467          7.084856   1.000000
    468          7.124473   1.000000
    469          7.138953   1.000000
    470          7.197428   1.000000
    471          7.203040   1.000000
    472          7.205302   1.000000
    473          7.208744   1.000000
    474          7.220066   1.000000
    475          7.229352   1.000000
    476          7.246173   1.000000
    477          7.256842   1.000000
    478          7.259310   1.000000
    479          7.268132   1.000000
    480          7.279945   1.000000
    481          7.288900   1.000000
    482          7.303487   1.000000
    483          7.307557   1.000000
    484          7.325586   1.000000
    485          7.341166   1.000000
    486          7.361549   1.000000
    487          7.377609   1.000000
    488          7.391441   1.000000
    489          7.409493   1.000000
    490          7.418217   1.000000
    491          7.428071   1.000000
    492          7.444883   1.000000
    493          7.466007   1.000000
    494          7.477663   1.000000
    495          7.489856   1.000000
    496          7.565946   1.000000
    497          7.585534   1.000000
    498          7.594081   1.000000
    499          7.626030   1.000000
    500          7.638393   1.000000
    501          7.669374   1.000000
    502          7.696814   1.000000
    503          7.721123   1.000000
    504          7.737411   1.000000
    505          7.779437   1.000000
    506          7.787055   1.000000
    507          7.791810   1.000000
    508          7.795342   1.000000
    509          7.814893   1.000000
    510          7.829800   1.000000
    511          7.842215   1.000000
    512          7.859698   1.000000
    513          7.864192   1.000000
    514          7.869909   1.000000
    515          7.905826   1.000000
    516          7.919539   1.000000
    517          7.931079   1.000000
    518          7.934351   1.000000
    519          7.945068   1.000000
    520          7.950105   1.000000
    521          7.976493   1.000000
    522          7.978854   1.000000
    523          8.021242   1.000000
    524          8.028817   1.000000
    525          8.046523   1.000000
    526          8.055788   1.000000
    527          8.080439   1.000000
    528          8.097923   1.000000
    529          8.112264   1.000000
    530          8.124773   1.000000
    531          8.129368   1.000000
    532          8.134182   1.000000
    533          8.139431   1.000000
    534          8.144469   1.000000
    535          8.167433   1.000000
    536          8.180255   1.000000
    537          8.204881   1.000001
    538          8.208005   1.000001
    539          8.221506   1.000001
    540          8.233056   1.000002
    541          8.235091   1.000002
    542          8.241200   1.000003
    543          8.247483   1.000003
    544          8.251532   1.000004
    545          8.256552   1.000005
    546          8.271507   1.000007
    547          8.292347   1.000015
    548          8.304288   1.000021
    549          8.306117   1.000022
    550          8.309403   1.000025
    551          8.318113   1.000032
    552          8.326313   1.000041
    553          8.339473   1.000060
    554          8.343178   1.000067
    555          8.345053   1.000070
    556          8.346696   1.000074
    557          8.352550   1.000087
    558          8.356457   1.000097
    559          8.363945   1.000120
    560          8.369939   1.000141
    561          8.392341   1.000255
    562          8.394523   1.000270
    563          8.571078   1.010270
    564          8.624039   1.020548
    565          8.631798   1.022319
    566          8.689603   1.034057
    567          8.709954   1.035458
    568          8.781590   1.005302
    569          8.794551   0.990662
    570          8.824322   0.942603
    571          8.846628   0.892302
    572          8.853879   0.873254
    573          8.860967   0.853372
    574          8.868617   0.830549
    575          8.873283   0.815954
    576          8.884405   0.779197
    577          8.930289   0.603822
    578          8.938212   0.570903
    579          9.000497   0.313029
    580          9.021222   0.236213
    581          9.028112   0.212477
    582          9.033291   0.195298
    583          9.044289   0.160821
    584          9.083727   0.061434
    585          9.087399   0.054167
    586          9.112650   0.013065
    587          9.132102  -0.008776
    588          9.167381  -0.030405
    589          9.185345  -0.034548
    590          9.199201  -0.035456
    591          9.222657  -0.033768
    592          9.231911  -0.032328
    593          9.239896  -0.030850
    594          9.252182  -0.028282
    595          9.265203  -0.025339
    596          9.284305  -0.020938
    597          9.287629  -0.020187
    598          9.294629  -0.018636
    599          9.298607  -0.017776
    600          9.302797  -0.016889
    601          9.308594  -0.015699
    602          9.310636  -0.015291
    603          9.315926  -0.014261
    604          9.318214  -0.013828
    605          9.321359  -0.013246
    606          9.329947  -0.011734
    607          9.335048  -0.010892
    608          9.343906  -0.009529
    609          9.348658  -0.008850
    610          9.351793  -0.008421
    611          9.373357  -0.005880
    612          9.411549  -0.002893
    613          9.420855  -0.002401
    614          9.462976  -0.000968
    615          9.481984  -0.000621
    616          9.489889  -0.000513
    617          9.499836  -0.000402
    618          9.504230  -0.000360
    619          9.508057  -0.000327
    620          9.518294  -0.000251
    621          9.525056  -0.000211
    622          9.534103  -0.000166
    623          9.544979  -0.000123
    624          9.555329  -0.000093
    625          9.567320  -0.000066
    626          9.575409  -0.000052
    627          9.587026  -0.000037
    628          9.590041  -0.000034
    629          9.599375  -0.000026
    630          9.607143  -0.000020
    631          9.615711  -0.000015
    632          9.622682  -0.000012
    633          9.625102  -0.000012
    634          9.633819  -0.000009
    635          9.663752  -0.000003
    636          9.686080  -0.000002
    637          9.702415  -0.000001
    638          9.708101  -0.000001
    639          9.727771  -0.000000
    640          9.739431  -0.000000
    641          9.750077  -0.000000
    642          9.758917  -0.000000
    643          9.768604  -0.000000
    644          9.784537  -0.000000
    645          9.795531  -0.000000
    646          9.807807  -0.000000
    647          9.812295  -0.000000
    648          9.831966  -0.000000
    649          9.841436  -0.000000
    650          9.850530  -0.000000
    651          9.873639  -0.000000
    652          9.882036  -0.000000
    653          9.885671  -0.000000
    654          9.892575  -0.000000
    655          9.905258  -0.000000
    656          9.906939  -0.000000
    657          9.912694  -0.000000
    658          9.926022  -0.000000
    659          9.942083  -0.000000
    660          9.949522  -0.000000
    661          9.961749  -0.000000
    662          9.989588  -0.000000
    663         10.003753  -0.000000
    664         10.025024  -0.000000
    665         10.030146  -0.000000
    666         10.052101  -0.000000
    667         10.057405  -0.000000
    668         10.065373  -0.000000
    669         10.069135  -0.000000
    670         10.072248  -0.000000
    671         10.075718  -0.000000
    672         10.080809  -0.000000
    673         10.090140  -0.000000
    674         10.094159  -0.000000
    675         10.102977  -0.000000
    676         10.109811  -0.000000
    677         10.116349  -0.000000
    678         10.122662  -0.000000
    679         10.124115  -0.000000
    680         10.130894  -0.000000
    681         10.140858  -0.000000
    682         10.150915  -0.000000
    683         10.157461  -0.000000
    684         10.162461  -0.000000
    685         10.168310  -0.000000
    686         10.173471  -0.000000
    687         10.177689  -0.000000
    688         10.185071  -0.000000
    689         10.190223  -0.000000
    690         10.196755  -0.000000
    691         10.207460  -0.000000
 
 -0.2500000E+00  0.5000000E+00  0.3333333E+00  0.4166667E-01
      1        -39.886620   1.000000
      2        -39.875117   1.000000
      3        -39.871456   1.000000
      4        -39.869530   1.000000
      5        -39.860557   1.000000
      6        -39.858429   1.000000
      7        -39.836791   1.000000
      8        -39.832280   1.000000
      9        -39.828793   1.000000
     10        -39.824066   1.000000
     11        -39.823121   1.000000
     12        -39.819668   1.000000
     13        -39.818849   1.000000
     14        -39.812894   1.000000
     15        -39.808675   1.000000
     16        -39.805815   1.000000
     17        -39.801773   1.000000
     18        -39.800277   1.000000
     19        -39.798692   1.000000
     20        -39.797891   1.000000
     21        -39.795035   1.000000
     22        -39.793517   1.000000
     23        -39.791696   1.000000
     24        -39.788606   1.000000
     25        -39.787754   1.000000
     26        -39.784830   1.000000
     27        -39.783096   1.000000
     28        -39.782242   1.000000
     29        -39.779375   1.000000
     30        -39.778583   1.000000
     31        -39.777916   1.000000
     32        -39.775655   1.000000
     33        -39.774493   1.000000
     34        -39.772967   1.000000
     35        -39.771215   1.000000
     36        -39.769820   1.000000
     37        -39.768867   1.000000
     38        -39.765087   1.000000
     39        -39.764591   1.000000
     40        -39.763103   1.000000
     41        -39.760952   1.000000
     42        -39.760165   1.000000
     43        -39.759066   1.000000
     44        -39.757820   1.000000
     45        -39.757208   1.000000
     46        -39.756644   1.000000
     47        -39.755765   1.000000
     48        -39.755409   1.000000
     49        -39.754841   1.000000
     50        -39.754383   1.000000
     51        -39.754019   1.000000
     52        -39.752734   1.000000
     53        -39.750919   1.000000
     54        -39.750014   1.000000
     55        -39.747773   1.000000
     56        -39.747112   1.000000
     57        -39.746447   1.000000
     58        -39.745380   1.000000
     59        -39.745206   1.000000
     60        -39.744382   1.000000
     61        -39.743695   1.000000
     62        -39.742616   1.000000
     63        -39.741984   1.000000
     64        -39.740562   1.000000
     65        -39.740173   1.000000
     66        -39.739075   1.000000
     67        -39.737846   1.000000
     68        -39.737432   1.000000
     69        -39.736305   1.000000
     70        -39.735514   1.000000
     71        -39.734525   1.000000
     72        -39.733236   1.000000
     73        -39.732699   1.000000
     74        -39.731277   1.000000
     75        -39.730882   1.000000
     76        -39.730350   1.000000
     77        -39.729355   1.000000
     78        -39.728327   1.000000
     79        -39.727846   1.000000
     80        -39.727338   1.000000
     81        -39.726367   1.000000
     82        -39.725628   1.000000
     83        -39.725098   1.000000
     84        -39.724640   1.000000
     85        -39.724497   1.000000
     86        -39.723437   1.000000
     87        -39.723017   1.000000
     88        -39.722321   1.000000
     89        -39.721868   1.000000
     90        -39.720578   1.000000
     91        -39.719662   1.000000
     92        -39.718942   1.000000
     93        -39.718521   1.000000
     94        -39.715332   1.000000
     95        -39.714814   1.000000
     96        -39.713093   1.000000
     97        -18.356254   1.000000
     98        -18.316130   1.000000
     99        -18.315641   1.000000
    100        -18.296813   1.000000
    101        -18.283633   1.000000
    102        -18.278459   1.000000
    103        -18.276659   1.000000
    104        -18.274554   1.000000
    105        -18.266963   1.000000
    106        -18.262926   1.000000
    107        -18.261615   1.000000
    108        -18.258120   1.000000
    109        -18.256602   1.000000
    110        -18.254459   1.000000
    111        -18.253725   1.000000
    112        -18.242570   1.000000
    113        -18.240906   1.000000
    114        -18.237131   1.000000
    115        -18.234858   1.000000
    116        -18.233641   1.000000
    117        -18.232797   1.000000
    118        -18.231689   1.000000
    119        -18.229854   1.000000
    120        -18.227855   1.000000
    121        -18.219795   1.000000
    122        -18.218532   1.000000
    123        -18.217402   1.000000
    124        -18.216295   1.000000
    125        -18.215528   1.000000
    126        -18.213894   1.000000
    127        -18.213102   1.000000
    128        -18.211378   1.000000
    129        -18.210588   1.000000
    130        -18.210080   1.000000
    131        -18.200922   1.000000
    132        -18.199508   1.000000
    133        -18.197564   1.000000
    134        -18.195462   1.000000
    135        -18.193547   1.000000
    136        -18.192652   1.000000
    137        -18.190876   1.000000
    138        -18.185873   1.000000
    139        -18.179708   1.000000
    140        -18.173943   1.000000
    141        -18.172880   1.000000
    142        -18.169932   1.000000
    143        -18.168547   1.000000
    144        -18.167204   1.000000
    145        -18.166726   1.000000
    146        -18.160565   1.000000
    147        -18.154487   1.000000
    148        -18.141908   1.000000
    149        -18.118065   1.000000
    150        -18.117254   1.000000
    151        -18.116187   1.000000
    152        -18.114915   1.000000
    153        -18.114067   1.000000
    154        -18.112489   1.000000
    155        -18.111612   1.000000
    156        -18.110797   1.000000
    157        -18.109551   1.000000
    158        -18.107765   1.000000
    159        -18.088975   1.000000
    160        -18.086241   1.000000
    161        -18.078044   1.000000
    162        -18.060736   1.000000
    163        -18.057652   1.000000
    164        -18.053092   1.000000
    165        -18.051728   1.000000
    166        -18.049916   1.000000
    167        -18.046435   1.000000
    168        -18.045742   1.000000
    169        -18.043783   1.000000
    170        -18.043087   1.000000
    171        -18.042487   1.000000
    172        -18.041145   1.000000
    173        -18.040261   1.000000
    174        -18.036224   1.000000
    175        -18.033699   1.000000
    176        -18.031109   1.000000
    177        -18.028513   1.000000
    178        -18.027001   1.000000
    179        -18.004842   1.000000
    180        -17.986260   1.000000
    181        -17.982117   1.000000
    182        -17.979660   1.000000
    183        -17.975559   1.000000
    184        -17.973316   1.000000
    185        -17.967527   1.000000
    186        -17.963137   1.000000
    187        -17.956248   1.000000
    188        -17.951661   1.000000
    189        -17.942189   1.000000
    190        -17.940127   1.000000
    191        -17.938755   1.000000
    192        -17.932211   1.000000
    193        -17.931131   1.000000
    194        -17.925569   1.000000
    195        -17.921902   1.000000
    196        -17.914483   1.000000
    197        -17.913576   1.000000
    198        -17.912150   1.000000
    199        -17.908462   1.000000
    200        -17.897868   1.000000
    201        -17.895193   1.000000
    202        -17.894024   1.000000
    203        -17.891590   1.000000
    204        -17.890671   1.000000
    205        -17.889476   1.000000
    206        -17.888276   1.000000
    207        -17.887258   1.000000
    208        -17.884962   1.000000
    209        -17.875619   1.000000
    210        -17.863109   1.000000
    211        -17.862369   1.000000
    212        -17.855230   1.000000
    213        -17.853953   1.000000
    214        -17.850440   1.000000
    215        -17.834326   1.000000
    216        -17.832705   1.000000
    217        -17.830598   1.000000
    218        -17.825327   1.000000
    219        -17.821228   1.000000
    220        -17.816661   1.000000
    221        -17.815884   1.000000
    222        -17.814652   1.000000
    223        -17.802221   1.000000
    224        -17.793092   1.000000
    225        -17.783989   1.000000
    226        -17.771948   1.000000
    227        -17.769695   1.000000
    228        -17.765703   1.000000
    229        -17.764691   1.000000
    230        -17.762914   1.000000
    231        -17.761622   1.000000
    232        -17.758942   1.000000
    233        -17.757149   1.000000
    234        -17.753251   1.000000
    235        -17.752215   1.000000
    236        -17.751259   1.000000
    237        -17.745779   1.000000
    238        -17.740737   1.000000
    239        -17.738363   1.000000
    240        -17.733568   1.000000
    241        -17.733254   1.000000
    242        -17.731533   1.000000
    243        -17.729661   1.000000
    244        -17.727847   1.000000
    245        -17.726653   1.000000
    246        -17.725715   1.000000
    247        -17.724598   1.000000
    248        -17.723945   1.000000
    249        -17.723319   1.000000
    250        -17.722018   1.000000
    251        -17.721565   1.000000
    252        -17.720433   1.000000
    253        -17.719293   1.000000
    254        -17.716534   1.000000
    255        -17.713770   1.000000
    256        -17.712398   1.000000
    257        -17.710967   1.000000
    258        -17.709801   1.000000
    259        -17.708773   1.000000
    260        -17.707499   1.000000
    261        -17.706169   1.000000
    262        -17.702896   1.000000
    263        -17.700589   1.000000
    264        -17.697781   1.000000
    265        -17.694561   1.000000
    266        -17.686325   1.000000
    267        -17.683010   1.000000
    268        -17.681927   1.000000
    269        -17.680832   1.000000
    270        -17.680258   1.000000
    271        -17.678559   1.000000
    272        -17.676765   1.000000
    273        -17.675493   1.000000
    274        -17.669697   1.000000
    275        -17.669118   1.000000
    276        -17.668301   1.000000
    277        -17.666571   1.000000
    278        -17.665888   1.000000
    279        -17.664590   1.000000
    280        -17.663399   1.000000
    281        -17.650532   1.000000
    282        -17.650132   1.000000
    283        -17.649356   1.000000
    284        -17.645922   1.000000
    285        -17.640750   1.000000
    286        -17.638571   1.000000
    287        -17.631525   1.000000
    288        -17.629004   1.000000
    289        -17.627283   1.000000
    290        -17.626510   1.000000
    291        -17.625723   1.000000
    292        -17.624930   1.000000
    293        -17.623660   1.000000
    294        -17.623142   1.000000
    295        -17.622087   1.000000
    296        -17.621642   1.000000
    297        -17.619910   1.000000
    298        -17.619261   1.000000
    299        -17.617750   1.000000
    300        -17.616326   1.000000
    301        -17.614773   1.000000
    302        -17.614397   1.000000
    303        -17.613146   1.000000
    304        -17.612439   1.000000
    305        -17.611231   1.000000
    306        -17.610441   1.000000
    307        -17.608463   1.000000
    308        -17.607706   1.000000
    309        -17.607150   1.000000
    310        -17.601106   1.000000
    311        -17.599506   1.000000
    312        -17.596108   1.000000
    313        -17.594983   1.000000
    314        -17.593987   1.000000
    315        -17.593040   1.000000
    316        -17.591193   1.000000
    317        -17.590735   1.000000
    318        -17.590231   1.000000
    319        -17.589190   1.000000
    320        -17.588342   1.000000
    321        -17.586475   1.000000
    322        -17.585591   1.000000
    323        -17.585355   1.000000
    324        -17.584695   1.000000
    325        -17.584114   1.000000
    326        -17.583670   1.000000
    327        -17.582908   1.000000
    328        -17.581835   1.000000
    329        -17.581203   1.000000
    330        -17.580586   1.000000
    331        -17.580180   1.000000
    332        -17.579320   1.000000
    333        -17.578726   1.000000
    334        -17.578102   1.000000
    335        -17.576865   1.000000
    336        -17.575585   1.000000
    337        -17.574562   1.000000
    338        -17.572629   1.000000
    339        -17.570617   1.000000
    340        -17.569818   1.000000
    341        -17.568366   1.000000
    342        -17.566465   1.000000
    343        -17.564435   1.000000
    344        -17.562983   1.000000
    345        -17.562073   1.000000
    346        -17.555314   1.000000
    347        -17.553947   1.000000
    348        -17.553167   1.000000
    349        -17.551990   1.000000
    350        -17.543986   1.000000
    351        -17.542037   1.000000
    352        -17.540987   1.000000
    353        -17.539768   1.000000
    354        -17.539074   1.000000
    355        -17.536630   1.000000
    356        -17.536072   1.000000
    357        -17.534594   1.000000
    358        -17.533949   1.000000
    359        -17.529929   1.000000
    360        -17.528163   1.000000
    361        -17.526082   1.000000
    362        -17.522181   1.000000
    363        -17.521023   1.000000
    364        -17.520316   1.000000
    365        -17.519111   1.000000
    366        -17.518181   1.000000
    367        -17.516887   1.000000
    368        -17.515935   1.000000
    369        -17.514992   1.000000
    370        -17.512776   1.000000
    371        -17.512017   1.000000
    372        -17.493902   1.000000
    373        -17.488634   1.000000
    374        -17.487418   1.000000
    375        -17.471040   1.000000
    376        -17.469738   1.000000
    377        -17.469182   1.000000
    378        -17.467319   1.000000
    379        -17.464678   1.000000
    380        -17.455302   1.000000
    381        -17.453476   1.000000
    382        -17.449493   1.000000
    383        -17.448810   1.000000
    384        -17.435981   1.000000
    385          2.697658   1.000000
    386          3.762111   1.000000
    387          4.026515   1.000000
    388          4.114102   1.000000
    389          4.206055   1.000000
    390          4.378427   1.000000
    391          4.497099   1.000000
    392          5.003876   1.000000
    393          5.149162   1.000000
    394          5.185406   1.000000
    395          5.311419   1.000000
    396          5.320771   1.000000
    397          5.331302   1.000000
    398          5.411730   1.000000
    399          5.555508   1.000000
    400          5.741929   1.000000
    401          5.788481   1.000000
    402          5.796151   1.000000
    403          5.817104   1.000000
    404          5.828741   1.000000
    405          5.857147   1.000000
    406          5.861396   1.000000
    407          5.901850   1.000000
    408          6.002913   1.000000
    409          6.004924   1.000000
    410          6.008394   1.000000
    411          6.037535   1.000000
    412          6.107269   1.000000
    413          6.110237   1.000000
    414          6.114688   1.000000
    415          6.119231   1.000000
    416          6.122866   1.000000
    417          6.138643   1.000000
    418          6.153818   1.000000
    419          6.162986   1.000000
    420          6.180171   1.000000
    421          6.207766   1.000000
    422          6.212468   1.000000
    423          6.226707   1.000000
    424          6.250185   1.000000
    425          6.284239   1.000000
    426          6.310176   1.000000
    427          6.313577   1.000000
    428          6.328939   1.000000
    429          6.335597   1.000000
    430          6.369372   1.000000
    431          6.395449   1.000000
    432          6.416100   1.000000
    433          6.442109   1.000000
    434          6.453622   1.000000
    435          6.477583   1.000000
    436          6.505600   1.000000
    437          6.516058   1.000000
    438          6.520244   1.000000
    439          6.526749   1.000000
    440          6.532912   1.000000
    441          6.539722   1.000000
    442          6.555841   1.000000
    443          6.558653   1.000000
    444          6.580483   1.000000
    445          6.593544   1.000000
    446          6.616276   1.000000
    447          6.652255   1.000000
    448          6.666816   1.000000
    449          6.680562   1.000000
    450          6.683801   1.000000
    451          6.696497   1.000000
    452          6.701293   1.000000
    453          6.741539   1.000000
    454          6.780852   1.000000
    455          6.812371   1.000000
    456          6.819092   1.000000
    457          6.871694   1.000000
    458          6.900810   1.000000
    459          6.908017   1.000000
    460          6.912519   1.000000
    461          6.915540   1.000000
    462          6.957023   1.000000
    463          6.998992   1.000000
    464          7.010873   1.000000
    465          7.014835   1.000000
    466          7.045499   1.000000
    467          7.102738   1.000000
    468          7.123638   1.000000
    469          7.132720   1.000000
    470          7.196202   1.000000
    471          7.201769   1.000000
    472          7.206039   1.000000
    473          7.212747   1.000000
    474          7.220256   1.000000
    475          7.226814   1.000000
    476          7.246412   1.000000
    477          7.253979   1.000000
    478          7.259593   1.000000
    479          7.271410   1.000000
    480          7.279338   1.000000
    481          7.291340   1.000000
    482          7.302679   1.000000
    483          7.307221   1.000000
    484          7.323203   1.000000
    485          7.339466   1.000000
    486          7.359038   1.000000
    487          7.379338   1.000000
    488          7.389727   1.000000
    489          7.404273   1.000000
    490          7.418614   1.000000
    491          7.428270   1.000000
    492          7.449589   1.000000
    493          7.470870   1.000000
    494          7.476867   1.000000
    495          7.488495   1.000000
    496          7.568190   1.000000
    497          7.585135   1.000000
    498          7.596383   1.000000
    499          7.621831   1.000000
    500          7.637332   1.000000
    501          7.670437   1.000000
    502          7.702281   1.000000
    503          7.731759   1.000000
    504          7.740459   1.000000
    505          7.780546   1.000000
    506          7.787888   1.000000
    507          7.792931   1.000000
    508          7.796281   1.000000
    509          7.818046   1.000000
    510          7.829397   1.000000
    511          7.847554   1.000000
    512          7.855917   1.000000
    513          7.863619   1.000000
    514          7.870039   1.000000
    515          7.908725   1.000000
    516          7.920679   1.000000
    517          7.931553   1.000000
    518          7.935214   1.000000
    519          7.940925   1.000000
    520          7.950921   1.000000
    521          7.972943   1.000000
    522          7.979638   1.000000
    523          8.018522   1.000000
    524          8.027986   1.000000
    525          8.041534   1.000000
    526          8.057461   1.000000
    527          8.071902   1.000000
    528          8.099462   1.000000
    529          8.114173   1.000000
    530          8.126481   1.000000
    531          8.128885   1.000000
    532          8.133764   1.000000
    533          8.139609   1.000000
    534          8.144113   1.000000
    535          8.174465   1.000000
    536          8.187281   1.000000
    537          8.201897   1.000001
    538          8.209000   1.000001
    539          8.216416   1.000001
    540          8.232368   1.000002
    541          8.234817   1.000002
    542          8.243624   1.000003
    543          8.248172   1.000003
    544          8.252304   1.000004
    545          8.259380   1.000005
    546          8.273175   1.000008
    547          8.282746   1.000011
    548          8.303981   1.000021
    549          8.306966   1.000023
    550          8.310456   1.000025
    551          8.317897   1.000032
    552          8.328602   1.000044
    553          8.339783   1.000061
    554          8.342038   1.000065
    555          8.345142   1.000071
    556          8.348467   1.000078
    557          8.351262   1.000084
    558          8.354842   1.000093
    559          8.365161   1.000124
    560          8.370846   1.000144
    561          8.391923   1.000252
    562          8.394208   1.000268
    563          8.575129   1.010910
    564          8.622273   1.020150
    565          8.635180   1.023100
    566          8.678519   1.032390
    567          8.709771   1.035458
    568          8.769772   1.015693
    569          8.801625   0.981130
    570          8.814066   0.961551
    571          8.848455   0.887625
    572          8.856521   0.865986
    573          8.862524   0.848841
    574          8.869123   0.828992
    575          8.871731   0.820865
    576          8.885333   0.776012
    577          8.925908   0.621805
    578          8.940522   0.561225
    579          9.000003   0.314948
    580          9.019723   0.241506
    581          9.023869   0.226976
    582          9.035773   0.187274
    583          9.053425   0.134353
    584          9.071400   0.088305
    585          9.099120   0.033196
    586          9.111438   0.014697
    587          9.155751  -0.025495
    588          9.168969  -0.030929
    589          9.193850  -0.035307
    590          9.197649  -0.035437
    591          9.211003  -0.035024
    592          9.227395  -0.033072
    593          9.237953  -0.031226
    594          9.251266  -0.028483
    595          9.266076  -0.025138
    596          9.280320  -0.021848
    597          9.288892  -0.019904
    598          9.293004  -0.018992
    599          9.293921  -0.018790
    600          9.299029  -0.017685
    601          9.308191  -0.015781
    602          9.309600  -0.015497
    603          9.315491  -0.014344
    604          9.317804  -0.013905
    605          9.321886  -0.013149
    606          9.325948  -0.012424
    607          9.335090  -0.010885
    608          9.339653  -0.010168
    609          9.347043  -0.009077
    610          9.352771  -0.008291
    611          9.369304  -0.006306
    612          9.412614  -0.002833
    613          9.424000  -0.002252
    614          9.460693  -0.001019
    615          9.483768  -0.000595
    616          9.490975  -0.000500
    617          9.498791  -0.000412
    618          9.502430  -0.000377
    619          9.509935  -0.000312
    620          9.518145  -0.000252
    621          9.522210  -0.000227
    622          9.537135  -0.000153
    623          9.548963  -0.000111
    624          9.555883  -0.000091
    625          9.567829  -0.000065
    626          9.574225  -0.000054
    627          9.585206  -0.000039
    628          9.590089  -0.000034
    629          9.603942  -0.000022
    630          9.608656  -0.000019
    631          9.616840  -0.000015
    632          9.621857  -0.000013
    633          9.627329  -0.000011
    634          9.635363  -0.000008
    635          9.664974  -0.000003
    636          9.694649  -0.000001
    637          9.701215  -0.000001
    638          9.710304  -0.000001
    639          9.730035  -0.000000
    640          9.737762  -0.000000
    641          9.747082  -0.000000
    642          9.755055  -0.000000
    643          9.759604  -0.000000
    644          9.780357  -0.000000
    645          9.792733  -0.000000
    646          9.804176  -0.000000
    647          9.812669  -0.000000
    648          9.833747  -0.000000
    649          9.838136  -0.000000
    650          9.851597  -0.000000
    651          9.872030  -0.000000
    652          9.878369  -0.000000
    653          9.884797  -0.000000
    654          9.891117  -0.000000
    655          9.901823  -0.000000
    656          9.907752  -0.000000
    657          9.916683  -0.000000
    658          9.929133  -0.000000
    659          9.945613  -0.000000
    660          9.954310  -0.000000
    661          9.962769  -0.000000
    662          9.998134  -0.000000
    663         10.003356  -0.000000
    664         10.013921  -0.000000
    665         10.030883  -0.000000
    666         10.046959  -0.000000
    667         10.051368  -0.000000
    668         10.065896  -0.000000
    669         10.069704  -0.000000
    670         10.073629  -0.000000
    671         10.077557  -0.000000
    672         10.084196  -0.000000
    673         10.090717  -0.000000
    674         10.097462  -0.000000
    675         10.101557  -0.000000
    676         10.110497  -0.000000
    677         10.116331  -0.000000
    678         10.122516  -0.000000
    679         10.128118  -0.000000
    680         10.131255  -0.000000
    681         10.141040  -0.000000
    682         10.150573  -0.000000
    683         10.160082  -0.000000
    684         10.164167  -0.000000
    685         10.170342  -0.000000
    686         10.177143  -0.000000
    687         10.179888  -0.000000
    688         10.186380  -0.000000
    689         10.189040  -0.000000
    690         10.196445  -0.000000
    691         10.203968  -0.000000
 
  0.5000000E+00  0.2500000E+00  0.3333333E+00  0.4166667E-01
      1        -39.886633   1.000000
      2        -39.875139   1.000000
      3        -39.871363   1.000000
      4        -39.869646   1.000000
      5        -39.860612   1.000000
      6        -39.858350   1.000000
      7        -39.835221   1.000000
      8        -39.832419   1.000000
      9        -39.830086   1.000000
     10        -39.825114   1.000000
     11        -39.822571   1.000000
     12        -39.820752   1.000000
     13        -39.818317   1.000000
     14        -39.811315   1.000000
     15        -39.808987   1.000000
     16        -39.805603   1.000000
     17        -39.802895   1.000000
     18        -39.800646   1.000000
     19        -39.799115   1.000000
     20        -39.797325   1.000000
     21        -39.794618   1.000000
     22        -39.793126   1.000000
     23        -39.791371   1.000000
     24        -39.789604   1.000000
     25        -39.787817   1.000000
     26        -39.784387   1.000000
     27        -39.782241   1.000000
     28        -39.781568   1.000000
     29        -39.780802   1.000000
     30        -39.778040   1.000000
     31        -39.777423   1.000000
     32        -39.775792   1.000000
     33        -39.774778   1.000000
     34        -39.773197   1.000000
     35        -39.771175   1.000000
     36        -39.769485   1.000000
     37        -39.768094   1.000000
     38        -39.766297   1.000000
     39        -39.764714   1.000000
     40        -39.762509   1.000000
     41        -39.761264   1.000000
     42        -39.759719   1.000000
     43        -39.759109   1.000000
     44        -39.758173   1.000000
     45        -39.757408   1.000000
     46        -39.756900   1.000000
     47        -39.755930   1.000000
     48        -39.755267   1.000000
     49        -39.754831   1.000000
     50        -39.754205   1.000000
     51        -39.753289   1.000000
     52        -39.752545   1.000000
     53        -39.751890   1.000000
     54        -39.750540   1.000000
     55        -39.748807   1.000000
     56        -39.747428   1.000000
     57        -39.746201   1.000000
     58        -39.745872   1.000000
     59        -39.744607   1.000000
     60        -39.744163   1.000000
     61        -39.742907   1.000000
     62        -39.742173   1.000000
     63        -39.741599   1.000000
     64        -39.740985   1.000000
     65        -39.739611   1.000000
     66        -39.738926   1.000000
     67        -39.737985   1.000000
     68        -39.736891   1.000000
     69        -39.736192   1.000000
     70        -39.735844   1.000000
     71        -39.734765   1.000000
     72        -39.734170   1.000000
     73        -39.732636   1.000000
     74        -39.731429   1.000000
     75        -39.730617   1.000000
     76        -39.729748   1.000000
     77        -39.729404   1.000000
     78        -39.728130   1.000000
     79        -39.727895   1.000000
     80        -39.727567   1.000000
     81        -39.726469   1.000000
     82        -39.725874   1.000000
     83        -39.725701   1.000000
     84        -39.724906   1.000000
     85        -39.724274   1.000000
     86        -39.723425   1.000000
     87        -39.723067   1.000000
     88        -39.722747   1.000000
     89        -39.720996   1.000000
     90        -39.720526   1.000000
     91        -39.719508   1.000000
     92        -39.718762   1.000000
     93        -39.717730   1.000000
     94        -39.715976   1.000000
     95        -39.714835   1.000000
     96        -39.713267   1.000000
     97        -18.356319   1.000000
     98        -18.316631   1.000000
     99        -18.315001   1.000000
    100        -18.296934   1.000000
    101        -18.283583   1.000000
    102        -18.278294   1.000000
    103        -18.276600   1.000000
    104        -18.275102   1.000000
    105        -18.266935   1.000000
    106        -18.262769   1.000000
    107        -18.261519   1.000000
    108        -18.258497   1.000000
    109        -18.256984   1.000000
    110        -18.254460   1.000000
    111        -18.253305   1.000000
    112        -18.242746   1.000000
    113        -18.240985   1.000000
    114        -18.237636   1.000000
    115        -18.234697   1.000000
    116        -18.233927   1.000000
    117        -18.232520   1.000000
    118        -18.231886   1.000000
    119        -18.229747   1.000000
    120        -18.227555   1.000000
    121        -18.219867   1.000000
    122        -18.218255   1.000000
    123        -18.217566   1.000000
    124        -18.216002   1.000000
    125        -18.215061   1.000000
    126        -18.213779   1.000000
    127        -18.212521   1.000000
    128        -18.211582   1.000000
    129        -18.211228   1.000000
    130        -18.210136   1.000000
    131        -18.200488   1.000000
    132        -18.199683   1.000000
    133        -18.197307   1.000000
    134        -18.195694   1.000000
    135        -18.193865   1.000000
    136        -18.192430   1.000000
    137        -18.191081   1.000000
    138        -18.185806   1.000000
    139        -18.179812   1.000000
    140        -18.174542   1.000000
    141        -18.172829   1.000000
    142        -18.169610   1.000000
    143        -18.169084   1.000000
    144        -18.167578   1.000000
    145        -18.166245   1.000000
    146        -18.160483   1.000000
    147        -18.154018   1.000000
    148        -18.141787   1.000000
    149        -18.117873   1.000000
    150        -18.116959   1.000000
    151        -18.116417   1.000000
    152        -18.114942   1.000000
    153        -18.113836   1.000000
    154        -18.112634   1.000000
    155        -18.111727   1.000000
    156        -18.110489   1.000000
    157        -18.110111   1.000000
    158        -18.107913   1.000000
    159        -18.088289   1.000000
    160        -18.086727   1.000000
    161        -18.077802   1.000000
    162        -18.061065   1.000000
    163        -18.057763   1.000000
    164        -18.053087   1.000000
    165        -18.051591   1.000000
    166        -18.049655   1.000000
    167        -18.046345   1.000000
    168        -18.045430   1.000000
    169        -18.044697   1.000000
    170        -18.043614   1.000000
    171        -18.042117   1.000000
    172        -18.041037   1.000000
    173        -18.040057   1.000000
    174        -18.035353   1.000000
    175        -18.034609   1.000000
    176        -18.030717   1.000000
    177        -18.028705   1.000000
    178        -18.026590   1.000000
    179        -18.004345   1.000000
    180        -17.986004   1.000000
    181        -17.982718   1.000000
    182        -17.979486   1.000000
    183        -17.975523   1.000000
    184        -17.972817   1.000000
    185        -17.967777   1.000000
    186        -17.963413   1.000000
    187        -17.955462   1.000000
    188        -17.951568   1.000000
    189        -17.941231   1.000000
    190        -17.940225   1.000000
    191        -17.939119   1.000000
    192        -17.933133   1.000000
    193        -17.930901   1.000000
    194        -17.925140   1.000000
    195        -17.921527   1.000000
    196        -17.915276   1.000000
    197        -17.913106   1.000000
    198        -17.912427   1.000000
    199        -17.908821   1.000000
    200        -17.897522   1.000000
    201        -17.895556   1.000000
    202        -17.893170   1.000000
    203        -17.891639   1.000000
    204        -17.891211   1.000000
    205        -17.889737   1.000000
    206        -17.888826   1.000000
    207        -17.887787   1.000000
    208        -17.885270   1.000000
    209        -17.875443   1.000000
    210        -17.862852   1.000000
    211        -17.862114   1.000000
    212        -17.855292   1.000000
    213        -17.853611   1.000000
    214        -17.850118   1.000000
    215        -17.834504   1.000000
    216        -17.832379   1.000000
    217        -17.830742   1.000000
    218        -17.825677   1.000000
    219        -17.821257   1.000000
    220        -17.817344   1.000000
    221        -17.815844   1.000000
    222        -17.814254   1.000000
    223        -17.801882   1.000000
    224        -17.793747   1.000000
    225        -17.783505   1.000000
    226        -17.771725   1.000000
    227        -17.770381   1.000000
    228        -17.765979   1.000000
    229        -17.764735   1.000000
    230        -17.762936   1.000000
    231        -17.761890   1.000000
    232        -17.759633   1.000000
    233        -17.756939   1.000000
    234        -17.753186   1.000000
    235        -17.753052   1.000000
    236        -17.751737   1.000000
    237        -17.744442   1.000000
    238        -17.740326   1.000000
    239        -17.738829   1.000000
    240        -17.734241   1.000000
    241        -17.732962   1.000000
    242        -17.730762   1.000000
    243        -17.728889   1.000000
    244        -17.727593   1.000000
    245        -17.727229   1.000000
    246        -17.725712   1.000000
    247        -17.725177   1.000000
    248        -17.723407   1.000000
    249        -17.723057   1.000000
    250        -17.722030   1.000000
    251        -17.721550   1.000000
    252        -17.720105   1.000000
    253        -17.718706   1.000000
    254        -17.717346   1.000000
    255        -17.713464   1.000000
    256        -17.711823   1.000000
    257        -17.710984   1.000000
    258        -17.710671   1.000000
    259        -17.709354   1.000000
    260        -17.706929   1.000000
    261        -17.705812   1.000000
    262        -17.703113   1.000000
    263        -17.700022   1.000000
    264        -17.698807   1.000000
    265        -17.695420   1.000000
    266        -17.685171   1.000000
    267        -17.682617   1.000000
    268        -17.681535   1.000000
    269        -17.681142   1.000000
    270        -17.680060   1.000000
    271        -17.678182   1.000000
    272        -17.676736   1.000000
    273        -17.675796   1.000000
    274        -17.669791   1.000000
    275        -17.668951   1.000000
    276        -17.667715   1.000000
    277        -17.666866   1.000000
    278        -17.666254   1.000000
    279        -17.665116   1.000000
    280        -17.663229   1.000000
    281        -17.651155   1.000000
    282        -17.650614   1.000000
    283        -17.647983   1.000000
    284        -17.646938   1.000000
    285        -17.639415   1.000000
    286        -17.638404   1.000000
    287        -17.631222   1.000000
    288        -17.629552   1.000000
    289        -17.628105   1.000000
    290        -17.626283   1.000000
    291        -17.625377   1.000000
    292        -17.624555   1.000000
    293        -17.623762   1.000000
    294        -17.622940   1.000000
    295        -17.622295   1.000000
    296        -17.621264   1.000000
    297        -17.620388   1.000000
    298        -17.618525   1.000000
    299        -17.617814   1.000000
    300        -17.616143   1.000000
    301        -17.615313   1.000000
    302        -17.613973   1.000000
    303        -17.613155   1.000000
    304        -17.612604   1.000000
    305        -17.611659   1.000000
    306        -17.610735   1.000000
    307        -17.609553   1.000000
    308        -17.607718   1.000000
    309        -17.606958   1.000000
    310        -17.601160   1.000000
    311        -17.600369   1.000000
    312        -17.596005   1.000000
    313        -17.594886   1.000000
    314        -17.594222   1.000000
    315        -17.593396   1.000000
    316        -17.591930   1.000000
    317        -17.590789   1.000000
    318        -17.589982   1.000000
    319        -17.589158   1.000000
    320        -17.588860   1.000000
    321        -17.586246   1.000000
    322        -17.585825   1.000000
    323        -17.585125   1.000000
    324        -17.584477   1.000000
    325        -17.584148   1.000000
    326        -17.583369   1.000000
    327        -17.582921   1.000000
    328        -17.582521   1.000000
    329        -17.581669   1.000000
    330        -17.580708   1.000000
    331        -17.580297   1.000000
    332        -17.579633   1.000000
    333        -17.578332   1.000000
    334        -17.578198   1.000000
    335        -17.576893   1.000000
    336        -17.576249   1.000000
    337        -17.574336   1.000000
    338        -17.572851   1.000000
    339        -17.569532   1.000000
    340        -17.569174   1.000000
    341        -17.568103   1.000000
    342        -17.566923   1.000000
    343        -17.563542   1.000000
    344        -17.562708   1.000000
    345        -17.562467   1.000000
    346        -17.555318   1.000000
    347        -17.554047   1.000000
    348        -17.553224   1.000000
    349        -17.552019   1.000000
    350        -17.543559   1.000000
    351        -17.542232   1.000000
    352        -17.541266   1.000000
    353        -17.539767   1.000000
    354        -17.538782   1.000000
    355        -17.536826   1.000000
    356        -17.535598   1.000000
    357        -17.534950   1.000000
    358        -17.534003   1.000000
    359        -17.530138   1.000000
    360        -17.527487   1.000000
    361        -17.526176   1.000000
    362        -17.521966   1.000000
    363        -17.521765   1.000000
    364        -17.519851   1.000000
    365        -17.518427   1.000000
    366        -17.517662   1.000000
    367        -17.516944   1.000000
    368        -17.515603   1.000000
    369        -17.514801   1.000000
    370        -17.513113   1.000000
    371        -17.511634   1.000000
    372        -17.493936   1.000000
    373        -17.488866   1.000000
    374        -17.487624   1.000000
    375        -17.471071   1.000000
    376        -17.469302   1.000000
    377        -17.468588   1.000000
    378        -17.467713   1.000000
    379        -17.464256   1.000000
    380        -17.454657   1.000000
    381        -17.454164   1.000000
    382        -17.449645   1.000000
    383        -17.449139   1.000000
    384        -17.436427   1.000000
    385          2.696608   1.000000
    386          3.763518   1.000000
    387          4.026739   1.000000
    388          4.114517   1.000000
    389          4.204727   1.000000
    390          4.378858   1.000000
    391          4.499628   1.000000
    392          5.005159   1.000000
    393          5.149631   1.000000
    394          5.183113   1.000000
    395          5.311778   1.000000
    396          5.321405   1.000000
    397          5.331904   1.000000
    398          5.402290   1.000000
    399          5.554593   1.000000
    400          5.740659   1.000000
    401          5.789088   1.000000
    402          5.797985   1.000000
    403          5.817513   1.000000
    404          5.826726   1.000000
    405          5.857507   1.000000
    406          5.861644   1.000000
    407          5.904760   1.000000
    408          6.003669   1.000000
    409          6.005910   1.000000
    410          6.008396   1.000000
    411          6.042032   1.000000
    412          6.106040   1.000000
    413          6.109355   1.000000
    414          6.113748   1.000000
    415          6.119070   1.000000
    416          6.125790   1.000000
    417          6.145553   1.000000
    418          6.154166   1.000000
    419          6.160850   1.000000
    420          6.184954   1.000000
    421          6.206476   1.000000
    422          6.211498   1.000000
    423          6.225550   1.000000
    424          6.250138   1.000000
    425          6.283496   1.000000
    426          6.311374   1.000000
    427          6.314442   1.000000
    428          6.325291   1.000000
    429          6.334306   1.000000
    430          6.370618   1.000000
    431          6.395519   1.000000
    432          6.417669   1.000000
    433          6.440152   1.000000
    434          6.454143   1.000000
    435          6.477338   1.000000
    436          6.505383   1.000000
    437          6.515646   1.000000
    438          6.522561   1.000000
    439          6.526917   1.000000
    440          6.531006   1.000000
    441          6.540671   1.000000
    442          6.554120   1.000000
    443          6.559281   1.000000
    444          6.579445   1.000000
    445          6.592349   1.000000
    446          6.614611   1.000000
    447          6.648906   1.000000
    448          6.667453   1.000000
    449          6.678360   1.000000
    450          6.684751   1.000000
    451          6.695472   1.000000
    452          6.699980   1.000000
    453          6.754035   1.000000
    454          6.780846   1.000000
    455          6.809892   1.000000
    456          6.821610   1.000000
    457          6.862558   1.000000
    458          6.901551   1.000000
    459          6.907450   1.000000
    460          6.911688   1.000000
    461          6.919433   1.000000
    462          6.968952   1.000000
    463          6.999490   1.000000
    464          7.012941   1.000000
    465          7.014734   1.000000
    466          7.040316   1.000000
    467          7.087155   1.000000
    468          7.122779   1.000000
    469          7.141296   1.000000
    470          7.198076   1.000000
    471          7.202756   1.000000
    472          7.205822   1.000000
    473          7.210751   1.000000
    474          7.220951   1.000000
    475          7.233498   1.000000
    476          7.245336   1.000000
    477          7.257018   1.000000
    478          7.259066   1.000000
    479          7.269172   1.000000
    480          7.280047   1.000000
    481          7.295208   1.000000
    482          7.302916   1.000000
    483          7.307995   1.000000
    484          7.325306   1.000000
    485          7.339635   1.000000
    486          7.354551   1.000000
    487          7.376727   1.000000
    488          7.389161   1.000000
    489          7.399309   1.000000
    490          7.419380   1.000000
    491          7.428506   1.000000
    492          7.449952   1.000000
    493          7.468715   1.000000
    494          7.482743   1.000000
    495          7.488917   1.000000
    496          7.557846   1.000000
    497          7.585112   1.000000
    498          7.598433   1.000000
    499          7.618902   1.000000
    500          7.638349   1.000000
    501          7.671160   1.000000
    502          7.700414   1.000000
    503          7.722991   1.000000
    504          7.740632   1.000000
    505          7.779364   1.000000
    506          7.787068   1.000000
    507          7.792305   1.000000
    508          7.795021   1.000000
    509          7.814406   1.000000
    510          7.828246   1.000000
    511          7.842469   1.000000
    512          7.859296   1.000000
    513          7.862435   1.000000
    514          7.869600   1.000000
    515          7.912055   1.000000
    516          7.924056   1.000000
    517          7.930495   1.000000
    518          7.933214   1.000000
    519          7.946275   1.000000
    520          7.949593   1.000000
    521          7.972831   1.000000
    522          7.979869   1.000000
    523          8.017980   1.000000
    524          8.028877   1.000000
    525          8.047176   1.000000
    526          8.059144   1.000000
    527          8.072158   1.000000
    528          8.098081   1.000000
    529          8.113754   1.000000
    530          8.125432   1.000000
    531          8.128217   1.000000
    532          8.131457   1.000000
    533          8.139880   1.000000
    534          8.142481   1.000000
    535          8.167344   1.000000
    536          8.182584   1.000000
    537          8.205256   1.000001
    538          8.209216   1.000001
    539          8.218521   1.000001
    540          8.231975   1.000002
    541          8.236179   1.000002
    542          8.240736   1.000003
    543          8.246991   1.000003
    544          8.251301   1.000004
    545          8.260676   1.000005
    546          8.271826   1.000008
    547          8.290765   1.000014
    548          8.303178   1.000020
    549          8.305838   1.000022
    550          8.309656   1.000025
    551          8.322762   1.000037
    552          8.327984   1.000043
    553          8.339184   1.000060
    554          8.343722   1.000068
    555          8.344515   1.000069
    556          8.346370   1.000073
    557          8.351785   1.000085
    558          8.356140   1.000096
    559          8.362992   1.000116
    560          8.372628   1.000151
    561          8.392998   1.000259
    562          8.394138   1.000267
    563          8.582226   1.012094
    564          8.626968   1.021213
    565          8.636715   1.023455
    566          8.669490   1.030716
    567          8.709094   1.035454
    568          8.774726   1.011663
    569          8.795237   0.989787
    570          8.816852   0.956659
    571          8.847993   0.888817
    572          8.856402   0.866316
    573          8.862435   0.849101
    574          8.868351   0.831367
    575          8.873294   0.815920
    576          8.885408   0.775754
    577          8.933822   0.589197
    578          8.937438   0.574136
    579          8.994689   0.335806
    580          9.023007   0.229970
    581          9.026221   0.218891
    582          9.033994   0.193010
    583          9.048876   0.147279
    584          9.078148   0.073121
    585          9.098724   0.033850
    586          9.116644   0.007921
    587          9.140117  -0.015556
    588          9.165398  -0.029703
    589          9.183371  -0.034271
    590          9.202289  -0.035438
    591          9.217793  -0.034378
    592          9.230466  -0.032574
    593          9.240400  -0.030751
    594          9.251130  -0.028513
    595          9.259429  -0.026662
    596          9.281482  -0.021582
    597          9.288790  -0.019927
    598          9.295612  -0.018422
    599          9.298403  -0.017819
    600          9.302177  -0.017019
    601          9.307798  -0.015860
    602          9.310034  -0.015411
    603          9.315749  -0.014294
    604          9.320484  -0.013406
    605          9.323052  -0.012938
    606          9.329565  -0.011799
    607          9.335088  -0.010886
    608          9.343093  -0.009649
    609          9.347093  -0.009070
    610          9.350264  -0.008629
    611          9.369548  -0.006279
    612          9.410049  -0.002980
    613          9.421104  -0.002389
    614          9.454502  -0.001172
    615          9.485188  -0.000575
    616          9.492157  -0.000486
    617          9.500372  -0.000396
    618          9.506538  -0.000340
    619          9.510245  -0.000309
    620          9.517200  -0.000259
    621          9.522876  -0.000223
    622          9.537567  -0.000151
    623          9.544161  -0.000126
    624          9.555788  -0.000091
    625          9.570022  -0.000061
    626          9.573574  -0.000055
    627          9.585244  -0.000039
    628          9.591730  -0.000032
    629          9.604061  -0.000022
    630          9.609463  -0.000019
    631          9.616624  -0.000015
    632          9.620243  -0.000013
    633          9.627193  -0.000011
    634          9.634269  -0.000009
    635          9.666784  -0.000003
    636          9.691711  -0.000001
    637          9.698241  -0.000001
    638          9.709731  -0.000001
    639          9.726263  -0.000000
    640          9.738737  -0.000000
    641          9.748034  -0.000000
    642          9.757408  -0.000000
    643          9.768051  -0.000000
    644          9.782034  -0.000000
    645          9.797595  -0.000000
    646          9.805383  -0.000000
    647          9.811644  -0.000000
    648          9.833075  -0.000000
    649          9.841645  -0.000000
    650          9.854906  -0.000000
    651          9.877277  -0.000000
    652          9.878738  -0.000000
    653          9.884838  -0.000000
    654          9.893447  -0.000000
    655          9.904351  -0.000000
    656          9.907503  -0.000000
    657          9.915650  -0.000000
    658          9.921196  -0.000000
    659          9.943528  -0.000000
    660          9.953078  -0.000000
    661          9.960915  -0.000000
    662          9.989514  -0.000000
    663         10.001988  -0.000000
    664         10.023505  -0.000000
    665         10.029924  -0.000000
    666         10.042521  -0.000000
    667         10.057065  -0.000000
    668         10.063761  -0.000000
    669         10.067070  -0.000000
    670         10.073424  -0.000000
    671         10.074600  -0.000000
    672         10.085126  -0.000000
    673         10.088666  -0.000000
    674         10.097852  -0.000000
    675         10.101363  -0.000000
    676         10.110453  -0.000000
    677         10.115646  -0.000000
    678         10.121224  -0.000000
    679         10.127856  -0.000000
    680         10.131484  -0.000000
    681         10.141433  -0.000000
    682         10.149868  -0.000000
    683         10.157410  -0.000000
    684         10.161842  -0.000000
    685         10.170441  -0.000000
    686         10.173300  -0.000000
    687         10.179166  -0.000000
    688         10.185215  -0.000000
    689         10.193803  -0.000000
    690         10.196168  -0.000000
    691         10.206429  -0.000000
 
 -0.2500000E+00 -0.2500000E+00  0.3333333E+00  0.4166667E-01
      1        -39.886633   1.000000
      2        -39.875139   1.000000
      3        -39.871363   1.000000
      4        -39.869646   1.000000
      5        -39.860612   1.000000
      6        -39.858350   1.000000
      7        -39.835221   1.000000
      8        -39.832419   1.000000
      9        -39.830086   1.000000
     10        -39.825114   1.000000
     11        -39.822571   1.000000
     12        -39.820752   1.000000
     13        -39.818317   1.000000
     14        -39.811315   1.000000
     15        -39.808987   1.000000
     16        -39.805603   1.000000
     17        -39.802895   1.000000
     18        -39.800646   1.000000
     19        -39.799115   1.000000
     20        -39.797325   1.000000
     21        -39.794618   1.000000
     22        -39.793126   1.000000
     23        -39.791371   1.000000
     24        -39.789604   1.000000
     25        -39.787817   1.000000
     26        -39.784387   1.000000
     27        -39.782241   1.000000
     28        -39.781568   1.000000
     29        -39.780802   1.000000
     30        -39.778040   1.000000
     31        -39.777423   1.000000
     32        -39.775792   1.000000
     33        -39.774778   1.000000
     34        -39.773197   1.000000
     35        -39.771175   1.000000
     36        -39.769485   1.000000
     37        -39.768094   1.000000
     38        -39.766297   1.000000
     39        -39.764714   1.000000
     40        -39.762509   1.000000
     41        -39.761264   1.000000
     42        -39.759719   1.000000
     43        -39.759109   1.000000
     44        -39.758173   1.000000
     45        -39.757408   1.000000
     46        -39.756900   1.000000
     47        -39.755930   1.000000
     48        -39.755267   1.000000
     49        -39.754831   1.000000
     50        -39.754205   1.000000
     51        -39.753289   1.000000
     52        -39.752545   1.000000
     53        -39.751890   1.000000
     54        -39.750540   1.000000
     55        -39.748807   1.000000
     56        -39.747428   1.000000
     57        -39.746201   1.000000
     58        -39.745872   1.000000
     59        -39.744607   1.000000
     60        -39.744163   1.000000
     61        -39.742907   1.000000
     62        -39.742173   1.000000
     63        -39.741599   1.000000
     64        -39.740985   1.000000
     65        -39.739611   1.000000
     66        -39.738926   1.000000
     67        -39.737985   1.000000
     68        -39.736891   1.000000
     69        -39.736192   1.000000
     70        -39.735844   1.000000
     71        -39.734765   1.000000
     72        -39.734170   1.000000
     73        -39.732636   1.000000
     74        -39.731429   1.000000
     75        -39.730617   1.000000
     76        -39.729748   1.000000
     77        -39.729404   1.000000
     78        -39.728130   1.000000
     79        -39.727895   1.000000
     80        -39.727567   1.000000
     81        -39.726469   1.000000
     82        -39.725874   1.000000
     83        -39.725701   1.000000
     84        -39.724906   1.000000
     85        -39.724274   1.000000
     86        -39.723425   1.000000
     87        -39.723067   1.000000
     88        -39.722747   1.000000
     89        -39.720996   1.000000
     90        -39.720526   1.000000
     91        -39.719508   1.000000
     92        -39.718762   1.000000
     93        -39.717730   1.000000
     94        -39.715976   1.000000
     95        -39.714835   1.000000
     96        -39.713267   1.000000
     97        -18.356319   1.000000
     98        -18.316631   1.000000
     99        -18.315001   1.000000
    100        -18.296934   1.000000
    101        -18.283583   1.000000
    102        -18.278294   1.000000
    103        -18.276600   1.000000
    104        -18.275102   1.000000
    105        -18.266935   1.000000
    106        -18.262769   1.000000
    107        -18.261519   1.000000
    108        -18.258497   1.000000
    109        -18.256984   1.000000
    110        -18.254460   1.000000
    111        -18.253305   1.000000
    112        -18.242746   1.000000
    113        -18.240985   1.000000
    114        -18.237636   1.000000
    115        -18.234697   1.000000
    116        -18.233927   1.000000
    117        -18.232520   1.000000
    118        -18.231886   1.000000
    119        -18.229747   1.000000
    120        -18.227555   1.000000
    121        -18.219867   1.000000
    122        -18.218255   1.000000
    123        -18.217566   1.000000
    124        -18.216002   1.000000
    125        -18.215061   1.000000
    126        -18.213779   1.000000
    127        -18.212521   1.000000
    128        -18.211582   1.000000
    129        -18.211228   1.000000
    130        -18.210136   1.000000
    131        -18.200488   1.000000
    132        -18.199683   1.000000
    133        -18.197307   1.000000
    134        -18.195694   1.000000
    135        -18.193865   1.000000
    136        -18.192430   1.000000
    137        -18.191081   1.000000
    138        -18.185806   1.000000
    139        -18.179812   1.000000
    140        -18.174542   1.000000
    141        -18.172829   1.000000
    142        -18.169610   1.000000
    143        -18.169084   1.000000
    144        -18.167578   1.000000
    145        -18.166245   1.000000
    146        -18.160483   1.000000
    147        -18.154018   1.000000
    148        -18.141787   1.000000
    149        -18.117873   1.000000
    150        -18.116959   1.000000
    151        -18.116417   1.000000
    152        -18.114942   1.000000
    153        -18.113836   1.000000
    154        -18.112634   1.000000
    155        -18.111727   1.000000
    156        -18.110489   1.000000
    157        -18.110111   1.000000
    158        -18.107913   1.000000
    159        -18.088289   1.000000
    160        -18.086727   1.000000
    161        -18.077802   1.000000
    162        -18.061065   1.000000
    163        -18.057763   1.000000
    164        -18.053087   1.000000
    165        -18.051591   1.000000
    166        -18.049655   1.000000
    167        -18.046345   1.000000
    168        -18.045430   1.000000
    169        -18.044697   1.000000
    170        -18.043614   1.000000
    171        -18.042117   1.000000
    172        -18.041037   1.000000
    173        -18.040057   1.000000
    174        -18.035353   1.000000
    175        -18.034609   1.000000
    176        -18.030717   1.000000
    177        -18.028705   1.000000
    178        -18.026590   1.000000
    179        -18.004345   1.000000
    180        -17.986004   1.000000
    181        -17.982718   1.000000
    182        -17.979486   1.000000
    183        -17.975523   1.000000
    184        -17.972817   1.000000
    185        -17.967777   1.000000
    186        -17.963413   1.000000
    187        -17.955462   1.000000
    188        -17.951568   1.000000
    189        -17.941231   1.000000
    190        -17.940225   1.000000
    191        -17.939119   1.000000
    192        -17.933133   1.000000
    193        -17.930901   1.000000
    194        -17.925140   1.000000
    195        -17.921527   1.000000
    196        -17.915276   1.000000
    197        -17.913106   1.000000
    198        -17.912427   1.000000
    199        -17.908821   1.000000
    200        -17.897522   1.000000
    201        -17.895556   1.000000
    202        -17.893170   1.000000
    203        -17.891639   1.000000
    204        -17.891211   1.000000
    205        -17.889737   1.000000
    206        -17.888826   1.000000
    207        -17.887787   1.000000
    208        -17.885269   1.000000
    209        -17.875443   1.000000
    210        -17.862852   1.000000
    211        -17.862114   1.000000
    212        -17.855292   1.000000
    213        -17.853611   1.000000
    214        -17.850118   1.000000
    215        -17.834504   1.000000
    216        -17.832379   1.000000
    217        -17.830742   1.000000
    218        -17.825677   1.000000
    219        -17.821257   1.000000
    220        -17.817344   1.000000
    221        -17.815844   1.000000
    222        -17.814254   1.000000
    223        -17.801882   1.000000
    224        -17.793747   1.000000
    225        -17.783505   1.000000
    226        -17.771725   1.000000
    227        -17.770381   1.000000
    228        -17.765979   1.000000
    229        -17.764735   1.000000
    230        -17.762936   1.000000
    231        -17.761890   1.000000
    232        -17.759633   1.000000
    233        -17.756939   1.000000
    234        -17.753186   1.000000
    235        -17.753052   1.000000
    236        -17.751737   1.000000
    237        -17.744442   1.000000
    238        -17.740326   1.000000
    239        -17.738829   1.000000
    240        -17.734241   1.000000
    241        -17.732962   1.000000
    242        -17.730762   1.000000
    243        -17.728889   1.000000
    244        -17.727593   1.000000
    245        -17.727229   1.000000
    246        -17.725712   1.000000
    247        -17.725177   1.000000
    248        -17.723407   1.000000
    249        -17.723057   1.000000
    250        -17.722030   1.000000
    251        -17.721550   1.000000
    252        -17.720105   1.000000
    253        -17.718706   1.000000
    254        -17.717346   1.000000
    255        -17.713464   1.000000
    256        -17.711823   1.000000
    257        -17.710984   1.000000
    258        -17.710671   1.000000
    259        -17.709354   1.000000
    260        -17.706929   1.000000
    261        -17.705812   1.000000
    262        -17.703113   1.000000
    263        -17.700022   1.000000
    264        -17.698807   1.000000
    265        -17.695420   1.000000
    266        -17.685171   1.000000
    267        -17.682617   1.000000
    268        -17.681535   1.000000
    269        -17.681142   1.000000
    270        -17.680060   1.000000
    271        -17.678182   1.000000
    272        -17.676736   1.000000
    273        -17.675796   1.000000
    274        -17.669791   1.000000
    275        -17.668951   1.000000
    276        -17.667715   1.000000
    277        -17.666866   1.000000
    278        -17.666254   1.000000
    279        -17.665116   1.000000
    280        -17.663229   1.000000
    281        -17.651155   1.000000
    282        -17.650614   1.000000
    283        -17.647983   1.000000
    284        -17.646938   1.000000
    285        -17.639415   1.000000
    286        -17.638404   1.000000
    287        -17.631222   1.000000
    288        -17.629552   1.000000
    289        -17.628105   1.000000
    290        -17.626283   1.000000
    291        -17.625377   1.000000
    292        -17.624555   1.000000
    293        -17.623762   1.000000
    294        -17.622940   1.000000
    295        -17.622295   1.000000
    296        -17.621264   1.000000
    297        -17.620388   1.000000
    298        -17.618525   1.000000
    299        -17.617814   1.000000
    300        -17.616143   1.000000
    301        -17.615313   1.000000
    302        -17.613973   1.000000
    303        -17.613155   1.000000
    304        -17.612604   1.000000
    305        -17.611659   1.000000
    306        -17.610735   1.000000
    307        -17.609553   1.000000
    308        -17.607718   1.000000
    309        -17.606958   1.000000
    310        -17.601160   1.000000
    311        -17.600369   1.000000
    312        -17.596005   1.000000
    313        -17.594886   1.000000
    314        -17.594222   1.000000
    315        -17.593396   1.000000
    316        -17.591930   1.000000
    317        -17.590789   1.000000
    318        -17.589982   1.000000
    319        -17.589158   1.000000
    320        -17.588860   1.000000
    321        -17.586246   1.000000
    322        -17.585825   1.000000
    323        -17.585125   1.000000
    324        -17.584477   1.000000
    325        -17.584148   1.000000
    326        -17.583369   1.000000
    327        -17.582921   1.000000
    328        -17.582521   1.000000
    329        -17.581669   1.000000
    330        -17.580708   1.000000
    331        -17.580297   1.000000
    332        -17.579633   1.000000
    333        -17.578332   1.000000
    334        -17.578198   1.000000
    335        -17.576893   1.000000
    336        -17.576249   1.000000
    337        -17.574336   1.000000
    338        -17.572851   1.000000
    339        -17.569532   1.000000
    340        -17.569174   1.000000
    341        -17.568103   1.000000
    342        -17.566923   1.000000
    343        -17.563542   1.000000
    344        -17.562708   1.000000
    345        -17.562467   1.000000
    346        -17.555318   1.000000
    347        -17.554047   1.000000
    348        -17.553224   1.000000
    349        -17.552019   1.000000
    350        -17.543559   1.000000
    351        -17.542232   1.000000
    352        -17.541266   1.000000
    353        -17.539767   1.000000
    354        -17.538782   1.000000
    355        -17.536826   1.000000
    356        -17.535598   1.000000
    357        -17.534950   1.000000
    358        -17.534003   1.000000
    359        -17.530138   1.000000
    360        -17.527487   1.000000
    361        -17.526176   1.000000
    362        -17.521966   1.000000
    363        -17.521765   1.000000
    364        -17.519851   1.000000
    365        -17.518427   1.000000
    366        -17.517662   1.000000
    367        -17.516944   1.000000
    368        -17.515603   1.000000
    369        -17.514801   1.000000
    370        -17.513113   1.000000
    371        -17.511634   1.000000
    372        -17.493936   1.000000
    373        -17.488866   1.000000
    374        -17.487624   1.000000
    375        -17.471071   1.000000
    376        -17.469302   1.000000
    377        -17.468588   1.000000
    378        -17.467713   1.000000
    379        -17.464256   1.000000
    380        -17.454657   1.000000
    381        -17.454164   1.000000
    382        -17.449645   1.000000
    383        -17.449139   1.000000
    384        -17.436427   1.000000
    385          2.696608   1.000000
    386          3.763518   1.000000
    387          4.026739   1.000000
    388          4.114517   1.000000
    389          4.204727   1.000000
    390          4.378858   1.000000
    391          4.499628   1.000000
    392          5.005159   1.000000
    393          5.149631   1.000000
    394          5.183113   1.000000
    395          5.311778   1.000000
    396          5.321405   1.000000
    397          5.331904   1.000000
    398          5.402290   1.000000
    399          5.554593   1.000000
    400          5.740659   1.000000
    401          5.789088   1.000000
    402          5.797985   1.000000
    403          5.817513   1.000000
    404          5.826726   1.000000
    405          5.857507   1.000000
    406          5.861644   1.000000
    407          5.904760   1.000000
    408          6.003669   1.000000
    409          6.005910   1.000000
    410          6.008396   1.000000
    411          6.042032   1.000000
    412          6.106040   1.000000
    413          6.109355   1.000000
    414          6.113748   1.000000
    415          6.119070   1.000000
    416          6.125790   1.000000
    417          6.145553   1.000000
    418          6.154166   1.000000
    419          6.160850   1.000000
    420          6.184954   1.000000
    421          6.206476   1.000000
    422          6.211498   1.000000
    423          6.225550   1.000000
    424          6.250138   1.000000
    425          6.283496   1.000000
    426          6.311374   1.000000
    427          6.314442   1.000000
    428          6.325291   1.000000
    429          6.334306   1.000000
    430          6.370618   1.000000
    431          6.395519   1.000000
    432          6.417669   1.000000
    433          6.440152   1.000000
    434          6.454143   1.000000
    435          6.477338   1.000000
    436          6.505383   1.000000
    437          6.515646   1.000000
    438          6.522561   1.000000
    439          6.526917   1.000000
    440          6.531006   1.000000
    441          6.540671   1.000000
    442          6.554120   1.000000
    443          6.559281   1.000000
    444          6.579445   1.000000
    445          6.592349   1.000000
    446          6.614611   1.000000
    447          6.648906   1.000000
    448          6.667453   1.000000
    449          6.678360   1.000000
    450          6.684751   1.000000
    451          6.695472   1.000000
    452          6.699980   1.000000
    453          6.754035   1.000000
    454          6.780846   1.000000
    455          6.809892   1.000000
    456          6.821610   1.000000
    457          6.862558   1.000000
    458          6.901551   1.000000
    459          6.907450   1.000000
    460          6.911688   1.000000
    461          6.919433   1.000000
    462          6.968952   1.000000
    463          6.999490   1.000000
    464          7.012941   1.000000
    465          7.014734   1.000000
    466          7.040316   1.000000
    467          7.087155   1.000000
    468          7.122779   1.000000
    469          7.141296   1.000000
    470          7.198076   1.000000
    471          7.202756   1.000000
    472          7.205822   1.000000
    473          7.210751   1.000000
    474          7.220951   1.000000
    475          7.233498   1.000000
    476          7.245336   1.000000
    477          7.257018   1.000000
    478          7.259066   1.000000
    479          7.269172   1.000000
    480          7.280047   1.000000
    481          7.295208   1.000000
    482          7.302916   1.000000
    483          7.307995   1.000000
    484          7.325306   1.000000
    485          7.339635   1.000000
    486          7.354551   1.000000
    487          7.376727   1.000000
    488          7.389161   1.000000
    489          7.399309   1.000000
    490          7.419380   1.000000
    491          7.428506   1.000000
    492          7.449952   1.000000
    493          7.468715   1.000000
    494          7.482743   1.000000
    495          7.488917   1.000000
    496          7.557846   1.000000
    497          7.585112   1.000000
    498          7.598433   1.000000
    499          7.618902   1.000000
    500          7.638349   1.000000
    501          7.671160   1.000000
    502          7.700414   1.000000
    503          7.722991   1.000000
    504          7.740632   1.000000
    505          7.779364   1.000000
    506          7.787068   1.000000
    507          7.792305   1.000000
    508          7.795021   1.000000
    509          7.814406   1.000000
    510          7.828246   1.000000
    511          7.842469   1.000000
    512          7.859296   1.000000
    513          7.862435   1.000000
    514          7.869600   1.000000
    515          7.912055   1.000000
    516          7.924056   1.000000
    517          7.930495   1.000000
    518          7.933214   1.000000
    519          7.946275   1.000000
    520          7.949593   1.000000
    521          7.972831   1.000000
    522          7.979869   1.000000
    523          8.017980   1.000000
    524          8.028877   1.000000
    525          8.047176   1.000000
    526          8.059144   1.000000
    527          8.072158   1.000000
    528          8.098081   1.000000
    529          8.113754   1.000000
    530          8.125432   1.000000
    531          8.128217   1.000000
    532          8.131457   1.000000
    533          8.139880   1.000000
    534          8.142481   1.000000
    535          8.167344   1.000000
    536          8.182584   1.000000
    537          8.205256   1.000001
    538          8.209216   1.000001
    539          8.218521   1.000001
    540          8.231975   1.000002
    541          8.236179   1.000002
    542          8.240736   1.000003
    543          8.246991   1.000003
    544          8.251301   1.000004
    545          8.260676   1.000005
    546          8.271826   1.000008
    547          8.290765   1.000014
    548          8.303178   1.000020
    549          8.305838   1.000022
    550          8.309656   1.000025
    551          8.322762   1.000037
    552          8.327984   1.000043
    553          8.339184   1.000060
    554          8.343722   1.000068
    555          8.344515   1.000069
    556          8.346370   1.000073
    557          8.351785   1.000085
    558          8.356140   1.000096
    559          8.362992   1.000116
    560          8.372628   1.000151
    561          8.392998   1.000259
    562          8.394138   1.000267
    563          8.582227   1.012094
    564          8.626968   1.021213
    565          8.636715   1.023455
    566          8.669490   1.030716
    567          8.709094   1.035454
    568          8.774726   1.011663
    569          8.795237   0.989787
    570          8.816852   0.956659
    571          8.847993   0.888817
    572          8.856403   0.866316
    573          8.862435   0.849101
    574          8.868351   0.831367
    575          8.873294   0.815920
    576          8.885408   0.775754
    577          8.933822   0.589197
    578          8.937438   0.574136
    579          8.994689   0.335806
    580          9.023007   0.229970
    581          9.026221   0.218891
    582          9.033994   0.193010
    583          9.048876   0.147279
    584          9.078148   0.073121
    585          9.098724   0.033850
    586          9.116644   0.007921
    587          9.140117  -0.015556
    588          9.165398  -0.029703
    589          9.183371  -0.034271
    590          9.202289  -0.035438
    591          9.217793  -0.034378
    592          9.230466  -0.032574
    593          9.240400  -0.030751
    594          9.251130  -0.028513
    595          9.259429  -0.026662
    596          9.281482  -0.021582
    597          9.288790  -0.019927
    598          9.295612  -0.018422
    599          9.298403  -0.017819
    600          9.302177  -0.017019
    601          9.307798  -0.015860
    602          9.310034  -0.015411
    603          9.315749  -0.014294
    604          9.320484  -0.013406
    605          9.323052  -0.012938
    606          9.329565  -0.011799
    607          9.335088  -0.010886
    608          9.343093  -0.009649
    609          9.347093  -0.009070
    610          9.350264  -0.008629
    611          9.369548  -0.006279
    612          9.410049  -0.002980
    613          9.421104  -0.002389
    614          9.454502  -0.001172
    615          9.485188  -0.000575
    616          9.492157  -0.000486
    617          9.500372  -0.000396
    618          9.506538  -0.000340
    619          9.510245  -0.000309
    620          9.517200  -0.000259
    621          9.522877  -0.000223
    622          9.537567  -0.000151
    623          9.544161  -0.000126
    624          9.555788  -0.000091
    625          9.570022  -0.000061
    626          9.573574  -0.000055
    627          9.585244  -0.000039
    628          9.591730  -0.000032
    629          9.604061  -0.000022
    630          9.609463  -0.000019
    631          9.616624  -0.000015
    632          9.620243  -0.000013
    633          9.627193  -0.000011
    634          9.634269  -0.000009
    635          9.666784  -0.000003
    636          9.691711  -0.000001
    637          9.698241  -0.000001
    638          9.709731  -0.000001
    639          9.726263  -0.000000
    640          9.738737  -0.000000
    641          9.748034  -0.000000
    642          9.757408  -0.000000
    643          9.768051  -0.000000
    644          9.782034  -0.000000
    645          9.797595  -0.000000
    646          9.805383  -0.000000
    647          9.811644  -0.000000
    648          9.833075  -0.000000
    649          9.841645  -0.000000
    650          9.854906  -0.000000
    651          9.877277  -0.000000
    652          9.878738  -0.000000
    653          9.884838  -0.000000
    654          9.893447  -0.000000
    655          9.904351  -0.000000
    656          9.907503  -0.000000
    657          9.915650  -0.000000
    658          9.921196  -0.000000
    659          9.943529  -0.000000
    660          9.953078  -0.000000
    661          9.960915  -0.000000
    662          9.989514  -0.000000
    663         10.001988  -0.000000
    664         10.023505  -0.000000
    665         10.029924  -0.000000
    666         10.042521  -0.000000
    667         10.057065  -0.000000
    668         10.063761  -0.000000
    669         10.067070  -0.000000
    670         10.073424  -0.000000
    671         10.074600  -0.000000
    672         10.085126  -0.000000
    673         10.088666  -0.000000
    674         10.097852  -0.000000
    675         10.101363  -0.000000
    676         10.110453  -0.000000
    677         10.115646  -0.000000
    678         10.121224  -0.000000
    679         10.127856  -0.000000
    680         10.131484  -0.000000
    681         10.141433  -0.000000
    682         10.149868  -0.000000
    683         10.157410  -0.000000
    684         10.161842  -0.000000
    685         10.170441  -0.000000
    686         10.173300  -0.000000
    687         10.179166  -0.000000
    688         10.185217  -0.000000
    689         10.193683  -0.000000
    690         10.195959  -0.000000
    691         10.206971  -0.000000
 
  0.2500000E+00  0.5000000E+00  0.3333333E+00  0.4166667E-01
      1        -39.886620   1.000000
      2        -39.875117   1.000000
      3        -39.871456   1.000000
      4        -39.869530   1.000000
      5        -39.860557   1.000000
      6        -39.858429   1.000000
      7        -39.836791   1.000000
      8        -39.832280   1.000000
      9        -39.828793   1.000000
     10        -39.824066   1.000000
     11        -39.823121   1.000000
     12        -39.819668   1.000000
     13        -39.818849   1.000000
     14        -39.812894   1.000000
     15        -39.808675   1.000000
     16        -39.805815   1.000000
     17        -39.801773   1.000000
     18        -39.800277   1.000000
     19        -39.798692   1.000000
     20        -39.797891   1.000000
     21        -39.795035   1.000000
     22        -39.793517   1.000000
     23        -39.791696   1.000000
     24        -39.788606   1.000000
     25        -39.787754   1.000000
     26        -39.784830   1.000000
     27        -39.783096   1.000000
     28        -39.782242   1.000000
     29        -39.779375   1.000000
     30        -39.778583   1.000000
     31        -39.777916   1.000000
     32        -39.775655   1.000000
     33        -39.774493   1.000000
     34        -39.772967   1.000000
     35        -39.771215   1.000000
     36        -39.769820   1.000000
     37        -39.768867   1.000000
     38        -39.765087   1.000000
     39        -39.764591   1.000000
     40        -39.763103   1.000000
     41        -39.760952   1.000000
     42        -39.760165   1.000000
     43        -39.759066   1.000000
     44        -39.757820   1.000000
     45        -39.757208   1.000000
     46        -39.756644   1.000000
     47        -39.755765   1.000000
     48        -39.755409   1.000000
     49        -39.754841   1.000000
     50        -39.754383   1.000000
     51        -39.754019   1.000000
     52        -39.752734   1.000000
     53        -39.750919   1.000000
     54        -39.750014   1.000000
     55        -39.747773   1.000000
     56        -39.747112   1.000000
     57        -39.746447   1.000000
     58        -39.745380   1.000000
     59        -39.745206   1.000000
     60        -39.744382   1.000000
     61        -39.743695   1.000000
     62        -39.742616   1.000000
     63        -39.741984   1.000000
     64        -39.740562   1.000000
     65        -39.740173   1.000000
     66        -39.739075   1.000000
     67        -39.737846   1.000000
     68        -39.737432   1.000000
     69        -39.736305   1.000000
     70        -39.735514   1.000000
     71        -39.734525   1.000000
     72        -39.733236   1.000000
     73        -39.732699   1.000000
     74        -39.731277   1.000000
     75        -39.730882   1.000000
     76        -39.730350   1.000000
     77        -39.729355   1.000000
     78        -39.728327   1.000000
     79        -39.727846   1.000000
     80        -39.727338   1.000000
     81        -39.726367   1.000000
     82        -39.725628   1.000000
     83        -39.725098   1.000000
     84        -39.724640   1.000000
     85        -39.724497   1.000000
     86        -39.723437   1.000000
     87        -39.723017   1.000000
     88        -39.722321   1.000000
     89        -39.721867   1.000000
     90        -39.720577   1.000000
     91        -39.719662   1.000000
     92        -39.718942   1.000000
     93        -39.718521   1.000000
     94        -39.715332   1.000000
     95        -39.714814   1.000000
     96        -39.713093   1.000000
     97        -18.356254   1.000000
     98        -18.316130   1.000000
     99        -18.315641   1.000000
    100        -18.296813   1.000000
    101        -18.283633   1.000000
    102        -18.278459   1.000000
    103        -18.276659   1.000000
    104        -18.274554   1.000000
    105        -18.266963   1.000000
    106        -18.262926   1.000000
    107        -18.261615   1.000000
    108        -18.258120   1.000000
    109        -18.256602   1.000000
    110        -18.254459   1.000000
    111        -18.253725   1.000000
    112        -18.242570   1.000000
    113        -18.240906   1.000000
    114        -18.237131   1.000000
    115        -18.234858   1.000000
    116        -18.233641   1.000000
    117        -18.232797   1.000000
    118        -18.231689   1.000000
    119        -18.229854   1.000000
    120        -18.227855   1.000000
    121        -18.219795   1.000000
    122        -18.218532   1.000000
    123        -18.217402   1.000000
    124        -18.216295   1.000000
    125        -18.215528   1.000000
    126        -18.213894   1.000000
    127        -18.213102   1.000000
    128        -18.211378   1.000000
    129        -18.210588   1.000000
    130        -18.210080   1.000000
    131        -18.200922   1.000000
    132        -18.199508   1.000000
    133        -18.197564   1.000000
    134        -18.195462   1.000000
    135        -18.193547   1.000000
    136        -18.192652   1.000000
    137        -18.190876   1.000000
    138        -18.185873   1.000000
    139        -18.179708   1.000000
    140        -18.173943   1.000000
    141        -18.172880   1.000000
    142        -18.169932   1.000000
    143        -18.168547   1.000000
    144        -18.167204   1.000000
    145        -18.166726   1.000000
    146        -18.160565   1.000000
    147        -18.154487   1.000000
    148        -18.141908   1.000000
    149        -18.118065   1.000000
    150        -18.117254   1.000000
    151        -18.116187   1.000000
    152        -18.114915   1.000000
    153        -18.114067   1.000000
    154        -18.112489   1.000000
    155        -18.111612   1.000000
    156        -18.110797   1.000000
    157        -18.109551   1.000000
    158        -18.107765   1.000000
    159        -18.088975   1.000000
    160        -18.086241   1.000000
    161        -18.078044   1.000000
    162        -18.060736   1.000000
    163        -18.057652   1.000000
    164        -18.053092   1.000000
    165        -18.051728   1.000000
    166        -18.049916   1.000000
    167        -18.046435   1.000000
    168        -18.045742   1.000000
    169        -18.043782   1.000000
    170        -18.043087   1.000000
    171        -18.042487   1.000000
    172        -18.041145   1.000000
    173        -18.040261   1.000000
    174        -18.036224   1.000000
    175        -18.033699   1.000000
    176        -18.031109   1.000000
    177        -18.028513   1.000000
    178        -18.027001   1.000000
    179        -18.004842   1.000000
    180        -17.986260   1.000000
    181        -17.982117   1.000000
    182        -17.979660   1.000000
    183        -17.975559   1.000000
    184        -17.973316   1.000000
    185        -17.967527   1.000000
    186        -17.963137   1.000000
    187        -17.956248   1.000000
    188        -17.951661   1.000000
    189        -17.942189   1.000000
    190        -17.940127   1.000000
    191        -17.938755   1.000000
    192        -17.932211   1.000000
    193        -17.931131   1.000000
    194        -17.925569   1.000000
    195        -17.921902   1.000000
    196        -17.914483   1.000000
    197        -17.913576   1.000000
    198        -17.912150   1.000000
    199        -17.908462   1.000000
    200        -17.897868   1.000000
    201        -17.895193   1.000000
    202        -17.894024   1.000000
    203        -17.891590   1.000000
    204        -17.890671   1.000000
    205        -17.889476   1.000000
    206        -17.888276   1.000000
    207        -17.887258   1.000000
    208        -17.884962   1.000000
    209        -17.875619   1.000000
    210        -17.863109   1.000000
    211        -17.862369   1.000000
    212        -17.855230   1.000000
    213        -17.853953   1.000000
    214        -17.850440   1.000000
    215        -17.834326   1.000000
    216        -17.832705   1.000000
    217        -17.830598   1.000000
    218        -17.825327   1.000000
    219        -17.821228   1.000000
    220        -17.816661   1.000000
    221        -17.815884   1.000000
    222        -17.814652   1.000000
    223        -17.802221   1.000000
    224        -17.793092   1.000000
    225        -17.783989   1.000000
    226        -17.771948   1.000000
    227        -17.769695   1.000000
    228        -17.765703   1.000000
    229        -17.764691   1.000000
    230        -17.762914   1.000000
    231        -17.761622   1.000000
    232        -17.758942   1.000000
    233        -17.757149   1.000000
    234        -17.753251   1.000000
    235        -17.752215   1.000000
    236        -17.751259   1.000000
    237        -17.745779   1.000000
    238        -17.740737   1.000000
    239        -17.738363   1.000000
    240        -17.733568   1.000000
    241        -17.733254   1.000000
    242        -17.731533   1.000000
    243        -17.729661   1.000000
    244        -17.727847   1.000000
    245        -17.726653   1.000000
    246        -17.725715   1.000000
    247        -17.724598   1.000000
    248        -17.723945   1.000000
    249        -17.723319   1.000000
    250        -17.722018   1.000000
    251        -17.721565   1.000000
    252        -17.720433   1.000000
    253        -17.719293   1.000000
    254        -17.716534   1.000000
    255        -17.713770   1.000000
    256        -17.712398   1.000000
    257        -17.710967   1.000000
    258        -17.709801   1.000000
    259        -17.708773   1.000000
    260        -17.707499   1.000000
    261        -17.706169   1.000000
    262        -17.702896   1.000000
    263        -17.700589   1.000000
    264        -17.697781   1.000000
    265        -17.694561   1.000000
    266        -17.686325   1.000000
    267        -17.683010   1.000000
    268        -17.681927   1.000000
    269        -17.680832   1.000000
    270        -17.680258   1.000000
    271        -17.678559   1.000000
    272        -17.676765   1.000000
    273        -17.675493   1.000000
    274        -17.669697   1.000000
    275        -17.669118   1.000000
    276        -17.668301   1.000000
    277        -17.666571   1.000000
    278        -17.665888   1.000000
    279        -17.664590   1.000000
    280        -17.663399   1.000000
    281        -17.650532   1.000000
    282        -17.650132   1.000000
    283        -17.649356   1.000000
    284        -17.645922   1.000000
    285        -17.640750   1.000000
    286        -17.638571   1.000000
    287        -17.631525   1.000000
    288        -17.629004   1.000000
    289        -17.627283   1.000000
    290        -17.626510   1.000000
    291        -17.625723   1.000000
    292        -17.624930   1.000000
    293        -17.623660   1.000000
    294        -17.623142   1.000000
    295        -17.622087   1.000000
    296        -17.621642   1.000000
    297        -17.619910   1.000000
    298        -17.619261   1.000000
    299        -17.617750   1.000000
    300        -17.616326   1.000000
    301        -17.614773   1.000000
    302        -17.614397   1.000000
    303        -17.613146   1.000000
    304        -17.612439   1.000000
    305        -17.611231   1.000000
    306        -17.610441   1.000000
    307        -17.608463   1.000000
    308        -17.607706   1.000000
    309        -17.607150   1.000000
    310        -17.601106   1.000000
    311        -17.599506   1.000000
    312        -17.596108   1.000000
    313        -17.594983   1.000000
    314        -17.593987   1.000000
    315        -17.593040   1.000000
    316        -17.591193   1.000000
    317        -17.590735   1.000000
    318        -17.590231   1.000000
    319        -17.589190   1.000000
    320        -17.588342   1.000000
    321        -17.586475   1.000000
    322        -17.585591   1.000000
    323        -17.585355   1.000000
    324        -17.584695   1.000000
    325        -17.584114   1.000000
    326        -17.583670   1.000000
    327        -17.582908   1.000000
    328        -17.581835   1.000000
    329        -17.581203   1.000000
    330        -17.580586   1.000000
    331        -17.580180   1.000000
    332        -17.579320   1.000000
    333        -17.578726   1.000000
    334        -17.578102   1.000000
    335        -17.576865   1.000000
    336        -17.575585   1.000000
    337        -17.574562   1.000000
    338        -17.572629   1.000000
    339        -17.570617   1.000000
    340        -17.569818   1.000000
    341        -17.568366   1.000000
    342        -17.566465   1.000000
    343        -17.564435   1.000000
    344        -17.562983   1.000000
    345        -17.562073   1.000000
    346        -17.555314   1.000000
    347        -17.553947   1.000000
    348        -17.553167   1.000000
    349        -17.551990   1.000000
    350        -17.543986   1.000000
    351        -17.542037   1.000000
    352        -17.540987   1.000000
    353        -17.539768   1.000000
    354        -17.539074   1.000000
    355        -17.536630   1.000000
    356        -17.536072   1.000000
    357        -17.534594   1.000000
    358        -17.533949   1.000000
    359        -17.529929   1.000000
    360        -17.528163   1.000000
    361        -17.526082   1.000000
    362        -17.522181   1.000000
    363        -17.521023   1.000000
    364        -17.520316   1.000000
    365        -17.519111   1.000000
    366        -17.518181   1.000000
    367        -17.516887   1.000000
    368        -17.515935   1.000000
    369        -17.514992   1.000000
    370        -17.512776   1.000000
    371        -17.512017   1.000000
    372        -17.493902   1.000000
    373        -17.488634   1.000000
    374        -17.487418   1.000000
    375        -17.471040   1.000000
    376        -17.469738   1.000000
    377        -17.469182   1.000000
    378        -17.467319   1.000000
    379        -17.464678   1.000000
    380        -17.455302   1.000000
    381        -17.453476   1.000000
    382        -17.449493   1.000000
    383        -17.448810   1.000000
    384        -17.435981   1.000000
    385          2.697658   1.000000
    386          3.762111   1.000000
    387          4.026515   1.000000
    388          4.114102   1.000000
    389          4.206055   1.000000
    390          4.378427   1.000000
    391          4.497099   1.000000
    392          5.003876   1.000000
    393          5.149162   1.000000
    394          5.185406   1.000000
    395          5.311419   1.000000
    396          5.320771   1.000000
    397          5.331302   1.000000
    398          5.411730   1.000000
    399          5.555508   1.000000
    400          5.741929   1.000000
    401          5.788481   1.000000
    402          5.796151   1.000000
    403          5.817104   1.000000
    404          5.828741   1.000000
    405          5.857147   1.000000
    406          5.861396   1.000000
    407          5.901850   1.000000
    408          6.002913   1.000000
    409          6.004924   1.000000
    410          6.008394   1.000000
    411          6.037535   1.000000
    412          6.107269   1.000000
    413          6.110237   1.000000
    414          6.114688   1.000000
    415          6.119231   1.000000
    416          6.122866   1.000000
    417          6.138643   1.000000
    418          6.153818   1.000000
    419          6.162986   1.000000
    420          6.180171   1.000000
    421          6.207766   1.000000
    422          6.212468   1.000000
    423          6.226707   1.000000
    424          6.250185   1.000000
    425          6.284239   1.000000
    426          6.310176   1.000000
    427          6.313577   1.000000
    428          6.328939   1.000000
    429          6.335597   1.000000
    430          6.369372   1.000000
    431          6.395449   1.000000
    432          6.416100   1.000000
    433          6.442109   1.000000
    434          6.453622   1.000000
    435          6.477583   1.000000
    436          6.505600   1.000000
    437          6.516058   1.000000
    438          6.520244   1.000000
    439          6.526749   1.000000
    440          6.532912   1.000000
    441          6.539722   1.000000
    442          6.555841   1.000000
    443          6.558653   1.000000
    444          6.580483   1.000000
    445          6.593544   1.000000
    446          6.616276   1.000000
    447          6.652255   1.000000
    448          6.666816   1.000000
    449          6.680562   1.000000
    450          6.683801   1.000000
    451          6.696497   1.000000
    452          6.701293   1.000000
    453          6.741539   1.000000
    454          6.780852   1.000000
    455          6.812371   1.000000
    456          6.819092   1.000000
    457          6.871694   1.000000
    458          6.900810   1.000000
    459          6.908018   1.000000
    460          6.912519   1.000000
    461          6.915540   1.000000
    462          6.957024   1.000000
    463          6.998992   1.000000
    464          7.010873   1.000000
    465          7.014836   1.000000
    466          7.045499   1.000000
    467          7.102738   1.000000
    468          7.123638   1.000000
    469          7.132720   1.000000
    470          7.196202   1.000000
    471          7.201769   1.000000
    472          7.206039   1.000000
    473          7.212747   1.000000
    474          7.220256   1.000000
    475          7.226814   1.000000
    476          7.246412   1.000000
    477          7.253979   1.000000
    478          7.259593   1.000000
    479          7.271410   1.000000
    480          7.279338   1.000000
    481          7.291340   1.000000
    482          7.302679   1.000000
    483          7.307220   1.000000
    484          7.323203   1.000000
    485          7.339466   1.000000
    486          7.359038   1.000000
    487          7.379338   1.000000
    488          7.389727   1.000000
    489          7.404273   1.000000
    490          7.418614   1.000000
    491          7.428270   1.000000
    492          7.449589   1.000000
    493          7.470870   1.000000
    494          7.476867   1.000000
    495          7.488495   1.000000
    496          7.568190   1.000000
    497          7.585135   1.000000
    498          7.596383   1.000000
    499          7.621831   1.000000
    500          7.637332   1.000000
    501          7.670437   1.000000
    502          7.702281   1.000000
    503          7.731759   1.000000
    504          7.740459   1.000000
    505          7.780546   1.000000
    506          7.787888   1.000000
    507          7.792931   1.000000
    508          7.796281   1.000000
    509          7.818046   1.000000
    510          7.829397   1.000000
    511          7.847554   1.000000
    512          7.855917   1.000000
    513          7.863619   1.000000
    514          7.870039   1.000000
    515          7.908725   1.000000
    516          7.920679   1.000000
    517          7.931553   1.000000
    518          7.935214   1.000000
    519          7.940925   1.000000
    520          7.950921   1.000000
    521          7.972943   1.000000
    522          7.979638   1.000000
    523          8.018522   1.000000
    524          8.027986   1.000000
    525          8.041534   1.000000
    526          8.057461   1.000000
    527          8.071902   1.000000
    528          8.099462   1.000000
    529          8.114173   1.000000
    530          8.126481   1.000000
    531          8.128885   1.000000
    532          8.133764   1.000000
    533          8.139609   1.000000
    534          8.144113   1.000000
    535          8.174465   1.000000
    536          8.187281   1.000000
    537          8.201897   1.000001
    538          8.209000   1.000001
    539          8.216416   1.000001
    540          8.232368   1.000002
    541          8.234817   1.000002
    542          8.243624   1.000003
    543          8.248172   1.000003
    544          8.252304   1.000004
    545          8.259380   1.000005
    546          8.273175   1.000008
    547          8.282746   1.000011
    548          8.303981   1.000021
    549          8.306966   1.000023
    550          8.310456   1.000025
    551          8.317897   1.000032
    552          8.328602   1.000044
    553          8.339783   1.000061
    554          8.342038   1.000065
    555          8.345142   1.000071
    556          8.348467   1.000078
    557          8.351262   1.000084
    558          8.354842   1.000093
    559          8.365161   1.000124
    560          8.370846   1.000144
    561          8.391923   1.000252
    562          8.394208   1.000268
    563          8.575129   1.010910
    564          8.622273   1.020150
    565          8.635180   1.023100
    566          8.678519   1.032390
    567          8.709771   1.035458
    568          8.769772   1.015693
    569          8.801625   0.981130
    570          8.814066   0.961551
    571          8.848455   0.887625
    572          8.856521   0.865986
    573          8.862524   0.848841
    574          8.869123   0.828992
    575          8.871731   0.820865
    576          8.885333   0.776012
    577          8.925908   0.621805
    578          8.940522   0.561225
    579          9.000003   0.314948
    580          9.019723   0.241506
    581          9.023869   0.226976
    582          9.035773   0.187274
    583          9.053425   0.134353
    584          9.071400   0.088305
    585          9.099120   0.033196
    586          9.111438   0.014697
    587          9.155751  -0.025495
    588          9.168969  -0.030929
    589          9.193850  -0.035307
    590          9.197649  -0.035437
    591          9.211003  -0.035024
    592          9.227396  -0.033072
    593          9.237953  -0.031226
    594          9.251266  -0.028483
    595          9.266076  -0.025138
    596          9.280320  -0.021848
    597          9.288892  -0.019904
    598          9.293004  -0.018992
    599          9.293921  -0.018790
    600          9.299029  -0.017685
    601          9.308191  -0.015781
    602          9.309600  -0.015497
    603          9.315491  -0.014344
    604          9.317804  -0.013905
    605          9.321886  -0.013149
    606          9.325948  -0.012424
    607          9.335090  -0.010885
    608          9.339653  -0.010168
    609          9.347043  -0.009077
    610          9.352771  -0.008291
    611          9.369304  -0.006306
    612          9.412614  -0.002833
    613          9.424000  -0.002252
    614          9.460693  -0.001019
    615          9.483768  -0.000595
    616          9.490975  -0.000500
    617          9.498791  -0.000412
    618          9.502430  -0.000377
    619          9.509935  -0.000312
    620          9.518145  -0.000252
    621          9.522210  -0.000227
    622          9.537135  -0.000153
    623          9.548963  -0.000111
    624          9.555883  -0.000091
    625          9.567829  -0.000065
    626          9.574225  -0.000054
    627          9.585206  -0.000039
    628          9.590089  -0.000034
    629          9.603942  -0.000022
    630          9.608656  -0.000019
    631          9.616840  -0.000015
    632          9.621857  -0.000013
    633          9.627329  -0.000011
    634          9.635363  -0.000008
    635          9.664974  -0.000003
    636          9.694649  -0.000001
    637          9.701215  -0.000001
    638          9.710304  -0.000001
    639          9.730035  -0.000000
    640          9.737762  -0.000000
    641          9.747082  -0.000000
    642          9.755055  -0.000000
    643          9.759604  -0.000000
    644          9.780357  -0.000000
    645          9.792733  -0.000000
    646          9.804176  -0.000000
    647          9.812669  -0.000000
    648          9.833747  -0.000000
    649          9.838136  -0.000000
    650          9.851596  -0.000000
    651          9.872030  -0.000000
    652          9.878369  -0.000000
    653          9.884797  -0.000000
    654          9.891117  -0.000000
    655          9.901823  -0.000000
    656          9.907752  -0.000000
    657          9.916683  -0.000000
    658          9.929133  -0.000000
    659          9.945613  -0.000000
    660          9.954310  -0.000000
    661          9.962769  -0.000000
    662          9.998134  -0.000000
    663         10.003356  -0.000000
    664         10.013921  -0.000000
    665         10.030883  -0.000000
    666         10.046959  -0.000000
    667         10.051368  -0.000000
    668         10.065896  -0.000000
    669         10.069704  -0.000000
    670         10.073629  -0.000000
    671         10.077556  -0.000000
    672         10.084196  -0.000000
    673         10.090717  -0.000000
    674         10.097462  -0.000000
    675         10.101557  -0.000000
    676         10.110497  -0.000000
    677         10.116331  -0.000000
    678         10.122516  -0.000000
    679         10.128118  -0.000000
    680         10.131255  -0.000000
    681         10.141040  -0.000000
    682         10.150573  -0.000000
    683         10.160082  -0.000000
    684         10.164167  -0.000000
    685         10.170342  -0.000000
    686         10.177143  -0.000000
    687         10.179889  -0.000000
    688         10.186367  -0.000000
    689         10.189043  -0.000000
    690         10.196481  -0.000000
    691         10.202788  -0.000000
 
  0.5000000E+00 -0.2500000E+00  0.3333333E+00  0.4166667E-01
      1        -39.886625   1.000000
      2        -39.874991   1.000000
      3        -39.871614   1.000000
      4        -39.869707   1.000000
      5        -39.860413   1.000000
      6        -39.858339   1.000000
      7        -39.834629   1.000000
      8        -39.832822   1.000000
      9        -39.830031   1.000000
     10        -39.825740   1.000000
     11        -39.823276   1.000000
     12        -39.819653   1.000000
     13        -39.819244   1.000000
     14        -39.810182   1.000000
     15        -39.808651   1.000000
     16        -39.805318   1.000000
     17        -39.802493   1.000000
     18        -39.800711   1.000000
     19        -39.799032   1.000000
     20        -39.797971   1.000000
     21        -39.796039   1.000000
     22        -39.793515   1.000000
     23        -39.790682   1.000000
     24        -39.790146   1.000000
     25        -39.786827   1.000000
     26        -39.784077   1.000000
     27        -39.782844   1.000000
     28        -39.781440   1.000000
     29        -39.780375   1.000000
     30        -39.778566   1.000000
     31        -39.776891   1.000000
     32        -39.776266   1.000000
     33        -39.774790   1.000000
     34        -39.772348   1.000000
     35        -39.771312   1.000000
     36        -39.769652   1.000000
     37        -39.768578   1.000000
     38        -39.766667   1.000000
     39        -39.764582   1.000000
     40        -39.762489   1.000000
     41        -39.760590   1.000000
     42        -39.759932   1.000000
     43        -39.758853   1.000000
     44        -39.757935   1.000000
     45        -39.757342   1.000000
     46        -39.756933   1.000000
     47        -39.756093   1.000000
     48        -39.755792   1.000000
     49        -39.754767   1.000000
     50        -39.754460   1.000000
     51        -39.753448   1.000000
     52        -39.752240   1.000000
     53        -39.751759   1.000000
     54        -39.750419   1.000000
     55        -39.749003   1.000000
     56        -39.747478   1.000000
     57        -39.746299   1.000000
     58        -39.745482   1.000000
     59        -39.744770   1.000000
     60        -39.743961   1.000000
     61        -39.743002   1.000000
     62        -39.742372   1.000000
     63        -39.741346   1.000000
     64        -39.740691   1.000000
     65        -39.739802   1.000000
     66        -39.739347   1.000000
     67        -39.738132   1.000000
     68        -39.737108   1.000000
     69        -39.736040   1.000000
     70        -39.735489   1.000000
     71        -39.734796   1.000000
     72        -39.733887   1.000000
     73        -39.732614   1.000000
     74        -39.731295   1.000000
     75        -39.730861   1.000000
     76        -39.729954   1.000000
     77        -39.729295   1.000000
     78        -39.729040   1.000000
     79        -39.727872   1.000000
     80        -39.726841   1.000000
     81        -39.726291   1.000000
     82        -39.725792   1.000000
     83        -39.725546   1.000000
     84        -39.725042   1.000000
     85        -39.724244   1.000000
     86        -39.723684   1.000000
     87        -39.723148   1.000000
     88        -39.722680   1.000000
     89        -39.721072   1.000000
     90        -39.720354   1.000000
     91        -39.719434   1.000000
     92        -39.718885   1.000000
     93        -39.717605   1.000000
     94        -39.716123   1.000000
     95        -39.714804   1.000000
     96        -39.713259   1.000000
     97        -18.356169   1.000000
     98        -18.316939   1.000000
     99        -18.315023   1.000000
    100        -18.296643   1.000000
    101        -18.284198   1.000000
    102        -18.278766   1.000000
    103        -18.276641   1.000000
    104        -18.274834   1.000000
    105        -18.267241   1.000000
    106        -18.262209   1.000000
    107        -18.261186   1.000000
    108        -18.258245   1.000000
    109        -18.256803   1.000000
    110        -18.254914   1.000000
    111        -18.253262   1.000000
    112        -18.242381   1.000000
    113        -18.241188   1.000000
    114        -18.238064   1.000000
    115        -18.235015   1.000000
    116        -18.233774   1.000000
    117        -18.232463   1.000000
    118        -18.231645   1.000000
    119        -18.229485   1.000000
    120        -18.227016   1.000000
    121        -18.220120   1.000000
    122        -18.218324   1.000000
    123        -18.217316   1.000000
    124        -18.216378   1.000000
    125        -18.215322   1.000000
    126        -18.214776   1.000000
    127        -18.212365   1.000000
    128        -18.211674   1.000000
    129        -18.210557   1.000000
    130        -18.209584   1.000000
    131        -18.200198   1.000000
    132        -18.199772   1.000000
    133        -18.196972   1.000000
    134        -18.195583   1.000000
    135        -18.194043   1.000000
    136        -18.192510   1.000000
    137        -18.190479   1.000000
    138        -18.186381   1.000000
    139        -18.179355   1.000000
    140        -18.173678   1.000000
    141        -18.172773   1.000000
    142        -18.169779   1.000000
    143        -18.168858   1.000000
    144        -18.168258   1.000000
    145        -18.166541   1.000000
    146        -18.160526   1.000000
    147        -18.155243   1.000000
    148        -18.141654   1.000000
    149        -18.118524   1.000000
    150        -18.117333   1.000000
    151        -18.115800   1.000000
    152        -18.115628   1.000000
    153        -18.113492   1.000000
    154        -18.112427   1.000000
    155        -18.111623   1.000000
    156        -18.110724   1.000000
    157        -18.109361   1.000000
    158        -18.107507   1.000000
    159        -18.088632   1.000000
    160        -18.086743   1.000000
    161        -18.078079   1.000000
    162        -18.060906   1.000000
    163        -18.058111   1.000000
    164        -18.052838   1.000000
    165        -18.051868   1.000000
    166        -18.049455   1.000000
    167        -18.046075   1.000000
    168        -18.045801   1.000000
    169        -18.044527   1.000000
    170        -18.044131   1.000000
    171        -18.041771   1.000000
    172        -18.041589   1.000000
    173        -18.039809   1.000000
    174        -18.035459   1.000000
    175        -18.033422   1.000000
    176        -18.030903   1.000000
    177        -18.028444   1.000000
    178        -18.027056   1.000000
    179        -18.005012   1.000000
    180        -17.986365   1.000000
    181        -17.981913   1.000000
    182        -17.979630   1.000000
    183        -17.975923   1.000000
    184        -17.972244   1.000000
    185        -17.967724   1.000000
    186        -17.963103   1.000000
    187        -17.955844   1.000000
    188        -17.951925   1.000000
    189        -17.942347   1.000000
    190        -17.940209   1.000000
    191        -17.938968   1.000000
    192        -17.931679   1.000000
    193        -17.930553   1.000000
    194        -17.925583   1.000000
    195        -17.921922   1.000000
    196        -17.913877   1.000000
    197        -17.913105   1.000000
    198        -17.912031   1.000000
    199        -17.908747   1.000000
    200        -17.897028   1.000000
    201        -17.894916   1.000000
    202        -17.893419   1.000000
    203        -17.892220   1.000000
    204        -17.891406   1.000000
    205        -17.890094   1.000000
    206        -17.888659   1.000000
    207        -17.887812   1.000000
    208        -17.885094   1.000000
    209        -17.875939   1.000000
    210        -17.863336   1.000000
    211        -17.862000   1.000000
    212        -17.855529   1.000000
    213        -17.854069   1.000000
    214        -17.850523   1.000000
    215        -17.834151   1.000000
    216        -17.832925   1.000000
    217        -17.829925   1.000000
    218        -17.825434   1.000000
    219        -17.821344   1.000000
    220        -17.817221   1.000000
    221        -17.815498   1.000000
    222        -17.814502   1.000000
    223        -17.802569   1.000000
    224        -17.793279   1.000000
    225        -17.783801   1.000000
    226        -17.770784   1.000000
    227        -17.770438   1.000000
    228        -17.766345   1.000000
    229        -17.765235   1.000000
    230        -17.762693   1.000000
    231        -17.762206   1.000000
    232        -17.759537   1.000000
    233        -17.757500   1.000000
    234        -17.753345   1.000000
    235        -17.752414   1.000000
    236        -17.751331   1.000000
    237        -17.745702   1.000000
    238        -17.740243   1.000000
    239        -17.739169   1.000000
    240        -17.734113   1.000000
    241        -17.733102   1.000000
    242        -17.730355   1.000000
    243        -17.728832   1.000000
    244        -17.727697   1.000000
    245        -17.727149   1.000000
    246        -17.725504   1.000000
    247        -17.724854   1.000000
    248        -17.723521   1.000000
    249        -17.722635   1.000000
    250        -17.721924   1.000000
    251        -17.720812   1.000000
    252        -17.719739   1.000000
    253        -17.719000   1.000000
    254        -17.717397   1.000000
    255        -17.713343   1.000000
    256        -17.712291   1.000000
    257        -17.710757   1.000000
    258        -17.709983   1.000000
    259        -17.708859   1.000000
    260        -17.707227   1.000000
    261        -17.706618   1.000000
    262        -17.703109   1.000000
    263        -17.700411   1.000000
    264        -17.698482   1.000000
    265        -17.695599   1.000000
    266        -17.684849   1.000000
    267        -17.683349   1.000000
    268        -17.681890   1.000000
    269        -17.680776   1.000000
    270        -17.680409   1.000000
    271        -17.678581   1.000000
    272        -17.677124   1.000000
    273        -17.675697   1.000000
    274        -17.669309   1.000000
    275        -17.668715   1.000000
    276        -17.667782   1.000000
    277        -17.667511   1.000000
    278        -17.665658   1.000000
    279        -17.664567   1.000000
    280        -17.663788   1.000000
    281        -17.651257   1.000000
    282        -17.650446   1.000000
    283        -17.647732   1.000000
    284        -17.646930   1.000000
    285        -17.640317   1.000000
    286        -17.638374   1.000000
    287        -17.631093   1.000000
    288        -17.629017   1.000000
    289        -17.628250   1.000000
    290        -17.626450   1.000000
    291        -17.625625   1.000000
    292        -17.625031   1.000000
    293        -17.623993   1.000000
    294        -17.623661   1.000000
    295        -17.622664   1.000000
    296        -17.620962   1.000000
    297        -17.620514   1.000000
    298        -17.618792   1.000000
    299        -17.617769   1.000000
    300        -17.616234   1.000000
    301        -17.614687   1.000000
    302        -17.613706   1.000000
    303        -17.613324   1.000000
    304        -17.612609   1.000000
    305        -17.611257   1.000000
    306        -17.610568   1.000000
    307        -17.609026   1.000000
    308        -17.607600   1.000000
    309        -17.606956   1.000000
    310        -17.600574   1.000000
    311        -17.600070   1.000000
    312        -17.596145   1.000000
    313        -17.595176   1.000000
    314        -17.593991   1.000000
    315        -17.593041   1.000000
    316        -17.591539   1.000000
    317        -17.590591   1.000000
    318        -17.589402   1.000000
    319        -17.588880   1.000000
    320        -17.588436   1.000000
    321        -17.586851   1.000000
    322        -17.586422   1.000000
    323        -17.585306   1.000000
    324        -17.584641   1.000000
    325        -17.584335   1.000000
    326        -17.583641   1.000000
    327        -17.583023   1.000000
    328        -17.582602   1.000000
    329        -17.581255   1.000000
    330        -17.580660   1.000000
    331        -17.580048   1.000000
    332        -17.579008   1.000000
    333        -17.578232   1.000000
    334        -17.577955   1.000000
    335        -17.577215   1.000000
    336        -17.576346   1.000000
    337        -17.574948   1.000000
    338        -17.572633   1.000000
    339        -17.570545   1.000000
    340        -17.569841   1.000000
    341        -17.568003   1.000000
    342        -17.566240   1.000000
    343        -17.563235   1.000000
    344        -17.562513   1.000000
    345        -17.561469   1.000000
    346        -17.555291   1.000000
    347        -17.554421   1.000000
    348        -17.553328   1.000000
    349        -17.552463   1.000000
    350        -17.543379   1.000000
    351        -17.542770   1.000000
    352        -17.541169   1.000000
    353        -17.539501   1.000000
    354        -17.538558   1.000000
    355        -17.537366   1.000000
    356        -17.535690   1.000000
    357        -17.534657   1.000000
    358        -17.533824   1.000000
    359        -17.529792   1.000000
    360        -17.528225   1.000000
    361        -17.526692   1.000000
    362        -17.521959   1.000000
    363        -17.521576   1.000000
    364        -17.520134   1.000000
    365        -17.518152   1.000000
    366        -17.517656   1.000000
    367        -17.516796   1.000000
    368        -17.516385   1.000000
    369        -17.514446   1.000000
    370        -17.513321   1.000000
    371        -17.511439   1.000000
    372        -17.494153   1.000000
    373        -17.488218   1.000000
    374        -17.487108   1.000000
    375        -17.471310   1.000000
    376        -17.469347   1.000000
    377        -17.468615   1.000000
    378        -17.467947   1.000000
    379        -17.464899   1.000000
    380        -17.454589   1.000000
    381        -17.453793   1.000000
    382        -17.449717   1.000000
    383        -17.448964   1.000000
    384        -17.436364   1.000000
    385          2.696643   1.000000
    386          3.762291   1.000000
    387          4.027016   1.000000
    388          4.114530   1.000000
    389          4.208500   1.000000
    390          4.378830   1.000000
    391          4.496639   1.000000
    392          5.004540   1.000000
    393          5.149584   1.000000
    394          5.181319   1.000000
    395          5.311809   1.000000
    396          5.320371   1.000000
    397          5.331954   1.000000
    398          5.406179   1.000000
    399          5.554314   1.000000
    400          5.741585   1.000000
    401          5.789190   1.000000
    402          5.796510   1.000000
    403          5.817303   1.000000
    404          5.830800   1.000000
    405          5.856729   1.000000
    406          5.861592   1.000000
    407          5.906352   1.000000
    408          6.003915   1.000000
    409          6.005523   1.000000
    410          6.008281   1.000000
    411          6.037621   1.000000
    412          6.105703   1.000000
    413          6.110487   1.000000
    414          6.114686   1.000000
    415          6.117708   1.000000
    416          6.125319   1.000000
    417          6.145221   1.000000
    418          6.154117   1.000000
    419          6.161827   1.000000
    420          6.185792   1.000000
    421          6.206605   1.000000
    422          6.210825   1.000000
    423          6.225422   1.000000
    424          6.247202   1.000000
    425          6.283291   1.000000
    426          6.310947   1.000000
    427          6.314929   1.000000
    428          6.327445   1.000000
    429          6.334746   1.000000
    430          6.365161   1.000000
    431          6.394925   1.000000
    432          6.418880   1.000000
    433          6.440760   1.000000
    434          6.453958   1.000000
    435          6.480082   1.000000
    436          6.503571   1.000000
    437          6.515942   1.000000
    438          6.522627   1.000000
    439          6.527327   1.000000
    440          6.532069   1.000000
    441          6.541216   1.000000
    442          6.554358   1.000000
    443          6.559263   1.000000
    444          6.580747   1.000000
    445          6.591784   1.000000
    446          6.619011   1.000000
    447          6.648447   1.000000
    448          6.666432   1.000000
    449          6.677195   1.000000
    450          6.684017   1.000000
    451          6.695557   1.000000
    452          6.700911   1.000000
    453          6.753620   1.000000
    454          6.779182   1.000000
    455          6.810294   1.000000
    456          6.822960   1.000000
    457          6.864400   1.000000
    458          6.900498   1.000000
    459          6.906932   1.000000
    460          6.912137   1.000000
    461          6.918295   1.000000
    462          6.972147   1.000000
    463          6.998686   1.000000
    464          7.012139   1.000000
    465          7.015399   1.000000
    466          7.042707   1.000000
    467          7.084856   1.000000
    468          7.124473   1.000000
    469          7.138953   1.000000
    470          7.197428   1.000000
    471          7.203040   1.000000
    472          7.205302   1.000000
    473          7.208744   1.000000
    474          7.220066   1.000000
    475          7.229352   1.000000
    476          7.246173   1.000000
    477          7.256842   1.000000
    478          7.259310   1.000000
    479          7.268132   1.000000
    480          7.279945   1.000000
    481          7.288900   1.000000
    482          7.303487   1.000000
    483          7.307557   1.000000
    484          7.325586   1.000000
    485          7.341166   1.000000
    486          7.361549   1.000000
    487          7.377609   1.000000
    488          7.391441   1.000000
    489          7.409493   1.000000
    490          7.418217   1.000000
    491          7.428071   1.000000
    492          7.444883   1.000000
    493          7.466007   1.000000
    494          7.477663   1.000000
    495          7.489856   1.000000
    496          7.565946   1.000000
    497          7.585534   1.000000
    498          7.594081   1.000000
    499          7.626030   1.000000
    500          7.638393   1.000000
    501          7.669374   1.000000
    502          7.696814   1.000000
    503          7.721123   1.000000
    504          7.737411   1.000000
    505          7.779437   1.000000
    506          7.787055   1.000000
    507          7.791810   1.000000
    508          7.795342   1.000000
    509          7.814893   1.000000
    510          7.829800   1.000000
    511          7.842215   1.000000
    512          7.859698   1.000000
    513          7.864192   1.000000
    514          7.869909   1.000000
    515          7.905826   1.000000
    516          7.919539   1.000000
    517          7.931079   1.000000
    518          7.934351   1.000000
    519          7.945068   1.000000
    520          7.950105   1.000000
    521          7.976493   1.000000
    522          7.978854   1.000000
    523          8.021242   1.000000
    524          8.028817   1.000000
    525          8.046523   1.000000
    526          8.055788   1.000000
    527          8.080439   1.000000
    528          8.097923   1.000000
    529          8.112264   1.000000
    530          8.124774   1.000000
    531          8.129368   1.000000
    532          8.134182   1.000000
    533          8.139431   1.000000
    534          8.144469   1.000000
    535          8.167433   1.000000
    536          8.180255   1.000000
    537          8.204881   1.000001
    538          8.208005   1.000001
    539          8.221506   1.000001
    540          8.233056   1.000002
    541          8.235091   1.000002
    542          8.241200   1.000003
    543          8.247483   1.000003
    544          8.251532   1.000004
    545          8.256552   1.000005
    546          8.271507   1.000007
    547          8.292347   1.000015
    548          8.304288   1.000021
    549          8.306117   1.000022
    550          8.309403   1.000025
    551          8.318113   1.000032
    552          8.326313   1.000041
    553          8.339473   1.000060
    554          8.343178   1.000067
    555          8.345053   1.000070
    556          8.346696   1.000074
    557          8.352550   1.000087
    558          8.356457   1.000097
    559          8.363945   1.000120
    560          8.369939   1.000141
    561          8.392341   1.000255
    562          8.394523   1.000270
    563          8.571078   1.010270
    564          8.624039   1.020548
    565          8.631798   1.022319
    566          8.689603   1.034057
    567          8.709954   1.035458
    568          8.781590   1.005302
    569          8.794551   0.990662
    570          8.824322   0.942603
    571          8.846628   0.892302
    572          8.853879   0.873254
    573          8.860967   0.853373
    574          8.868617   0.830549
    575          8.873283   0.815954
    576          8.884405   0.779197
    577          8.930289   0.603822
    578          8.938212   0.570903
    579          9.000497   0.313029
    580          9.021222   0.236213
    581          9.028112   0.212477
    582          9.033291   0.195298
    583          9.044289   0.160821
    584          9.083727   0.061434
    585          9.087399   0.054167
    586          9.112650   0.013065
    587          9.132102  -0.008776
    588          9.167381  -0.030405
    589          9.185345  -0.034548
    590          9.199201  -0.035456
    591          9.222657  -0.033768
    592          9.231911  -0.032328
    593          9.239896  -0.030850
    594          9.252182  -0.028282
    595          9.265203  -0.025339
    596          9.284305  -0.020938
    597          9.287629  -0.020187
    598          9.294629  -0.018636
    599          9.298607  -0.017776
    600          9.302797  -0.016889
    601          9.308594  -0.015699
    602          9.310636  -0.015291
    603          9.315926  -0.014261
    604          9.318214  -0.013828
    605          9.321359  -0.013246
    606          9.329947  -0.011734
    607          9.335048  -0.010892
    608          9.343906  -0.009529
    609          9.348658  -0.008850
    610          9.351793  -0.008421
    611          9.373357  -0.005880
    612          9.411549  -0.002893
    613          9.420855  -0.002401
    614          9.462975  -0.000968
    615          9.481984  -0.000621
    616          9.489889  -0.000513
    617          9.499836  -0.000402
    618          9.504230  -0.000360
    619          9.508058  -0.000327
    620          9.518294  -0.000251
    621          9.525056  -0.000211
    622          9.534103  -0.000166
    623          9.544979  -0.000123
    624          9.555329  -0.000093
    625          9.567320  -0.000066
    626          9.575409  -0.000052
    627          9.587026  -0.000037
    628          9.590041  -0.000034
    629          9.599375  -0.000026
    630          9.607143  -0.000020
    631          9.615711  -0.000015
    632          9.622682  -0.000012
    633          9.625102  -0.000012
    634          9.633819  -0.000009
    635          9.663752  -0.000003
    636          9.686080  -0.000002
    637          9.702415  -0.000001
    638          9.708101  -0.000001
    639          9.727771  -0.000000
    640          9.739431  -0.000000
    641          9.750077  -0.000000
    642          9.758917  -0.000000
    643          9.768604  -0.000000
    644          9.784537  -0.000000
    645          9.795531  -0.000000
    646          9.807807  -0.000000
    647          9.812295  -0.000000
    648          9.831966  -0.000000
    649          9.841436  -0.000000
    650          9.850530  -0.000000
    651          9.873639  -0.000000
    652          9.882036  -0.000000
    653          9.885672  -0.000000
    654          9.892575  -0.000000
    655          9.905258  -0.000000
    656          9.906940  -0.000000
    657          9.912694  -0.000000
    658          9.926021  -0.000000
    659          9.942083  -0.000000
    660          9.949522  -0.000000
    661          9.961749  -0.000000
    662          9.989588  -0.000000
    663         10.003754  -0.000000
    664         10.025024  -0.000000
    665         10.030146  -0.000000
    666         10.052101  -0.000000
    667         10.057405  -0.000000
    668         10.065373  -0.000000
    669         10.069135  -0.000000
    670         10.072249  -0.000000
    671         10.075718  -0.000000
    672         10.080809  -0.000000
    673         10.090140  -0.000000
    674         10.094159  -0.000000
    675         10.102977  -0.000000
    676         10.109811  -0.000000
    677         10.116349  -0.000000
    678         10.122662  -0.000000
    679         10.124115  -0.000000
    680         10.130894  -0.000000
    681         10.140858  -0.000000
    682         10.150915  -0.000000
    683         10.157461  -0.000000
    684         10.162461  -0.000000
    685         10.168310  -0.000000
    686         10.173471  -0.000000
    687         10.177689  -0.000000
    688         10.185082  -0.000000
    689         10.190330  -0.000000
    690         10.196815  -0.000000
    691         10.206544  -0.000000
