       N       E                     dE             d eps       ncg     rms          rms(c)
DAV:   1     0.127811501238E+05    0.12781E+05   -0.55793E+05 35948   0.151E+03
DAV:   2     0.514627641180E+03   -0.12267E+05   -0.11961E+05 37676   0.500E+02
DAV:   3    -0.665357299290E+03   -0.11800E+04   -0.11249E+04 56624   0.112E+02
DAV:   4    -0.839833998678E+03   -0.17448E+03   -0.17163E+03 55128   0.349E+01
DAV:   5    -0.856071637649E+03   -0.16238E+02   -0.16143E+02 50216   0.881E+00    0.990E+01
DAV:   6    -0.826658764922E+03    0.29413E+02   -0.52248E+01 41600   0.104E+01    0.383E+01
DAV:   7    -0.821367179372E+03    0.52916E+01   -0.29465E+01 45304   0.710E+00    0.789E+00
DAV:   8    -0.822077947626E+03   -0.71077E+00   -0.55242E+00 52856   0.419E+00    0.806E+00
DAV:   9    -0.821598827531E+03    0.47912E+00   -0.28341E+00 51920   0.306E+00    0.337E+00
DAV:  10    -0.821544245822E+03    0.54582E-01   -0.15284E+00 49776   0.222E+00    0.128E+00
DAV:  11    -0.821496687043E+03    0.47559E-01   -0.37051E-01 45704   0.114E+00    0.652E-01
DAV:  12    -0.821496507950E+03    0.17909E-03   -0.96267E-02 47752   0.641E-01    0.577E-01
DAV:  13    -0.821486412225E+03    0.10096E-01   -0.42616E-02 47584   0.418E-01    0.345E-01
DAV:  14    -0.821486145963E+03    0.26626E-03   -0.15224E-02 49152   0.179E-01    0.181E-01
DAV:  15    -0.821485761917E+03    0.38405E-03   -0.38885E-03 47656   0.113E-01    0.894E-02
DAV:  16    -0.821485778972E+03   -0.17055E-04   -0.73141E-04 53624   0.410E-02    0.561E-02
DAV:  17    -0.821485774361E+03    0.46111E-05   -0.23807E-04 47928   0.273E-02    0.262E-02
DAV:  18    -0.821485768621E+03    0.57394E-05   -0.77777E-05 49920   0.163E-02    0.129E-02
DAV:  19    -0.821485766674E+03    0.19469E-05   -0.22353E-05 41280   0.758E-03    0.971E-03
DAV:  20    -0.821485765265E+03    0.14092E-05   -0.46203E-06 34352   0.377E-03    0.603E-03
DAV:  21    -0.821485764307E+03    0.95858E-06   -0.11951E-06 24856   0.246E-03
   1 F= -.82148576E+03 E0= -.82154400E+03  d E =-.821486E+03
       N       E                     dE             d eps       ncg     rms          rms(c)
DAV:   1    -0.821490135494E+03   -0.43702E-02   -0.26154E-01 37584   0.808E-01    0.728E-02
DAV:   2    -0.821490655743E+03   -0.52025E-03   -0.56451E-03 41416   0.125E-01    0.456E-02
DAV:   3    -0.821490702479E+03   -0.46736E-04   -0.52862E-04 55928   0.414E-02    0.434E-02
DAV:   4    -0.821490665671E+03    0.36809E-04   -0.14167E-04 48048   0.283E-02    0.286E-02
DAV:   5    -0.821490659475E+03    0.61958E-05   -0.54767E-05 45176   0.162E-02    0.155E-02
DAV:   6    -0.821490657555E+03    0.19197E-05   -0.20311E-05 45016   0.974E-03    0.591E-03
DAV:   7    -0.821490656644E+03    0.91111E-06   -0.72371E-06 38368   0.532E-03
   2 F= -.82149066E+03 E0= -.82154887E+03  d E =-.489234E-02
       N       E                     dE             d eps       ncg     rms          rms(c)
DAV:   1    -0.821494248456E+03   -0.35909E-02   -0.21596E-01 37136   0.735E-01    0.657E-02
DAV:   2    -0.821494678692E+03   -0.43024E-03   -0.46717E-03 41448   0.114E-01    0.417E-02
DAV:   3    -0.821494717861E+03   -0.39168E-04   -0.43942E-04 55856   0.379E-02    0.398E-02
DAV:   4    -0.821494686742E+03    0.31118E-04   -0.11768E-04 47864   0.257E-02    0.261E-02
DAV:   5    -0.821494682114E+03    0.46287E-05   -0.44864E-05 45208   0.146E-02    0.143E-02
DAV:   6    -0.821494680558E+03    0.15554E-05   -0.17150E-05 44840   0.894E-03    0.543E-03
DAV:   7    -0.821494679775E+03    0.78362E-06   -0.61659E-06 36432   0.491E-03
   3 F= -.82149468E+03 E0= -.82155287E+03  d E =-.402313E-02
       N       E                     dE             d eps       ncg     rms          rms(c)
DAV:   1    -0.821497621699E+03   -0.29411E-02   -0.17465E-01 36896   0.662E-01    0.585E-02
DAV:   2    -0.821497971992E+03   -0.35029E-03   -0.37904E-03 41424   0.103E-01    0.372E-02
DAV:   3    -0.821498004508E+03   -0.32516E-04   -0.35646E-04 56008   0.339E-02    0.357E-02
DAV:   4    -0.821497978851E+03    0.25657E-04   -0.94254E-05 47128   0.230E-02    0.234E-02
DAV:   5    -0.821497975372E+03    0.34788E-05   -0.35469E-05 45080   0.129E-02    0.129E-02
DAV:   6    -0.821497974080E+03    0.12922E-05   -0.13600E-05 43040   0.798E-03    0.483E-03
DAV:   7    -0.821497973464E+03    0.61559E-06   -0.48256E-06 33992   0.441E-03
   4 F= -.82149797E+03 E0= -.82155614E+03  d E =-.329369E-02
       N       E                     dE             d eps       ncg     rms          rms(c)
DAV:   1    -0.821500443236E+03   -0.24692E-02   -0.14569E-01 36832   0.605E-01    0.531E-02
DAV:   2    -0.821500736252E+03   -0.29302E-03   -0.31655E-03 41376   0.938E-02    0.338E-02
DAV:   3    -0.821500764052E+03   -0.27800E-04   -0.29783E-04 56040   0.310E-02    0.327E-02
DAV:   4    -0.821500742015E+03    0.22037E-04   -0.78380E-05 46160   0.209E-02    0.212E-02
DAV:   5    -0.821500739308E+03    0.27074E-05   -0.29169E-05 44504   0.116E-02    0.118E-02
DAV:   6    -0.821500738203E+03    0.11049E-05   -0.11176E-05 39904   0.727E-03    0.438E-03
DAV:   7    -0.821500737717E+03    0.48576E-06   -0.38945E-06 31544   0.410E-03
   5 F= -.82150074E+03 E0= -.82155888E+03  d E =-.276425E-02
       N       E                     dE             d eps       ncg     rms          rms(c)
DAV:   1    -0.821502821506E+03   -0.20833E-02   -0.12192E-01 36632   0.554E-01    0.482E-02
DAV:   2    -0.821503069017E+03   -0.24751E-03   -0.26569E-03 41360   0.860E-02    0.312E-02
DAV:   3    -0.821503094184E+03   -0.25167E-04   -0.25440E-04 55968   0.297E-02    0.309E-02
DAV:   4    -0.821503072058E+03    0.22125E-04   -0.69537E-05 45840   0.199E-02    0.194E-02
DAV:   5    -0.821503070196E+03    0.18629E-05   -0.24172E-05 44216   0.104E-02    0.107E-02
DAV:   6    -0.821503069386E+03    0.80952E-06   -0.94112E-06 38120   0.668E-03
   6 F= -.82150307E+03 E0= -.82156119E+03  d E =-.233167E-02
       N       E                     dE             d eps       ncg     rms          rms(c)
DAV:   1    -0.821504849068E+03   -0.17789E-02   -0.10408E-01 36512   0.512E-01    0.443E-02
DAV:   2    -0.821505070509E+03   -0.22144E-03   -0.22785E-03 41344   0.802E-02    0.309E-02
DAV:   3    -0.821505087666E+03   -0.17157E-04   -0.24097E-04 56608   0.315E-02    0.305E-02
DAV:   4    -0.821505064608E+03    0.23058E-04   -0.66718E-05 46872   0.192E-02    0.181E-02
DAV:   5    -0.821505063390E+03    0.12176E-05   -0.20483E-05 44496   0.928E-03    0.990E-03
DAV:   6    -0.821505062916E+03    0.47401E-06   -0.78982E-06 37008   0.604E-03
   7 F= -.82150506E+03 E0= -.82156316E+03  d E =-.199353E-02
       N       E                     dE             d eps       ncg     rms          rms(c)
DAV:   1    -0.821506585954E+03   -0.15226E-02   -0.88637E-02 36504   0.473E-01    0.405E-02
DAV:   2    -0.821506776157E+03   -0.19020E-03   -0.19471E-03 41400   0.741E-02    0.285E-02
DAV:   3    -0.821506789856E+03   -0.13698E-04   -0.20395E-04 56512   0.289E-02    0.280E-02
DAV:   4    -0.821506770772E+03    0.19084E-04   -0.54994E-05 46080   0.174E-02    0.166E-02
DAV:   5    -0.821506769795E+03    0.97667E-06   -0.16893E-05 40880   0.849E-03    0.919E-03
DAV:   6    -0.821506769400E+03    0.39484E-06   -0.67585E-06 36256   0.569E-03
   8 F= -.82150677E+03 E0= -.82156484E+03  d E =-.170648E-02
       N       E                     dE             d eps       ncg     rms          rms(c)
DAV:   1    -0.821508072930E+03   -0.13031E-02   -0.74997E-02 36488   0.436E-01    0.370E-02
DAV:   2    -0.821508240127E+03   -0.16720E-03   -0.16564E-03 41360   0.688E-02    0.278E-02
DAV:   3    -0.821508244458E+03   -0.43305E-05   -0.18088E-04 56944   0.281E-02    0.254E-02
DAV:   4    -0.821508230169E+03    0.14289E-04   -0.45922E-05 46088   0.155E-02    0.153E-02
DAV:   5    -0.821508229366E+03    0.80264E-06   -0.13909E-05 38552   0.774E-03    0.851E-03
DAV:   6    -0.821508229206E+03    0.16068E-06   -0.57060E-06 35336   0.535E-03
   9 F= -.82150823E+03 E0= -.82156628E+03  d E =-.145981E-02
       N       E                     dE             d eps       ncg     rms          rms(c)
DAV:   1    -0.821509355839E+03   -0.11265E-02   -0.64742E-02 36424   0.405E-01    0.340E-02
DAV:   2    -0.821509499878E+03   -0.14404E-03   -0.14333E-03 41392   0.637E-02    0.253E-02
DAV:   3    -0.821509505157E+03   -0.52788E-05   -0.15455E-04 56936   0.254E-02    0.235E-02
DAV:   4    -0.821509492824E+03    0.12333E-04   -0.38372E-05 45616   0.143E-02    0.142E-02
DAV:   5    -0.821509492149E+03    0.67508E-06   -0.11553E-05 36560   0.710E-03    0.800E-03
DAV:   6    -0.821509491884E+03    0.26447E-06   -0.47721E-06 33976   0.487E-03
  10 F= -.82150949E+03 E0= -.82156752E+03  d E =-.126268E-02
       N       E                     dE             d eps       ncg     rms          rms(c)
DAV:   1    -0.821510475150E+03   -0.98300E-03   -0.55842E-02 36424   0.377E-01    0.313E-02
DAV:   2    -0.821510600112E+03   -0.12496E-03   -0.12409E-03 41304   0.593E-02    0.235E-02
DAV:   3    -0.821510604035E+03   -0.39237E-05   -0.13418E-04 56768   0.237E-02    0.216E-02
DAV:   4    -0.821510593769E+03    0.10266E-04   -0.32710E-05 44656   0.131E-02    0.131E-02
DAV:   5    -0.821510593247E+03    0.52185E-06   -0.98236E-06 35640   0.654E-03
  11 F= -.82151059E+03 E0= -.82156860E+03  d E =-.110136E-02
       N       E                     dE             d eps       ncg     rms          rms(c)
DAV:   1    -0.821511446364E+03   -0.85259E-03   -0.48582E-02 36384   0.352E-01    0.286E-02
DAV:   2    -0.821511549622E+03   -0.10326E-03   -0.10776E-03 41592   0.538E-02    0.195E-02
DAV:   3    -0.821511559981E+03   -0.10359E-04   -0.99850E-05 55840   0.185E-02    0.194E-02
DAV:   4    -0.821511551057E+03    0.89240E-05   -0.24827E-05 38632   0.119E-02    0.121E-02
DAV:   5    -0.821511550750E+03    0.30626E-06   -0.88649E-06 34840   0.631E-03
  12 F= -.82151155E+03 E0= -.82156954E+03  d E =-.957503E-03
       N       E                     dE             d eps       ncg     rms          rms(c)
DAV:   1    -0.821512293617E+03   -0.74256E-03   -0.41684E-02 36400   0.326E-01    0.260E-02
DAV:   2    -0.821512380238E+03   -0.86621E-04   -0.92725E-04 41576   0.495E-02    0.165E-02
DAV:   3    -0.821512386529E+03   -0.62915E-05   -0.76100E-05 55888   0.122E-02    0.143E-02
DAV:   4    -0.821512384704E+03    0.18252E-05   -0.12771E-05 35136   0.810E-03    0.107E-02
DAV:   5    -0.821512384211E+03    0.49258E-06   -0.71354E-06 34944   0.625E-03
  13 F= -.82151238E+03 E0= -.82157036E+03  d E =-.833461E-03
       N       E                     dE             d eps       ncg     rms          rms(c)
DAV:   1    -0.821513035274E+03   -0.65057E-03   -0.36429E-02 36368   0.305E-01    0.241E-02
DAV:   2    -0.821513112145E+03   -0.76871E-04   -0.81116E-04 41464   0.464E-02    0.158E-02
DAV:   3    -0.821513120608E+03   -0.84630E-05   -0.74210E-05 55744   0.145E-02    0.162E-02
DAV:   4    -0.821513114605E+03    0.60028E-05   -0.16647E-05 35976   0.956E-03    0.102E-02
DAV:   5    -0.821513114461E+03    0.14412E-06   -0.61287E-06 34368   0.525E-03
  14 F= -.82151311E+03 E0= -.82157108E+03  d E =-.730250E-03
       N       E                     dE             d eps       ncg     rms          rms(c)
DAV:   1    -0.821513679701E+03   -0.56510E-03   -0.30649E-02 36384   0.280E-01    0.219E-02
DAV:   2    -0.821513744657E+03   -0.64956E-04   -0.68543E-04 41584   0.426E-02    0.144E-02
DAV:   3    -0.821513751764E+03   -0.71071E-05   -0.62217E-05 55640   0.132E-02    0.148E-02
DAV:   4    -0.821513746810E+03    0.49543E-05   -0.13764E-05 35640   0.869E-03    0.936E-03
DAV:   5    -0.821513746703E+03    0.10614E-06   -0.50291E-06 33672   0.476E-03
  15 F= -.82151375E+03 E0= -.82157170E+03  d E =-.632243E-03
       N       E                     dE             d eps       ncg     rms          rms(c)
DAV:   1    -0.821514261954E+03   -0.51514E-03   -0.27841E-02 36352   0.267E-01    0.206E-02
DAV:   2    -0.821514321069E+03   -0.59116E-04   -0.62431E-04 41600   0.406E-02    0.136E-02
DAV:   3    -0.821514327455E+03   -0.63851E-05   -0.56077E-05 55640   0.123E-02    0.139E-02
DAV:   4    -0.821514323125E+03    0.43300E-05   -0.12093E-05 35272   0.812E-03    0.886E-03
DAV:   5    -0.821514323033E+03    0.91823E-07   -0.44031E-06 33152   0.445E-03
  16 F= -.82151432E+03 E0= -.82157227E+03  d E =-.576329E-03
       N       E                     dE             d eps       ncg     rms          rms(c)
DAV:   1    -0.821514788775E+03   -0.46565E-03   -0.24759E-02 36360   0.252E-01    0.193E-02
DAV:   2    -0.821514841397E+03   -0.52622E-04   -0.55618E-04 41592   0.382E-02    0.127E-02
DAV:   3    -0.821514847023E+03   -0.56258E-05   -0.49693E-05 55656   0.115E-02    0.130E-02
DAV:   4    -0.821514843292E+03    0.37310E-05   -0.10513E-05 35144   0.756E-03    0.836E-03
DAV:   5    -0.821514843202E+03    0.90193E-07   -0.37966E-06 32544   0.416E-03
  17 F= -.82151484E+03 E0= -.82157278E+03  d E =-.520169E-03
       N       E                     dE             d eps       ncg     rms          rms(c)
DAV:   1    -0.821515255459E+03   -0.41217E-03   -0.21803E-02 36360   0.236E-01    0.180E-02
DAV:   2    -0.821515301938E+03   -0.46480E-04   -0.49109E-04 41584   0.359E-02    0.119E-02
DAV:   3    -0.821515306935E+03   -0.49965E-05   -0.43857E-05 55632   0.108E-02    0.122E-02
DAV:   4    -0.821515303635E+03    0.32997E-05   -0.91512E-06 34920   0.704E-03    0.784E-03
DAV:   5    -0.821515303572E+03    0.63650E-07   -0.32667E-06 31992   0.387E-03
  18 F= -.82151530E+03 E0= -.82157323E+03  d E =-.460370E-03
       N       E                     dE             d eps       ncg     rms          rms(c)
DAV:   1    -0.821515671187E+03   -0.36755E-03   -0.19298E-02 36384   0.223E-01    0.167E-02
DAV:   2    -0.821515712459E+03   -0.41272E-04   -0.43646E-04 41648   0.337E-02    0.111E-02
DAV:   3    -0.821515716871E+03   -0.44120E-05   -0.38576E-05 55672   0.994E-03    0.113E-02
DAV:   4    -0.821515714069E+03    0.28022E-05   -0.77724E-06 34688   0.648E-03    0.734E-03
DAV:   5    -0.821515714024E+03    0.44078E-07   -0.27566E-06 30968   0.358E-03
  19 F= -.82151571E+03 E0= -.82157363E+03  d E =-.410453E-03
       N       E                     dE             d eps       ncg     rms          rms(c)
DAV:   1    -0.821516054697E+03   -0.34063E-03   -0.17612E-02 36384   0.213E-01    0.158E-02
DAV:   2    -0.821516092347E+03   -0.37650E-04   -0.39875E-04 41632   0.322E-02    0.105E-02
DAV:   3    -0.821516096343E+03   -0.39961E-05   -0.35050E-05 55648   0.932E-03    0.107E-02
DAV:   4    -0.821516093889E+03    0.24537E-05   -0.68714E-06 34216   0.608E-03    0.698E-03
DAV:   5    -0.821516093848E+03    0.40862E-07   -0.24492E-06 30320   0.339E-03
  20 F= -.82151609E+03 E0= -.82157400E+03  d E =-.379824E-03
       N       E                     dE             d eps       ncg     rms          rms(c)
DAV:   1    -0.821516407891E+03   -0.31400E-03   -0.16086E-02 36368   0.203E-01    0.150E-02
DAV:   2    -0.821516442354E+03   -0.34464E-04   -0.36512E-04 41624   0.307E-02    0.100E-02
DAV:   3    -0.821516445980E+03   -0.36260E-05   -0.31944E-05 55680   0.882E-03    0.101E-02
DAV:   4    -0.821516443802E+03    0.21780E-05   -0.61063E-06 33824   0.572E-03    0.668E-03
DAV:   5    -0.821516443760E+03    0.42186E-07   -0.21491E-06 29624   0.320E-03
  21 F= -.82151644E+03 E0= -.82157435E+03  d E =-.349912E-03
       N       E                     dE             d eps       ncg     rms          rms(c)
DAV:   1    -0.821516732856E+03   -0.28905E-03   -0.14674E-02 36376   0.194E-01    0.142E-02
DAV:   2    -0.821516764338E+03   -0.31482E-04   -0.33368E-04 41720   0.293E-02    0.950E-03
DAV:   3    -0.821516767641E+03   -0.33034E-05   -0.29104E-05 55504   0.839E-03    0.964E-03
DAV:   4    -0.821516765665E+03    0.19758E-05   -0.54661E-06 33352   0.542E-03    0.636E-03
DAV:   5    -0.821516765628E+03    0.37340E-07   -0.18982E-06 29072   0.302E-03
  22 F= -.82151677E+03 E0= -.82157466E+03  d E =-.321868E-03
       N       E                     dE             d eps       ncg     rms          rms(c)
DAV:   1    -0.821517038841E+03   -0.27318E-03   -0.13480E-02 36368   0.186E-01    0.135E-02
DAV:   2    -0.821517067813E+03   -0.28972E-04   -0.30733E-04 41768   0.280E-02    0.902E-03
DAV:   3    -0.821517070829E+03   -0.30160E-05   -0.26670E-05 55432   0.793E-03    0.915E-03
DAV:   4    -0.821517069069E+03    0.17598E-05   -0.48411E-06 32832   0.509E-03    0.607E-03
DAV:   5    -0.821517069038E+03    0.31330E-07   -0.16590E-06 28424   0.285E-03
  23 F= -.82151707E+03 E0= -.82157496E+03  d E =-.303410E-03
       N       E                     dE             d eps       ncg     rms          rms(c)
DAV:   1    -0.821517326702E+03   -0.25763E-03   -0.12813E-02 36440   0.182E-01    0.130E-02
DAV:   2    -0.821517354272E+03   -0.27569E-04   -0.29230E-04 41760   0.273E-02    0.879E-03
DAV:   3    -0.821517357159E+03   -0.28874E-05   -0.25522E-05 55232   0.782E-03    0.896E-03
DAV:   4    -0.821517355444E+03    0.17146E-05   -0.46580E-06 32704   0.499E-03    0.592E-03
DAV:   5    -0.821517355411E+03    0.33819E-07   -0.15319E-06 28040   0.275E-03
  24 F= -.82151736E+03 E0= -.82157525E+03  d E =-.286373E-03
       N       E                     dE             d eps       ncg     rms          rms(c)
DAV:   1    -0.821517594663E+03   -0.23922E-03   -0.12057E-02 36472   0.176E-01    0.125E-02
DAV:   2    -0.821517620604E+03   -0.25941E-04   -0.27562E-04 41784   0.264E-02    0.845E-03
DAV:   3    -0.821517623292E+03   -0.26879E-05   -0.23818E-05 54744   0.740E-03    0.855E-03
DAV:   4    -0.821517621772E+03    0.15197E-05   -0.41791E-06 32248   0.472E-03    0.571E-03
DAV:   5    -0.821517621743E+03    0.29177E-07   -0.13981E-06 27704   0.266E-03
  25 F= -.82151762E+03 E0= -.82157551E+03  d E =-.266332E-03
       N       E                     dE             d eps       ncg     rms          rms(c)
DAV:   1    -0.821517849161E+03   -0.22739E-03   -0.11152E-02 36496   0.169E-01    0.120E-02
DAV:   2    -0.821517873186E+03   -0.24025E-04   -0.25535E-04 41760   0.254E-02    0.811E-03
DAV:   3    -0.821517875698E+03   -0.25119E-05   -0.22100E-05 53928   0.710E-03    0.823E-03
DAV:   4    -0.821517874287E+03    0.14109E-05   -0.38512E-06 31920   0.453E-03    0.549E-03
DAV:   5    -0.821517874263E+03    0.24113E-07   -0.12585E-06 27176   0.255E-03
  26 F= -.82151787E+03 E0= -.82157576E+03  d E =-.252520E-03
       N       E                     dE             d eps       ncg     rms          rms(c)
DAV:   1    -0.821518084176E+03   -0.20989E-03   -0.10359E-02 36512   0.163E-01    0.115E-02
DAV:   2    -0.821518106585E+03   -0.22409E-04   -0.23799E-04 41816   0.245E-02    0.782E-03
DAV:   3    -0.821518108940E+03   -0.23544E-05   -0.20633E-05 53040   0.693E-03    0.799E-03
DAV:   4    -0.821518107587E+03    0.13532E-05   -0.36265E-06 31688   0.440E-03    0.529E-03
DAV:   5    -0.821518107561E+03    0.25131E-07   -0.11337E-06 26632   0.245E-03
  27 F= -.82151811E+03 E0= -.82157599E+03  d E =-.233298E-03
       N       E                     dE             d eps       ncg     rms          rms(c)
DAV:   1    -0.821518309464E+03   -0.20188E-03   -0.96444E-03 36544   0.158E-01    0.110E-02
DAV:   2    -0.821518330355E+03   -0.20891E-04   -0.22218E-04 41816   0.237E-02    0.747E-03
DAV:   3    -0.821518332519E+03   -0.21642E-05   -0.18996E-05 51792   0.652E-03    0.757E-03
DAV:   4    -0.821518331335E+03    0.11845E-05   -0.32422E-06 31312   0.415E-03    0.508E-03
DAV:   5    -0.821518331315E+03    0.19951E-07   -0.10131E-06 26080   0.235E-03
  28 F= -.82151833E+03 E0= -.82157621E+03  d E =-.223753E-03
       N       E                     dE             d eps       ncg     rms          rms(c)
DAV:   1    -0.821518521655E+03   -0.19032E-03   -0.92613E-03 36560   0.155E-01    0.108E-02
DAV:   2    -0.821518541747E+03   -0.20092E-04   -0.21370E-04 41864   0.232E-02    0.729E-03
DAV:   3    -0.821518543813E+03   -0.20663E-05   -0.18132E-05 50976   0.636E-03    0.738E-03
DAV:   4    -0.821518542688E+03    0.11249E-05   -0.30692E-06 31032   0.404E-03    0.497E-03
DAV:   5    -0.821518542667E+03    0.20984E-07   -0.94627E-07 25744   0.229E-03
  29 F= -.82151854E+03 E0= -.82157642E+03  d E =-.211353E-03
       N       E                     dE             d eps       ncg     rms          rms(c)
DAV:   1    -0.821518720674E+03   -0.17799E-03   -0.87249E-03 36536   0.150E-01    0.104E-02
DAV:   2    -0.821518739624E+03   -0.18950E-04   -0.20197E-04 41920   0.225E-02    0.703E-03
DAV:   3    -0.821518741528E+03   -0.19041E-05   -0.16837E-05 49440   0.603E-03    0.703E-03
DAV:   4    -0.821518740538E+03    0.99003E-06   -0.27846E-06 30376   0.386E-03
  30 F= -.82151874E+03 E0= -.82157662E+03  d E =-.197871E-03
       N       E                     dE             d eps       ncg     rms          rms(c)
DAV:   1    -0.821518908462E+03   -0.16693E-03   -0.83004E-03 36728   0.147E-01    0.112E-02
DAV:   2    -0.821518926889E+03   -0.18428E-04   -0.19329E-04 42312   0.220E-02    0.884E-03
DAV:   3    -0.821518928225E+03   -0.13356E-05   -0.16936E-05 48424   0.708E-03    0.847E-03
DAV:   4    -0.821518927037E+03    0.11873E-05   -0.33157E-06 31008   0.419E-03    0.537E-03
DAV:   5    -0.821518927072E+03   -0.34634E-07   -0.12783E-06 26392   0.261E-03
  31 F= -.82151893E+03 E0= -.82157681E+03  d E =-.186534E-03
       N       E                     dE             d eps       ncg     rms          rms(c)
DAV:   1    -0.821519088177E+03   -0.16114E-03   -0.78844E-03 36584   0.143E-01    0.974E-03
DAV:   2    -0.821519105468E+03   -0.17291E-04   -0.18356E-04 42024   0.214E-02    0.684E-03
DAV:   3    -0.821519107244E+03   -0.17760E-05   -0.15736E-05 48592   0.616E-03    0.695E-03
DAV:   4    -0.821519106202E+03    0.10418E-05   -0.27787E-06 30240   0.389E-03    0.457E-03
DAV:   5    -0.821519106193E+03    0.89785E-08   -0.78295E-07 24592   0.208E-03
  32 F= -.82151911E+03 E0= -.82157698E+03  d E =-.179121E-03
       N       E                     dE             d eps       ncg     rms          rms(c)
DAV:   1    -0.821519257060E+03   -0.15086E-03   -0.73135E-03 36560   0.138E-01    0.942E-03
DAV:   2    -0.821519272984E+03   -0.15923E-04   -0.17095E-04 42120   0.205E-02    0.636E-03
DAV:   3    -0.821519274318E+03   -0.13342E-05   -0.13239E-05 45304   0.487E-03    0.580E-03
DAV:   4    -0.821519273833E+03    0.48478E-06   -0.17526E-06 27688   0.314E-03
  33 F= -.82151927E+03 E0= -.82157715E+03  d E =-.167640E-03
       N       E                     dE             d eps       ncg     rms          rms(c)
DAV:   1    -0.821519416424E+03   -0.14211E-03   -0.69213E-03 36664   0.134E-01    0.102E-02
DAV:   2    -0.821519431854E+03   -0.15430E-04   -0.16236E-04 42344   0.200E-02    0.808E-03
DAV:   3    -0.821519432905E+03   -0.10509E-05   -0.13447E-05 42008   0.636E-03    0.764E-03
DAV:   4    -0.821519431970E+03    0.93470E-06   -0.29089E-06 29744   0.400E-03
  34 F= -.82151943E+03 E0= -.82157731E+03  d E =-.158137E-03
       N       E                     dE             d eps       ncg     rms          rms(c)
DAV:   1    -0.821519563491E+03   -0.13059E-03   -0.68668E-03 36584   0.133E-01    0.977E-03
DAV:   2    -0.821519578868E+03   -0.15377E-04   -0.16163E-04 42296   0.203E-02    0.761E-03
DAV:   3    -0.821519579954E+03   -0.10863E-05   -0.15217E-05 46592   0.670E-03    0.724E-03
DAV:   4    -0.821519579061E+03    0.89368E-06   -0.31004E-06 30784   0.409E-03
  35 F= -.82151958E+03 E0= -.82157746E+03  d E =-.147090E-03
       N       E                     dE             d eps       ncg     rms          rms(c)
DAV:   1    -0.821519706541E+03   -0.12659E-03   -0.63202E-03 36744   0.128E-01    0.101E-02
DAV:   2    -0.821519720623E+03   -0.14082E-04   -0.14972E-04 42456   0.193E-02    0.812E-03
DAV:   3    -0.821519721614E+03   -0.99120E-06   -0.12619E-05 40568   0.630E-03    0.767E-03
DAV:   4    -0.821519720688E+03    0.92683E-06   -0.29871E-06 29640   0.412E-03
  36 F= -.82151972E+03 E0= -.82157760E+03  d E =-.141627E-03
       N       E                     dE             d eps       ncg     rms          rms(c)
DAV:   1    -0.821519842988E+03   -0.12137E-03   -0.60634E-03 36656   0.126E-01    0.922E-03
DAV:   2    -0.821519856495E+03   -0.13507E-04   -0.14414E-04 42384   0.189E-02    0.720E-03
DAV:   3    -0.821519857555E+03   -0.10600E-05   -0.12344E-05 42120   0.573E-03    0.680E-03
DAV:   4    -0.821519856835E+03    0.71977E-06   -0.25684E-06 29048   0.381E-03
  37 F= -.82151986E+03 E0= -.82157774E+03  d E =-.136148E-03
