TO image 03
1.0
      6.46831269532822    -11.20344622755126      0.00000000000000
      6.46831269532822     11.20344622755126      0.00000000000000
      0.00000000000000      0.00000000000000     15.49806442517753
  Zr  H
  96  1
Direct
      0.08319769743925      0.16637081622362      0.08305965037937
      0.16659148978034      0.08337245080915      0.24997579364089
      0.08325982388009      0.16707401313754      0.41615855941123
      0.16684458578346      0.08334968282569      0.58380990602596
      0.08290245829022      0.16607807227900      0.75034532111918
      0.16654860009313      0.08321126481281      0.91695059724461
      0.08319770254846      0.41682688239549      0.08305964686930
      0.16606215464676      0.33303108138965      0.24930532946544
      0.08325982037801      0.41618581468950      0.41615855524230
      0.16448696219126      0.33224348187662      0.58455935506555
      0.08290245555021      0.41682438780190      0.75034532990511
      0.16674263069587      0.33337131797872      0.91671654667076
      0.08339664181616      0.66681932227744      0.08347907504844
      0.16659149427829      0.58321904286636      0.24997579673109
      0.08321307317507      0.66636191469582      0.41681973831029
      0.16684458163362      0.58349490226961      0.58380990673848
      0.08350301459776      0.66694396652683      0.75026515750468
      0.16654860501964      0.58333733351919      0.91695059554589
      0.08339663820866      0.91657732086768      0.08347907319633
      0.16665246561428      0.83332622951425      0.25031802517356
      0.08321308216234      0.91685116260381      0.41681974060619
      0.16667525474115      0.83333762800530      0.58333706690594
      0.08350301338985      0.91655904134082      0.75026515745421
      0.16665069718784      0.83332534814592      0.91679042679411
      0.33333686924356      0.16670309077097      0.08337671672946
      0.41676825000885      0.08305494907096      0.24972437694204
      0.33337511509342      0.16605066419625      0.41623872251298
      0.41656724339992      0.08313925152067      0.58359531233345
      0.33325318133081      0.16636020627270      0.75048424650737
      0.41677080544256      0.08318697262743      0.91690339421873
      0.33351497592256      0.41675748544576      0.08319426558721
      0.41694325563391      0.33314643856387      0.24982610154514
      0.33155051583454      0.41577526020204      0.41473292527979
      0.41645961590470      0.33078578711325      0.58413340261926
      0.33350708302038      0.41675354050556      0.75082529409659
      0.41679613089729      0.33347881036018      0.91684266554485
      0.33333686762800      0.66663378232388      0.08337671666203
      0.41694325370671      0.58379681812325      0.24982610461955
      0.33337511492808      0.66732444391442      0.41623872132379
      0.41645960730960      0.58567382677644      0.58413339889574
      0.33325317543995      0.66689297094328      0.75048424889327
      0.41679613306279      0.58331731945861      0.91684266775456
      0.33306374002653      0.91653187039994      0.08324622856003
      0.41676825509256      0.83371330392803      0.24972437706854
      0.33367719221827      0.91683859811882      0.41660529022408
      0.41656724105608      0.83342799001315      0.58359530867905
      0.33313474067127      0.91656736985073      0.75023981396697
      0.41677080402710      0.83358382953427      0.91690339443213
      0.58330685043468      0.16654870412414      0.08308161494057
      0.66698028662224      0.08349014251384      0.24974469647030
      0.58357453214108      0.16678659236561      0.41622424419786
      0.66640782311705      0.08320391273525      0.58320784654670
      0.58324985174082      0.16649079681069      0.74992428088157
      0.66679806434392      0.08339902616114      0.91650962665435
      0.58334636212227      0.41684797400037      0.08327608130347
      0.66677068473884      0.33331464031553      0.24956274440040
      0.58415908026170      0.41535232242242      0.41659577786158
      0.66730291776167      0.33296992673722      0.58354381938627
      0.58356353209497      0.41677147323515      0.75000219018670
      0.66663931585321      0.33336443258285      0.91661528062881
      0.58334636000404      0.66649839286475      0.08327607539142
      0.66621914481337      0.58310956821212      0.25027694709580
      0.58415907976835      0.66880675675525      0.41659578152469
      0.66860889189110      0.58430444677614      0.58333481627546
      0.58356353206107      0.66679205695416      0.75000218947861
      0.66648575684343      0.58324287438428      0.91670194281807
      0.58330684819637      0.91675814208741      0.08308161281513
      0.66677068045030      0.83345604415498      0.24956274522655
      0.58357453311449      0.91678793814803      0.41622423723413
      0.66730291497378      0.83433298600801      0.58354381839834
      0.58324985271634      0.91675905817860      0.74992428825710
      0.66663931253705      0.83327488934402      0.91661527725320
      0.83333932933592      0.16666966677415      0.08321543626279
      0.91645138810646      0.08334059360757      0.24966735101962
      0.83319076193152      0.16659538230720      0.41658369663456
      0.91646401427751      0.08288449771165      0.58317823612341
      0.83338783039894      0.16669391193936      0.74956488072115
      0.91650002367303      0.08335809415645      0.91667167672662
      0.83349464825322      0.41678983618886      0.08298797131651
      0.91645138267853      0.33311078776369      0.24966734997747
      0.83301653168993      0.41644248785010      0.41617617468273
      0.91646401246302      0.33357952027843      0.58317823884943
      0.83352899399857      0.41669180276766      0.75019313014971
      0.91650003169259      0.33314193091005      0.91667167608538
      0.83319376158000      0.66659688019082      0.08345406312989
      0.91680022845750      0.58324811020346      0.24986066556484
      0.83397461877866      0.66698730895673      0.41637372370645
      0.91653016197748      0.58348734376261      0.58364790270787
      0.83336292566251      0.66668146452770      0.75036948034238
      0.91675973587995      0.58331039092549      0.91687510792683
      0.83349465128392      0.91670481446273      0.08298796726867
      0.91680023163199      0.83355212182920      0.24986066602821
      0.83301652170011      0.91657403977046      0.41617617123758
      0.91653015631059      0.83304281305425      0.58364790029049
      0.83352898700108      0.91683718744096      0.75019313291397
      0.91675974297756      0.83344934909261      0.91687510673585
      0.43329234298945      0.46664617343533      0.51731297899165
