TO image 03                             
   1.00000000000000     
     6.4683126953282200  -11.2034462275512592    0.0000000000000000
     6.4683126953282200   11.2034462275512592    0.0000000000000000
     0.0000000000000000    0.0000000000000000   15.4980644251775299
   Zr   H 
    96     1
Direct
  0.0830705918062086  0.1662020280096748  0.0830090208276145
  0.1667008931658565  0.0834810363143041  0.2501169609915318
  0.0831166382063171  0.1671984610868434  0.4160300492108411
  0.1669730207626684  0.0834058162671832  0.5840094397787031
  0.0826319668222395  0.1657989134877819  0.7505410482810368
  0.1665049249521567  0.0831839302000909  0.9170365067844739
  0.0830705950119048  0.4168685679633068  0.0830090214054261
  0.1653801989300825  0.3326900998722241  0.2484312308372606
  0.0831166347465513  0.4159181740408816  0.4160300510685245
  0.1633021116783927  0.3316510538916967  0.5856030465630171
  0.0826319712501426  0.4168330533865593  0.7505410474904969
  0.1667048928514095  0.3333524476721875  0.9168388477689817
  0.0833355695599532  0.6667419855472225  0.0834849160597169
  0.1667008925270905  0.5832198595756668  0.2501169619285346
  0.0832156685757801  0.6662759642183196  0.4167188866836422
  0.1669730110418852  0.5835672081402568  0.5840094380499319
  0.0833540991018022  0.6669252108033540  0.7502830191028507
  0.1665049236384404  0.5833209974643744  0.9170365073685334
  0.0833355707833641  0.9165935885131405  0.0834849177192302
  0.1665903549241367  0.8332951799398274  0.2503430123600141
  0.0832156714053966  0.9169397100641593  0.4167188886262485
  0.1667288550021020  0.8333644282899663  0.5832901115668354
  0.0833540977344313  0.9164288872207742  0.7502830172427546
  0.1666308609688153  0.8333154322714125  0.9167489578153951
  0.3333805171547037  0.1667965359266635  0.0834367241206299
  0.4167618819589347  0.0831253969017386  0.2497415105291700
  0.3331583125753141  0.1661090544430381  0.4164087024844245
  0.4163814422335909  0.0824921514492218  0.5836185165511940
  0.3328879367256152  0.1656416413860255  0.7510415599493558
  0.4168152435770565  0.0831740970612827  0.9170107361256875
  0.3336911923098568  0.4168455968447010  0.0831970255487799
  0.4169341875433243  0.3331415873244029  0.2499795560302765
  0.3272990274080245  0.4136495108061011  0.4137862773080119
  0.4154766091326872  0.3297499236779894  0.5856746953398633
  0.3327123702826073  0.4163561809704694  0.7504989268504226
  0.4168676132829459  0.3335542226554479  0.9168430866299556
  0.3333805162481660  0.6665839852658013  0.0834367256480140
  0.4169341850013720  0.5837926013205103  0.2499795537418166
  0.3331583085574840  0.6670492619431674  0.4164087003677826
  0.4154765723242230  0.5857266773815741  0.5856746758827631
  0.3328879341423905  0.6672462874874932  0.7510415583631739
  0.4168676123242903  0.5833133918352666  0.9168430850459740
  0.3329712213670150  0.9164856129101665  0.0832810218960597
  0.4167618797357685  0.8336364864342337  0.2497415115051058
  0.3337362861504139  0.9168681446612912  0.4165275922831951
  0.4163814455942222  0.8338892967198291  0.5836185177261390
  0.3330145853100188  0.9165072917425622  0.7503478818392200
  0.4168152430129643  0.8336411524930268  0.9170107382355075
  0.5832834080634173  0.1665389795689873  0.0830715385230562
  0.6668391028824117  0.0834195523997939  0.2497467175027143
  0.5838244327212186  0.1671583227615845  0.4162086004835745
  0.6666037322433908  0.0833018672941038  0.5832164484755935
  0.5830088952848758  0.1665003740783729  0.7498184749937051
  0.6666840598145108  0.0833420266387351  0.9164663105266363
  0.5832448039093192  0.4168855669279738  0.0832649799139810
  0.6670541509795751  0.3334602363712575  0.2496303098997801
  0.5851796214911232  0.4149938151987334  0.4158768684304651
  0.6668842100321880  0.3328024980818467  0.5834431308222857
  0.5832327037109647  0.4166184002645518  0.7499886465339684
  0.6665857807425806  0.3333890953017355  0.9165305074528102
  0.5832448066055123  0.6663592430367680  0.0832649739446522
  0.6661789828978961  0.5830894917045897  0.2502651186266600
  0.5851796210802519  0.6701858078128609  0.4158768609794246
  0.6717648095627378  0.5858823978637016  0.5837963072973386
  0.5832326432213019  0.6666142258627589  0.7499886079986300
  0.6665112533077892  0.5832556333235692  0.9166848465576095
  0.5832834110258874  0.9167444275968542  0.0830715368718933
  0.6670541517216954  0.8335939165199403  0.2496303071370377
  0.5838244333596668  0.9166661112152776  0.4162086007602486
  0.6668842058719653  0.8340817081079684  0.5834431310145762
  0.5830088876183720  0.9165085084841922  0.7498184725866119
  0.6665857667872899  0.8331966633061867  0.9165304866741364
  0.8332714706034055  0.1666357372040187  0.0832930790192735
  0.9164864784141441  0.0832579307574687  0.2496194155623709
  0.8331715914402762  0.1665857969856708  0.4165232582154147
  0.9165801227510335  0.0828906214484548  0.5831907397651945
  0.8332142779647527  0.1666071366268003  0.7495828017881285
  0.9163249990048076  0.0833639272113712  0.9167083687965653
  0.8334356862554252  0.4167602427551053  0.0829728278475101
  0.9164864788354645  0.3332285493975275  0.2496194158501885
  0.8330623586609526  0.4163444450435357  0.4163039536550869
  0.9165801223276047  0.3336895023243526  0.5831907394120357
  0.8331678898813775  0.4165075072944052  0.7501354221834571
  0.9163250053044182  0.3329610737462317  0.9167083712858947
  0.8332244469511447  0.6666122248163721  0.0834545208132869
  0.9166824881020686  0.5832349046632271  0.2498558513817725
  0.8337722506028125  0.6668861254583236  0.4164056377390191
  0.9166886263109979  0.5836808897204098  0.5835277213106986
  0.8335226916307162  0.6667613529162228  0.7503459342333583
  0.9168670982443388  0.5832675342052397  0.9168205096773111
  0.8334356803395812  0.9166754446813375  0.0829728255492479
  0.9166824895517702  0.8334475873893370  0.2498558524843821
  0.8330623531906589  0.9167179135637078  0.4163039536709907
  0.9166886228387048  0.8330077388367805  0.5835277207738924
  0.8331678792048168  0.9166603635061140  0.7501354208386792
  0.9168671063184334  0.8335995719280264  0.9168205148053461
  0.4327399152702481  0.4663699560823855  0.5162740377153748
 
  0.00000000E+00  0.00000000E+00  0.00000000E+00
  0.00000000E+00  0.00000000E+00  0.00000000E+00
  0.00000000E+00  0.00000000E+00  0.00000000E+00
  0.00000000E+00  0.00000000E+00  0.00000000E+00
  0.00000000E+00  0.00000000E+00  0.00000000E+00
  0.00000000E+00  0.00000000E+00  0.00000000E+00
  0.00000000E+00  0.00000000E+00  0.00000000E+00
  0.00000000E+00  0.00000000E+00  0.00000000E+00
  0.00000000E+00  0.00000000E+00  0.00000000E+00
  0.00000000E+00  0.00000000E+00  0.00000000E+00
  0.00000000E+00  0.00000000E+00  0.00000000E+00
  0.00000000E+00  0.00000000E+00  0.00000000E+00
  0.00000000E+00  0.00000000E+00  0.00000000E+00
  0.00000000E+00  0.00000000E+00  0.00000000E+00
  0.00000000E+00  0.00000000E+00  0.00000000E+00
  0.00000000E+00  0.00000000E+00  0.00000000E+00
  0.00000000E+00  0.00000000E+00  0.00000000E+00
  0.00000000E+00  0.00000000E+00  0.00000000E+00
  0.00000000E+00  0.00000000E+00  0.00000000E+00
  0.00000000E+00  0.00000000E+00  0.00000000E+00
  0.00000000E+00  0.00000000E+00  0.00000000E+00
  0.00000000E+00  0.00000000E+00  0.00000000E+00
  0.00000000E+00  0.00000000E+00  0.00000000E+00
  0.00000000E+00  0.00000000E+00  0.00000000E+00
  0.00000000E+00  0.00000000E+00  0.00000000E+00
  0.00000000E+00  0.00000000E+00  0.00000000E+00
  0.00000000E+00  0.00000000E+00  0.00000000E+00
  0.00000000E+00  0.00000000E+00  0.00000000E+00
  0.00000000E+00  0.00000000E+00  0.00000000E+00
  0.00000000E+00  0.00000000E+00  0.00000000E+00
  0.00000000E+00  0.00000000E+00  0.00000000E+00
  0.00000000E+00  0.00000000E+00  0.00000000E+00
  0.00000000E+00  0.00000000E+00  0.00000000E+00
  0.00000000E+00  0.00000000E+00  0.00000000E+00
  0.00000000E+00  0.00000000E+00  0.00000000E+00
  0.00000000E+00  0.00000000E+00  0.00000000E+00
  0.00000000E+00  0.00000000E+00  0.00000000E+00
  0.00000000E+00  0.00000000E+00  0.00000000E+00
  0.00000000E+00  0.00000000E+00  0.00000000E+00
  0.00000000E+00  0.00000000E+00  0.00000000E+00
  0.00000000E+00  0.00000000E+00  0.00000000E+00
  0.00000000E+00  0.00000000E+00  0.00000000E+00
  0.00000000E+00  0.00000000E+00  0.00000000E+00
  0.00000000E+00  0.00000000E+00  0.00000000E+00
  0.00000000E+00  0.00000000E+00  0.00000000E+00
  0.00000000E+00  0.00000000E+00  0.00000000E+00
  0.00000000E+00  0.00000000E+00  0.00000000E+00
  0.00000000E+00  0.00000000E+00  0.00000000E+00
  0.00000000E+00  0.00000000E+00  0.00000000E+00
  0.00000000E+00  0.00000000E+00  0.00000000E+00
  0.00000000E+00  0.00000000E+00  0.00000000E+00
  0.00000000E+00  0.00000000E+00  0.00000000E+00
  0.00000000E+00  0.00000000E+00  0.00000000E+00
  0.00000000E+00  0.00000000E+00  0.00000000E+00
  0.00000000E+00  0.00000000E+00  0.00000000E+00
  0.00000000E+00  0.00000000E+00  0.00000000E+00
  0.00000000E+00  0.00000000E+00  0.00000000E+00
  0.00000000E+00  0.00000000E+00  0.00000000E+00
  0.00000000E+00  0.00000000E+00  0.00000000E+00
  0.00000000E+00  0.00000000E+00  0.00000000E+00
  0.00000000E+00  0.00000000E+00  0.00000000E+00
  0.00000000E+00  0.00000000E+00  0.00000000E+00
  0.00000000E+00  0.00000000E+00  0.00000000E+00
  0.00000000E+00  0.00000000E+00  0.00000000E+00
  0.00000000E+00  0.00000000E+00  0.00000000E+00
  0.00000000E+00  0.00000000E+00  0.00000000E+00
  0.00000000E+00  0.00000000E+00  0.00000000E+00
  0.00000000E+00  0.00000000E+00  0.00000000E+00
  0.00000000E+00  0.00000000E+00  0.00000000E+00
  0.00000000E+00  0.00000000E+00  0.00000000E+00
  0.00000000E+00  0.00000000E+00  0.00000000E+00
  0.00000000E+00  0.00000000E+00  0.00000000E+00
  0.00000000E+00  0.00000000E+00  0.00000000E+00
  0.00000000E+00  0.00000000E+00  0.00000000E+00
  0.00000000E+00  0.00000000E+00  0.00000000E+00
  0.00000000E+00  0.00000000E+00  0.00000000E+00
  0.00000000E+00  0.00000000E+00  0.00000000E+00
  0.00000000E+00  0.00000000E+00  0.00000000E+00
  0.00000000E+00  0.00000000E+00  0.00000000E+00
  0.00000000E+00  0.00000000E+00  0.00000000E+00
  0.00000000E+00  0.00000000E+00  0.00000000E+00
  0.00000000E+00  0.00000000E+00  0.00000000E+00
  0.00000000E+00  0.00000000E+00  0.00000000E+00
  0.00000000E+00  0.00000000E+00  0.00000000E+00
  0.00000000E+00  0.00000000E+00  0.00000000E+00
  0.00000000E+00  0.00000000E+00  0.00000000E+00
  0.00000000E+00  0.00000000E+00  0.00000000E+00
  0.00000000E+00  0.00000000E+00  0.00000000E+00
  0.00000000E+00  0.00000000E+00  0.00000000E+00
  0.00000000E+00  0.00000000E+00  0.00000000E+00
  0.00000000E+00  0.00000000E+00  0.00000000E+00
  0.00000000E+00  0.00000000E+00  0.00000000E+00
  0.00000000E+00  0.00000000E+00  0.00000000E+00
  0.00000000E+00  0.00000000E+00  0.00000000E+00
  0.00000000E+00  0.00000000E+00  0.00000000E+00
  0.00000000E+00  0.00000000E+00  0.00000000E+00
  0.00000000E+00  0.00000000E+00  0.00000000E+00
