  97  97   0   0
  0.2315679E+02  0.1293663E-08  0.1293663E-08  0.1549806E-08  0.1000000E-15
  1.000000000000000E-004
  CAR 
 Zr96H TO pre-NEB, four intermediate imag
     12.88940305    -42.43886644  301      8.95448597      1.00000000
    -42.439  0.0000E+00  0.0000E+00
    -42.254  0.0000E+00  0.0000E+00
    -42.070  0.0000E+00  0.0000E+00
    -41.886  0.0000E+00  0.0000E+00
    -41.701 -0.4035E-35 -0.7442E-36
    -41.517 -0.2292E-28 -0.4227E-29
    -41.332 -0.2215E-22 -0.4085E-23
    -41.148 -0.3955E-17 -0.7294E-18
    -40.963 -0.1275E-12 -0.2352E-13
    -40.779 -0.8038E-09 -0.1483E-09
    -40.595 -0.9967E-06 -0.1840E-06
    -40.410 -0.2529E-03 -0.4682E-04
    -40.226 -0.1289E-01 -0.2424E-02
    -40.041 -0.7959E-01 -0.1710E-01
    -39.857  0.7078E+00  0.1134E+00
    -39.672  0.2274E+01  0.5329E+00
    -39.488  0.6847E+00  0.6592E+00
    -39.304 -0.9292E-01  0.6421E+00
    -39.119 -0.1100E-01  0.6400E+00
    -38.935 -0.1346E-03  0.6400E+00
    -38.750 -0.2662E-06  0.6400E+00
    -38.566 -0.9184E-10  0.6400E+00
    -38.381 -0.5706E-14  0.6400E+00
    -38.197  0.0000E+00  0.6400E+00
    -38.013  0.0000E+00  0.6400E+00
    -37.828  0.0000E+00  0.6400E+00
    -37.644  0.0000E+00  0.6400E+00
    -37.459  0.0000E+00  0.6400E+00
    -37.275  0.0000E+00  0.6400E+00
    -37.090  0.0000E+00  0.6400E+00
    -36.906  0.0000E+00  0.6400E+00
    -36.722  0.0000E+00  0.6400E+00
    -36.537  0.0000E+00  0.6400E+00
    -36.353  0.0000E+00  0.6400E+00
    -36.168  0.0000E+00  0.6400E+00
    -35.984  0.0000E+00  0.6400E+00
    -35.799  0.0000E+00  0.6400E+00
    -35.615  0.0000E+00  0.6400E+00
    -35.431  0.0000E+00  0.6400E+00
    -35.246  0.0000E+00  0.6400E+00
    -35.062  0.0000E+00  0.6400E+00
    -34.877  0.0000E+00  0.6400E+00
    -34.693  0.0000E+00  0.6400E+00
    -34.508  0.0000E+00  0.6400E+00
    -34.324  0.0000E+00  0.6400E+00
    -34.140  0.0000E+00  0.6400E+00
    -33.955  0.0000E+00  0.6400E+00
    -33.771  0.0000E+00  0.6400E+00
    -33.586  0.0000E+00  0.6400E+00
    -33.402  0.0000E+00  0.6400E+00
    -33.217  0.0000E+00  0.6400E+00
    -33.033  0.0000E+00  0.6400E+00
    -32.849  0.0000E+00  0.6400E+00
    -32.664  0.0000E+00  0.6400E+00
    -32.480  0.0000E+00  0.6400E+00
    -32.295  0.0000E+00  0.6400E+00
    -32.111  0.0000E+00  0.6400E+00
    -31.926  0.0000E+00  0.6400E+00
    -31.742  0.0000E+00  0.6400E+00
    -31.558  0.0000E+00  0.6400E+00
    -31.373  0.0000E+00  0.6400E+00
    -31.189  0.0000E+00  0.6400E+00
    -31.004  0.0000E+00  0.6400E+00
    -30.820  0.0000E+00  0.6400E+00
    -30.636  0.0000E+00  0.6400E+00
    -30.451  0.0000E+00  0.6400E+00
    -30.267  0.0000E+00  0.6400E+00
    -30.082  0.0000E+00  0.6400E+00
    -29.898  0.0000E+00  0.6400E+00
    -29.713  0.0000E+00  0.6400E+00
    -29.529  0.0000E+00  0.6400E+00
    -29.345  0.0000E+00  0.6400E+00
    -29.160  0.0000E+00  0.6400E+00
    -28.976  0.0000E+00  0.6400E+00
    -28.791  0.0000E+00  0.6400E+00
    -28.607  0.0000E+00  0.6400E+00
    -28.422  0.0000E+00  0.6400E+00
    -28.238  0.0000E+00  0.6400E+00
    -28.054  0.0000E+00  0.6400E+00
    -27.869  0.0000E+00  0.6400E+00
    -27.685  0.0000E+00  0.6400E+00
    -27.500  0.0000E+00  0.6400E+00
    -27.316  0.0000E+00  0.6400E+00
    -27.131  0.0000E+00  0.6400E+00
    -26.947  0.0000E+00  0.6400E+00
    -26.763  0.0000E+00  0.6400E+00
    -26.578  0.0000E+00  0.6400E+00
    -26.394  0.0000E+00  0.6400E+00
    -26.209  0.0000E+00  0.6400E+00
    -26.025  0.0000E+00  0.6400E+00
    -25.840  0.0000E+00  0.6400E+00
    -25.656  0.0000E+00  0.6400E+00
    -25.472  0.0000E+00  0.6400E+00
    -25.287  0.0000E+00  0.6400E+00
    -25.103  0.0000E+00  0.6400E+00
    -24.918  0.0000E+00  0.6400E+00
    -24.734  0.0000E+00  0.6400E+00
    -24.549  0.0000E+00  0.6400E+00
    -24.365  0.0000E+00  0.6400E+00
    -24.181  0.0000E+00  0.6400E+00
    -23.996  0.0000E+00  0.6400E+00
    -23.812  0.0000E+00  0.6400E+00
    -23.627  0.0000E+00  0.6400E+00
    -23.443  0.0000E+00  0.6400E+00
    -23.258  0.0000E+00  0.6400E+00
    -23.074  0.0000E+00  0.6400E+00
    -22.890  0.0000E+00  0.6400E+00
    -22.705  0.0000E+00  0.6400E+00
    -22.521  0.0000E+00  0.6400E+00
    -22.336  0.0000E+00  0.6400E+00
    -22.152  0.0000E+00  0.6400E+00
    -21.967  0.0000E+00  0.6400E+00
    -21.783  0.0000E+00  0.6400E+00
    -21.599  0.0000E+00  0.6400E+00
    -21.414  0.0000E+00  0.6400E+00
    -21.230  0.0000E+00  0.6400E+00
    -21.045  0.0000E+00  0.6400E+00
    -20.861  0.0000E+00  0.6400E+00
    -20.676  0.0000E+00  0.6400E+00
    -20.492  0.0000E+00  0.6400E+00
    -20.308  0.0000E+00  0.6400E+00
    -20.123 -0.2263E-33  0.6400E+00
    -19.939 -0.6922E-27  0.6400E+00
    -19.754 -0.3906E-21  0.6400E+00
    -19.570 -0.4063E-16  0.6400E+00
    -19.385 -0.8046E-12  0.6400E+00
    -19.201 -0.3138E-08  0.6400E+00
    -19.017 -0.2473E-05  0.6400E+00
    -18.832 -0.4064E-03  0.6399E+00
    -18.648 -0.1328E-01  0.6375E+00
    -18.463 -0.3774E-01  0.6305E+00
    -18.279  0.5709E+00  0.7358E+00
    -18.094  0.1631E+01  0.1037E+01
    -17.910  0.1482E+01  0.1310E+01
    -17.726  0.2118E+01  0.1701E+01
    -17.541  0.3187E+01  0.2288E+01
    -17.357  0.1527E+01  0.2570E+01
    -17.172 -0.1265E-01  0.2568E+01
    -16.988 -0.3977E-01  0.2560E+01
    -16.803 -0.1596E-02  0.2560E+01
    -16.619 -0.1092E-04  0.2560E+01
    -16.435 -0.1391E-07  0.2560E+01
    -16.250 -0.3317E-11  0.2560E+01
    -16.066 -0.1359E-15  0.2560E+01
    -15.881  0.0000E+00  0.2560E+01
    -15.697  0.0000E+00  0.2560E+01
    -15.512  0.0000E+00  0.2560E+01
    -15.328  0.0000E+00  0.2560E+01
    -15.144  0.0000E+00  0.2560E+01
    -14.959  0.0000E+00  0.2560E+01
    -14.775  0.0000E+00  0.2560E+01
    -14.590  0.0000E+00  0.2560E+01
    -14.406  0.0000E+00  0.2560E+01
    -14.221  0.0000E+00  0.2560E+01
    -14.037  0.0000E+00  0.2560E+01
    -13.853  0.0000E+00  0.2560E+01
    -13.668  0.0000E+00  0.2560E+01
    -13.484  0.0000E+00  0.2560E+01
    -13.299  0.0000E+00  0.2560E+01
    -13.115  0.0000E+00  0.2560E+01
    -12.930  0.0000E+00  0.2560E+01
    -12.746  0.0000E+00  0.2560E+01
    -12.562  0.0000E+00  0.2560E+01
    -12.377  0.0000E+00  0.2560E+01
    -12.193  0.0000E+00  0.2560E+01
    -12.008  0.0000E+00  0.2560E+01
    -11.824  0.0000E+00  0.2560E+01
    -11.639  0.0000E+00  0.2560E+01
    -11.455  0.0000E+00  0.2560E+01
    -11.271  0.0000E+00  0.2560E+01
    -11.086  0.0000E+00  0.2560E+01
    -10.902  0.0000E+00  0.2560E+01
    -10.717  0.0000E+00  0.2560E+01
    -10.533  0.0000E+00  0.2560E+01
    -10.348  0.0000E+00  0.2560E+01
    -10.164  0.0000E+00  0.2560E+01
     -9.980  0.0000E+00  0.2560E+01
     -9.795  0.0000E+00  0.2560E+01
     -9.611  0.0000E+00  0.2560E+01
     -9.426  0.0000E+00  0.2560E+01
     -9.242  0.0000E+00  0.2560E+01
     -9.057  0.0000E+00  0.2560E+01
     -8.873  0.0000E+00  0.2560E+01
     -8.689  0.0000E+00  0.2560E+01
     -8.504  0.0000E+00  0.2560E+01
     -8.320  0.0000E+00  0.2560E+01
     -8.135  0.0000E+00  0.2560E+01
     -7.951  0.0000E+00  0.2560E+01
     -7.766  0.0000E+00  0.2560E+01
     -7.582  0.0000E+00  0.2560E+01
     -7.398  0.0000E+00  0.2560E+01
     -7.213  0.0000E+00  0.2560E+01
     -7.029  0.0000E+00  0.2560E+01
     -6.844  0.0000E+00  0.2560E+01
     -6.660  0.0000E+00  0.2560E+01
     -6.475  0.0000E+00  0.2560E+01
     -6.291  0.0000E+00  0.2560E+01
     -6.107  0.0000E+00  0.2560E+01
     -5.922  0.0000E+00  0.2560E+01
     -5.738  0.0000E+00  0.2560E+01
     -5.553  0.0000E+00  0.2560E+01
     -5.369  0.0000E+00  0.2560E+01
     -5.184  0.0000E+00  0.2560E+01
     -5.000  0.0000E+00  0.2560E+01
     -4.816  0.0000E+00  0.2560E+01
     -4.631  0.0000E+00  0.2560E+01
     -4.447  0.0000E+00  0.2560E+01
     -4.262  0.0000E+00  0.2560E+01
     -4.078  0.0000E+00  0.2560E+01
     -3.894  0.0000E+00  0.2560E+01
     -3.709  0.0000E+00  0.2560E+01
     -3.525  0.0000E+00  0.2560E+01
     -3.340  0.0000E+00  0.2560E+01
     -3.156  0.0000E+00  0.2560E+01
     -2.971  0.0000E+00  0.2560E+01
     -2.787  0.0000E+00  0.2560E+01
     -2.603  0.0000E+00  0.2560E+01
     -2.418  0.0000E+00  0.2560E+01
     -2.234  0.0000E+00  0.2560E+01
     -2.049  0.0000E+00  0.2560E+01
     -1.865  0.0000E+00  0.2560E+01
     -1.680  0.0000E+00  0.2560E+01
     -1.496  0.0000E+00  0.2560E+01
     -1.312  0.0000E+00  0.2560E+01
     -1.127  0.0000E+00  0.2560E+01
     -0.943  0.0000E+00  0.2560E+01
     -0.758  0.0000E+00  0.2560E+01
     -0.574  0.0000E+00  0.2560E+01
     -0.389  0.0000E+00  0.2560E+01
     -0.205  0.0000E+00  0.2560E+01
     -0.021  0.0000E+00  0.2560E+01
      0.164  0.0000E+00  0.2560E+01
      0.348  0.0000E+00  0.2560E+01
      0.533  0.0000E+00  0.2560E+01
      0.717  0.0000E+00  0.2560E+01
      0.902 -0.1568E-31  0.2560E+01
      1.086 -0.3215E-25  0.2560E+01
      1.270 -0.1190E-19  0.2560E+01
      1.455 -0.7669E-15  0.2560E+01
      1.639 -0.8981E-11  0.2560E+01
      1.824 -0.1833E-07  0.2560E+01
      2.008 -0.6266E-05  0.2560E+01
      2.193 -0.3163E-03  0.2560E+01
      2.377 -0.7215E-03  0.2560E+01
      2.561  0.1541E-01  0.2563E+01
      2.746  0.2140E-01  0.2567E+01
      2.930  0.1008E-02  0.2567E+01
      3.115 -0.7421E-03  0.2567E+01
      3.299 -0.2798E-03  0.2567E+01
      3.484  0.4862E-02  0.2567E+01
      3.668  0.1415E-01  0.2570E+01
      3.852  0.2192E-01  0.2574E+01
      4.037  0.2414E-01  0.2579E+01
      4.221  0.3230E-01  0.2585E+01
      4.406  0.3327E-01  0.2591E+01
      4.590  0.4191E-01  0.2598E+01
      4.775  0.4819E-01  0.2607E+01
      4.959  0.5325E-01  0.2617E+01
      5.143  0.5441E-01  0.2627E+01
      5.328  0.8123E-01  0.2642E+01
      5.512  0.7460E-01  0.2656E+01
      5.697  0.8918E-01  0.2672E+01
      5.881  0.1694E+00  0.2704E+01
      6.066  0.2571E+00  0.2751E+01
      6.250  0.3143E+00  0.2809E+01
      6.434  0.3378E+00  0.2871E+01
      6.619  0.3647E+00  0.2939E+01
      6.803  0.3997E+00  0.3012E+01
      6.988  0.4705E+00  0.3099E+01
      7.172  0.3818E+00  0.3169E+01
      7.357  0.3406E+00  0.3232E+01
      7.541  0.3087E+00  0.3289E+01
      7.725  0.3895E+00  0.3361E+01
      7.910  0.4342E+00  0.3441E+01
      8.094  0.4742E+00  0.3529E+01
      8.279  0.5446E+00  0.3629E+01
      8.463  0.5286E+00  0.3726E+01
      8.648  0.2620E+00  0.3775E+01
      8.832  0.1916E+00  0.3810E+01
      9.016  0.3018E+00  0.3866E+01
      9.201  0.5411E+00  0.3966E+01
      9.385  0.5888E+00  0.4074E+01
      9.570  0.5193E+00  0.4170E+01
      9.754  0.5488E+00  0.4271E+01
      9.939  0.5848E+00  0.4379E+01
     10.123  0.6382E+00  0.4497E+01
     10.307  0.4932E+00  0.4588E+01
     10.492  0.1194E+00  0.4610E+01
     10.676 -0.1364E-01  0.4607E+01
     10.861 -0.2830E-02  0.4607E+01
     11.045 -0.6427E-04  0.4607E+01
     11.230 -0.2636E-06  0.4607E+01
     11.414 -0.2061E-09  0.4607E+01
     11.598 -0.3079E-13  0.4607E+01
     11.783  0.0000E+00  0.4607E+01
     11.967  0.0000E+00  0.4607E+01
     12.152  0.0000E+00  0.4607E+01
     12.336  0.0000E+00  0.4607E+01
     12.521  0.0000E+00  0.4607E+01
     12.705  0.0000E+00  0.4607E+01
     12.889  0.0000E+00  0.4607E+01
