       N       E                     dE             d eps       ncg     rms          rms(c)
DAV:   1     0.127819868480E+05    0.12782E+05   -0.55793E+05 35948   0.151E+03
DAV:   2     0.512381717350E+03   -0.12270E+05   -0.11964E+05 37780   0.500E+02
DAV:   3    -0.665803528570E+03   -0.11782E+04   -0.11232E+04 56656   0.111E+02
DAV:   4    -0.840067398941E+03   -0.17426E+03   -0.17142E+03 55104   0.349E+01
DAV:   5    -0.856320791708E+03   -0.16253E+02   -0.16159E+02 50280   0.885E+00    0.991E+01
DAV:   6    -0.826834227524E+03    0.29487E+02   -0.52300E+01 41512   0.104E+01    0.383E+01
DAV:   7    -0.821296295254E+03    0.55379E+01   -0.29941E+01 44968   0.691E+00    0.782E+00
DAV:   8    -0.822670354796E+03   -0.13741E+01   -0.49055E+00 54272   0.428E+00    0.768E+00
DAV:   9    -0.821775850894E+03    0.89450E+00   -0.32439E+00 52464   0.344E+00    0.332E+00
DAV:  10    -0.821710281980E+03    0.65569E-01   -0.16064E+00 51776   0.229E+00    0.129E+00
DAV:  11    -0.821656891335E+03    0.53391E-01   -0.37585E-01 45992   0.115E+00    0.661E-01
DAV:  12    -0.821654441140E+03    0.24502E-02   -0.90507E-02 48512   0.464E-01    0.440E-01
DAV:  13    -0.821657773139E+03   -0.33320E-02   -0.28791E-02 48528   0.355E-01    0.394E-01
DAV:  14    -0.821653102237E+03    0.46709E-02   -0.14212E-02 47880   0.257E-01    0.156E-01
DAV:  15    -0.821652930838E+03    0.17140E-03   -0.38188E-03 49936   0.110E-01    0.104E-01
DAV:  16    -0.821652921938E+03    0.88998E-05   -0.10250E-03 50216   0.496E-02    0.715E-02
DAV:  17    -0.821652909727E+03    0.12211E-04   -0.24115E-04 48792   0.253E-02    0.371E-02
DAV:  18    -0.821652906508E+03    0.32197E-05   -0.89611E-05 47872   0.161E-02    0.123E-02
DAV:  19    -0.821652905469E+03    0.10386E-05   -0.27017E-05 41504   0.882E-03    0.799E-03
DAV:  20    -0.821652905017E+03    0.45184E-06   -0.59590E-06 36776   0.454E-03
   1 F= -.82165291E+03 E0= -.82171272E+03  d E =-.821653E+03
       N       E                     dE             d eps       ncg     rms          rms(c)
DAV:   1    -0.821657602703E+03   -0.46972E-02   -0.27707E-01 37688   0.812E-01    0.671E-02
DAV:   2    -0.821658176110E+03   -0.57341E-03   -0.60646E-03 42336   0.120E-01    0.450E-02
DAV:   3    -0.821658226179E+03   -0.50069E-04   -0.44995E-04 55752   0.322E-02    0.401E-02
DAV:   4    -0.821658197635E+03    0.28544E-04   -0.10243E-04 46424   0.242E-02    0.269E-02
DAV:   5    -0.821658197450E+03    0.18453E-06   -0.54165E-05 45416   0.151E-02    0.140E-02
DAV:   6    -0.821658191477E+03    0.59730E-05   -0.22646E-05 45376   0.106E-02    0.429E-03
DAV:   7    -0.821658191606E+03   -0.12919E-06   -0.50624E-06 35600   0.365E-03
   2 F= -.82165819E+03 E0= -.82171797E+03  d E =-.528659E-02
       N       E                     dE             d eps       ncg     rms          rms(c)
DAV:   1    -0.821662083767E+03   -0.38923E-02   -0.22730E-01 37240   0.736E-01    0.600E-02
DAV:   2    -0.821662558718E+03   -0.47495E-03   -0.50155E-03 42448   0.109E-01    0.412E-02
DAV:   3    -0.821662601104E+03   -0.42386E-04   -0.37008E-04 55696   0.303E-02    0.371E-02
DAV:   4    -0.821662575281E+03    0.25824E-04   -0.84505E-05 46104   0.224E-02    0.249E-02
DAV:   5    -0.821662575437E+03   -0.15681E-06   -0.43514E-05 45224   0.135E-02    0.128E-02
DAV:   6    -0.821662570800E+03    0.46371E-05   -0.18758E-05 44008   0.964E-03    0.406E-03
DAV:   7    -0.821662571241E+03   -0.44095E-06   -0.47259E-06 34800   0.425E-03
   3 F= -.82166257E+03 E0= -.82172232E+03  d E =-.437963E-02
       N       E                     dE             d eps       ncg     rms          rms(c)
DAV:   1    -0.821665832996E+03   -0.32622E-02   -0.18837E-01 37000   0.670E-01    0.535E-02
DAV:   2    -0.821666226999E+03   -0.39400E-03   -0.41830E-03 42496   0.989E-02    0.365E-02
DAV:   3    -0.821666252119E+03   -0.25120E-04   -0.29116E-04 56008   0.230E-02    0.293E-02
DAV:   4    -0.821666246114E+03    0.60055E-05   -0.53240E-05 45552   0.173E-02    0.227E-02
DAV:   5    -0.821666243845E+03    0.22684E-05   -0.35119E-05 44288   0.132E-02    0.120E-02
DAV:   6    -0.821666239650E+03    0.41954E-05   -0.14531E-05 41400   0.872E-03    0.347E-03
DAV:   7    -0.821666239740E+03   -0.89829E-07   -0.34098E-06 31648   0.315E-03
   4 F= -.82166624E+03 E0= -.82172596E+03  d E =-.366850E-02
       N       E                     dE             d eps       ncg     rms          rms(c)
DAV:   1    -0.821669042296E+03   -0.28026E-02   -0.16200E-01 36936   0.621E-01    0.490E-02
DAV:   2    -0.821669383050E+03   -0.34075E-03   -0.36078E-03 42488   0.916E-02    0.335E-02
DAV:   3    -0.821669407254E+03   -0.24204E-04   -0.25178E-04 55928   0.221E-02    0.278E-02
DAV:   4    -0.821669398502E+03    0.87522E-05   -0.47167E-05 45368   0.166E-02    0.209E-02
DAV:   5    -0.821669397447E+03    0.10541E-05   -0.28655E-05 43992   0.115E-02    0.110E-02
DAV:   6    -0.821669393965E+03    0.34823E-05   -0.12565E-05 40512   0.806E-03    0.322E-03
DAV:   7    -0.821669394143E+03   -0.17794E-06   -0.29970E-06 30776   0.314E-03
   5 F= -.82166939E+03 E0= -.82172909E+03  d E =-.315440E-02
       N       E                     dE             d eps       ncg     rms          rms(c)
DAV:   1    -0.821671837567E+03   -0.24436E-02   -0.14052E-01 36832   0.578E-01    0.451E-02
DAV:   2    -0.821672133619E+03   -0.29605E-03   -0.31418E-03 42488   0.851E-02    0.305E-02
DAV:   3    -0.821672149247E+03   -0.15628E-04   -0.21344E-04 55992   0.177E-02    0.230E-02
DAV:   4    -0.821672151004E+03   -0.17563E-05   -0.32595E-05 41136   0.134E-02    0.191E-02
DAV:   5    -0.821672147848E+03    0.31557E-05   -0.25491E-05 42480   0.125E-02    0.107E-02
DAV:   6    -0.821672144216E+03    0.36322E-05   -0.10541E-05 37992   0.779E-03    0.299E-03
DAV:   7    -0.821672144268E+03   -0.52009E-07   -0.24499E-06 29184   0.269E-03
   6 F= -.82167214E+03 E0= -.82173182E+03  d E =-.275012E-02
       N       E                     dE             d eps       ncg     rms          rms(c)
DAV:   1    -0.821674265992E+03   -0.21218E-02   -0.12055E-01 36672   0.536E-01    0.411E-02
DAV:   2    -0.821674521938E+03   -0.25595E-03   -0.27063E-03 42416   0.788E-02    0.278E-02
DAV:   3    -0.821674538434E+03   -0.16496E-04   -0.18787E-04 56048   0.176E-02    0.227E-02
DAV:   4    -0.821674534636E+03    0.37982E-05   -0.30001E-05 40296   0.128E-02    0.176E-02
DAV:   5    -0.821674533693E+03    0.94263E-06   -0.20076E-05 41952   0.995E-03    0.965E-03
DAV:   6    -0.821674531016E+03    0.26774E-05   -0.88921E-06 37568   0.697E-03    0.272E-03
DAV:   7    -0.821674531061E+03   -0.45504E-07   -0.19608E-06 27608   0.244E-03
   7 F= -.82167453E+03 E0= -.82173419E+03  d E =-.238679E-02
       N       E                     dE             d eps       ncg     rms          rms(c)
DAV:   1    -0.821676362839E+03   -0.18318E-02   -0.10371E-01 36624   0.497E-01    0.376E-02
DAV:   2    -0.821676584768E+03   -0.22193E-03   -0.23380E-03 42384   0.731E-02    0.256E-02
DAV:   3    -0.821676602557E+03   -0.17789E-04   -0.16914E-04 55856   0.181E-02    0.229E-02
DAV:   4    -0.821676594313E+03    0.82441E-05   -0.30249E-05 40808   0.128E-02    0.163E-02
DAV:   5    -0.821676594410E+03   -0.96945E-07   -0.16633E-05 42128   0.836E-03    0.882E-03
DAV:   6    -0.821676592273E+03    0.21369E-05   -0.80297E-06 37520   0.643E-03    0.252E-03
DAV:   7    -0.821676592321E+03   -0.47279E-07   -0.16214E-06 26144   0.227E-03
   8 F= -.82167659E+03 E0= -.82173623E+03  d E =-.206126E-02
       N       E                     dE             d eps       ncg     rms          rms(c)
DAV:   1    -0.821678211163E+03   -0.16189E-02   -0.89233E-02 36584   0.461E-01    0.343E-02
DAV:   2    -0.821678403530E+03   -0.19237E-03   -0.20220E-03 42336   0.678E-02    0.236E-02
DAV:   3    -0.821678420254E+03   -0.16724E-04   -0.14800E-04 55784   0.179E-02    0.220E-02
DAV:   4    -0.821678411168E+03    0.90862E-05   -0.27437E-05 40208   0.124E-02    0.151E-02
DAV:   5    -0.821678411431E+03   -0.26275E-06   -0.14001E-05 41432   0.747E-03    0.808E-03
DAV:   6    -0.821678409689E+03    0.17420E-05   -0.71684E-06 36888   0.599E-03    0.240E-03
DAV:   7    -0.821678409831E+03   -0.14179E-06   -0.14741E-06 26216   0.247E-03
   9 F= -.82167841E+03 E0= -.82173803E+03  d E =-.181751E-02
       N       E                     dE             d eps       ncg     rms          rms(c)
DAV:   1    -0.821679876065E+03   -0.14664E-02   -0.80360E-02 36552   0.437E-01    0.321E-02
DAV:   2    -0.821680048992E+03   -0.17293E-03   -0.18245E-03 42200   0.642E-02    0.219E-02
DAV:   3    -0.821680062112E+03   -0.13120E-04   -0.13138E-04 56056   0.151E-02    0.192E-02
DAV:   4    -0.821680057242E+03    0.48704E-05   -0.20255E-05 37336   0.103E-02    0.142E-02
DAV:   5    -0.821680057222E+03    0.20242E-07   -0.11946E-05 38960   0.715E-03    0.775E-03
DAV:   6    -0.821680055609E+03    0.16126E-05   -0.61954E-06 34864   0.570E-03    0.219E-03
DAV:   7    -0.821680055631E+03   -0.22163E-07   -0.11936E-06 23960   0.193E-03
  10 F= -.82168006E+03 E0= -.82173967E+03  d E =-.164580E-02
       N       E                     dE             d eps       ncg     rms          rms(c)
DAV:   1    -0.821681384173E+03   -0.13286E-02   -0.71695E-02 36544   0.413E-01    0.299E-02
DAV:   2    -0.821681539537E+03   -0.15536E-03   -0.16324E-03 42104   0.606E-02    0.205E-02
DAV:   3    -0.821681552986E+03   -0.13449E-04   -0.12138E-04 55864   0.155E-02    0.193E-02
DAV:   4    -0.821681546359E+03    0.66271E-05   -0.20480E-05 37584   0.105E-02    0.134E-02
DAV:   5    -0.821681546539E+03   -0.17996E-06   -0.10377E-05 38760   0.645E-03    0.726E-03
DAV:   6    -0.821681545167E+03    0.13716E-05   -0.55811E-06 34400   0.537E-03    0.213E-03
DAV:   7    -0.821681545225E+03   -0.58120E-07   -0.11418E-06 23840   0.200E-03
  11 F= -.82168155E+03 E0= -.82174114E+03  d E =-.148959E-02
       N       E                     dE             d eps       ncg     rms          rms(c)
DAV:   1    -0.821682761555E+03   -0.12164E-02   -0.65525E-02 36464   0.394E-01    0.281E-02
DAV:   2    -0.821682903637E+03   -0.14208E-03   -0.14956E-03 42024   0.578E-02    0.193E-02
DAV:   3    -0.821682915350E+03   -0.11712E-04   -0.10904E-04 55848   0.142E-02    0.178E-02
DAV:   4    -0.821682910167E+03    0.51828E-05   -0.17159E-05 36816   0.953E-03    0.128E-02
DAV:   5    -0.821682910276E+03   -0.10942E-06   -0.90759E-06 37464   0.605E-03
  12 F= -.82168291E+03 E0= -.82174250E+03  d E =-.136505E-02
       N       E                     dE             d eps       ncg     rms          rms(c)
DAV:   1    -0.821684005270E+03   -0.10951E-02   -0.57623E-02 36352   0.369E-01    0.256E-02
DAV:   2    -0.821684130434E+03   -0.12516E-03   -0.13171E-03 42088   0.540E-02    0.176E-02
DAV:   3    -0.821684141481E+03   -0.11047E-04   -0.96796E-05 55816   0.131E-02    0.168E-02
DAV:   4    -0.821684136499E+03    0.49815E-05   -0.14691E-05 35656   0.865E-03    0.118E-02
DAV:   5    -0.821684136836E+03   -0.33669E-06   -0.80327E-06 36968   0.570E-03
  13 F= -.82168414E+03 E0= -.82174371E+03  d E =-.122656E-02
       N       E                     dE             d eps       ncg     rms          rms(c)
DAV:   1    -0.821685142982E+03   -0.10065E-02   -0.51634E-02 36336   0.350E-01    0.239E-02
DAV:   2    -0.821685255474E+03   -0.11249E-03   -0.11835E-03 41960   0.511E-02    0.164E-02
DAV:   3    -0.821685265586E+03   -0.10112E-04   -0.86608E-05 55840   0.124E-02    0.159E-02
DAV:   4    -0.821685260955E+03    0.46310E-05   -0.13041E-05 35568   0.814E-03    0.111E-02
DAV:   5    -0.821685261225E+03   -0.26982E-06   -0.70954E-06 36840   0.526E-03
  14 F= -.82168526E+03 E0= -.82174483E+03  d E =-.112439E-02
       N       E                     dE             d eps       ncg     rms          rms(c)
DAV:   1    -0.821686191826E+03   -0.93087E-03   -0.46927E-02 36296   0.333E-01    0.226E-02
DAV:   2    -0.821686294271E+03   -0.10244E-03   -0.10773E-03 41872   0.486E-02    0.155E-02
DAV:   3    -0.821686303427E+03   -0.91555E-05   -0.78658E-05 55872   0.118E-02    0.151E-02
DAV:   4    -0.821686299213E+03    0.42138E-05   -0.11706E-05 35392   0.770E-03    0.105E-02
DAV:   5    -0.821686299445E+03   -0.23239E-06   -0.62830E-06 35912   0.497E-03
  15 F= -.82168630E+03 E0= -.82174586E+03  d E =-.103822E-02
       N       E                     dE             d eps       ncg     rms          rms(c)
DAV:   1    -0.821687152806E+03   -0.85359E-03   -0.42082E-02 36296   0.315E-01    0.211E-02
DAV:   2    -0.821687244738E+03   -0.91932E-04   -0.96713E-04 41768   0.460E-02    0.145E-02
DAV:   3    -0.821687252941E+03   -0.82027E-05   -0.70749E-05 55904   0.111E-02    0.142E-02
DAV:   4    -0.821687249294E+03    0.36466E-05   -0.10218E-05 35160   0.716E-03    0.994E-03
DAV:   5    -0.821687249459E+03   -0.16518E-06   -0.54062E-06 35048   0.464E-03
  16 F= -.82168725E+03 E0= -.82174681E+03  d E =-.950014E-03
       N       E                     dE             d eps       ncg     rms          rms(c)
DAV:   1    -0.821688061378E+03   -0.81208E-03   -0.38538E-02 36248   0.301E-01    0.200E-02
DAV:   2    -0.821688145553E+03   -0.84174E-04   -0.88559E-04 41672   0.440E-02    0.138E-02
DAV:   3    -0.821688153069E+03   -0.75158E-05   -0.65166E-05 55936   0.105E-02    0.135E-02
DAV:   4    -0.821688149808E+03    0.32610E-05   -0.91653E-06 35000   0.676E-03    0.949E-03
DAV:   5    -0.821688149930E+03   -0.12229E-06   -0.47986E-06 34432   0.439E-03
  17 F= -.82168815E+03 E0= -.82174770E+03  d E =-.900471E-03
       N       E                     dE             d eps       ncg     rms          rms(c)
DAV:   1    -0.821688923012E+03   -0.77320E-03   -0.36686E-02 36248   0.294E-01    0.195E-02
DAV:   2    -0.821689003145E+03   -0.80133E-04   -0.84302E-04 41704   0.429E-02    0.134E-02
DAV:   3    -0.821689010272E+03   -0.71275E-05   -0.61809E-05 55888   0.103E-02    0.131E-02
DAV:   4    -0.821689007157E+03    0.31159E-05   -0.87029E-06 34912   0.659E-03    0.925E-03
DAV:   5    -0.821689007266E+03   -0.10968E-06   -0.45141E-06 34064   0.426E-03
  18 F= -.82168901E+03 E0= -.82174855E+03  d E =-.857336E-03
       N       E                     dE             d eps       ncg     rms          rms(c)
DAV:   1    -0.821689742643E+03   -0.73549E-03   -0.34175E-02 36264   0.284E-01    0.186E-02
DAV:   2    -0.821689817341E+03   -0.74697E-04   -0.78544E-04 41648   0.413E-02    0.129E-02
DAV:   3    -0.821689824055E+03   -0.67140E-05   -0.57857E-05 55800   0.100E-02    0.127E-02
DAV:   4    -0.821689821070E+03    0.29849E-05   -0.81164E-06 34848   0.637E-03    0.891E-03
DAV:   5    -0.821689821160E+03   -0.89931E-07   -0.41551E-06 33648   0.408E-03
  19 F= -.82168982E+03 E0= -.82174936E+03  d E =-.813894E-03
       N       E                     dE             d eps       ncg     rms          rms(c)
DAV:   1    -0.821690510199E+03   -0.68913E-03   -0.30910E-02 36216   0.270E-01    0.176E-02
DAV:   2    -0.821690577863E+03   -0.67663E-04   -0.71187E-04 41656   0.394E-02    0.122E-02
DAV:   3    -0.821690583915E+03   -0.60529E-05   -0.52227E-05 55544   0.948E-03    0.121E-02
DAV:   4    -0.821690581266E+03    0.26498E-05   -0.71853E-06 34456   0.598E-03    0.847E-03
DAV:   5    -0.821690581316E+03   -0.50146E-07   -0.36243E-06 32656   0.384E-03
  20 F= -.82169058E+03 E0= -.82175012E+03  d E =-.760156E-03
       N       E                     dE             d eps       ncg     rms          rms(c)
DAV:   1    -0.821691243118E+03   -0.66185E-03   -0.28602E-02 36224   0.260E-01    0.168E-02
DAV:   2    -0.821691305800E+03   -0.62681E-04   -0.65969E-04 41576   0.379E-02    0.116E-02
DAV:   3    -0.821691311333E+03   -0.55330E-05   -0.48176E-05 55080   0.895E-03    0.115E-02
DAV:   4    -0.821691309018E+03    0.23148E-05   -0.63910E-06 34040   0.562E-03    0.815E-03
DAV:   5    -0.821691309041E+03   -0.23327E-07   -0.32263E-06 31920   0.366E-03
  21 F= -.82169131E+03 E0= -.82175084E+03  d E =-.727725E-03
       N       E                     dE             d eps       ncg     rms          rms(c)
DAV:   1    -0.821691943929E+03   -0.63491E-03   -0.27014E-02 36224   0.253E-01    0.163E-02
DAV:   2    -0.821692003182E+03   -0.59253E-04   -0.62344E-04 41536   0.369E-02    0.113E-02
DAV:   3    -0.821692008483E+03   -0.53005E-05   -0.45991E-05 55048   0.886E-03    0.112E-02
DAV:   4    -0.821692006202E+03    0.22804E-05   -0.61637E-06 33896   0.553E-03    0.792E-03
DAV:   5    -0.821692006220E+03   -0.18059E-07   -0.30071E-06 31568   0.353E-03
  22 F= -.82169201E+03 E0= -.82175154E+03  d E =-.697179E-03
       N       E                     dE             d eps       ncg     rms          rms(c)
DAV:   1    -0.821692620718E+03   -0.61452E-03   -0.25649E-02 36202   0.247E-01    0.158E-02
DAV:   2    -0.821692676967E+03   -0.56249E-04   -0.59182E-04 41528   0.360E-02    0.110E-02
DAV:   3    -0.821692682010E+03   -0.50432E-05   -0.43633E-05 54597   0.867E-03    0.110E-02
DAV:   4    -0.821692679811E+03    0.21995E-05   -0.58800E-06 33704   0.539E-03    0.771E-03
DAV:   5    -0.821692679818E+03   -0.64902E-08   -0.28289E-06 31208   0.342E-03
  23 F= -.82169268E+03 E0= -.82175221E+03  d E =-.673597E-03
       N       E                     dE             d eps       ncg     rms          rms(c)
DAV:   1    -0.821693266475E+03   -0.58666E-03   -0.23902E-02 36210   0.239E-01    0.152E-02
DAV:   2    -0.821693318925E+03   -0.52451E-04   -0.55223E-04 41520   0.348E-02    0.106E-02
DAV:   3    -0.821693323607E+03   -0.46821E-05   -0.40667E-05 54248   0.829E-03    0.105E-02
DAV:   4    -0.821693321615E+03    0.19922E-05   -0.53720E-06 33312   0.514E-03    0.744E-03
DAV:   5    -0.821693321608E+03    0.73487E-08   -0.25854E-06 30736   0.329E-03
  24 F= -.82169332E+03 E0= -.82175285E+03  d E =-.641790E-03
       N       E                     dE             d eps       ncg     rms          rms(c)
DAV:   1    -0.821693887357E+03   -0.56574E-03   -0.22458E-02 36224   0.232E-01    0.147E-02
DAV:   2    -0.821693936664E+03   -0.49306E-04   -0.51928E-04 41464   0.338E-02    0.102E-02
DAV:   3    -0.821693941035E+03   -0.43715E-05   -0.38067E-05 53960   0.801E-03    0.102E-02
DAV:   4    -0.821693939184E+03    0.18513E-05   -0.49794E-06 32928   0.495E-03    0.721E-03
DAV:   5    -0.821693939165E+03    0.18888E-07   -0.23567E-06 30096   0.317E-03
  25 F= -.82169394E+03 E0= -.82175346E+03  d E =-.617557E-03
       N       E                     dE             d eps       ncg     rms          rms(c)
DAV:   1    -0.821694486497E+03   -0.54731E-03   -0.20953E-02 36192   0.224E-01    0.142E-02
DAV:   2    -0.821694532542E+03   -0.46045E-04   -0.48469E-04 41424   0.327E-02    0.989E-03
DAV:   3    -0.821694536668E+03   -0.41258E-05   -0.35819E-05 53792   0.786E-03    0.990E-03
DAV:   4    -0.821694534873E+03    0.17952E-05   -0.47209E-06 32608   0.484E-03    0.698E-03
DAV:   5    -0.821694534852E+03    0.20576E-07   -0.21583E-06 29552   0.306E-03
  26 F= -.82169453E+03 E0= -.82175406E+03  d E =-.595687E-03
       N       E                     dE             d eps       ncg     rms          rms(c)
DAV:   1    -0.821695062273E+03   -0.52740E-03   -0.19646E-02 36192   0.217E-01    0.137E-02
DAV:   2    -0.821695105426E+03   -0.43153E-04   -0.45449E-04 41408   0.316E-02    0.955E-03
DAV:   3    -0.821695109259E+03   -0.38333E-05   -0.33360E-05 53704   0.753E-03    0.952E-03
DAV:   4    -0.821695107622E+03    0.16374E-05   -0.43227E-06 32320   0.464E-03    0.675E-03
DAV:   5    -0.821695107589E+03    0.32975E-07   -0.19752E-06 29040   0.295E-03
  27 F= -.82169511E+03 E0= -.82175463E+03  d E =-.572736E-03
       N       E                     dE             d eps       ncg     rms          rms(c)
DAV:   1    -0.821695623752E+03   -0.51613E-03   -0.18883E-02 36176   0.213E-01    0.134E-02
DAV:   2    -0.821695665243E+03   -0.41491E-04   -0.43726E-04 41360   0.311E-02    0.938E-03
DAV:   3    -0.821695668928E+03   -0.36846E-05   -0.32301E-05 53576   0.735E-03    0.932E-03
DAV:   4    -0.821695667387E+03    0.15410E-05   -0.41457E-06 32232   0.452E-03    0.664E-03
DAV:   5    -0.821695667355E+03    0.31607E-07   -0.18534E-06 28736   0.289E-03
  28 F= -.82169567E+03 E0= -.82175518E+03  d E =-.559766E-03
       N       E                     dE             d eps       ncg     rms          rms(c)
DAV:   1    -0.821696165164E+03   -0.49778E-03   -0.17534E-02 36200   0.206E-01    0.129E-02
DAV:   2    -0.821696203735E+03   -0.38572E-04   -0.40615E-04 41320   0.300E-02    0.906E-03
DAV:   3    -0.821696207233E+03   -0.34979E-05   -0.30377E-05 53464   0.732E-03    0.914E-03
DAV:   4    -0.821696205678E+03    0.15550E-05   -0.40169E-06 32080   0.446E-03    0.641E-03
DAV:   5    -0.821696205641E+03    0.37136E-07   -0.16985E-06 28136   0.278E-03
  29 F= -.82169621E+03 E0= -.82175572E+03  d E =-.538286E-03
       N       E                     dE             d eps       ncg     rms          rms(c)
DAV:   1    -0.821696689156E+03   -0.48348E-03   -0.16277E-02 36224   0.199E-01    0.125E-02
DAV:   2    -0.821696725017E+03   -0.35861E-04   -0.37764E-04 41280   0.291E-02    0.878E-03
DAV:   3    -0.821696728291E+03   -0.32738E-05   -0.28393E-05 53424   0.716E-03    0.890E-03
DAV:   4    -0.821696726796E+03    0.14943E-05   -0.37914E-06 31928   0.436E-03    0.620E-03
DAV:   5    -0.821696726758E+03    0.38504E-07   -0.15491E-06 27712   0.268E-03
  30 F= -.82169673E+03 E0= -.82175624E+03  d E =-.521117E-03
       N       E                     dE             d eps       ncg     rms          rms(c)
DAV:   1    -0.821697199822E+03   -0.47303E-03   -0.15806E-02 36216   0.195E-01    0.123E-02
DAV:   2    -0.821697234615E+03   -0.34792E-04   -0.36622E-04 41232   0.285E-02    0.861E-03
DAV:   3    -0.821697237771E+03   -0.31566E-05   -0.27451E-05 53288   0.702E-03    0.873E-03
DAV:   4    -0.821697236342E+03    0.14294E-05   -0.36415E-06 31848   0.426E-03    0.609E-03
DAV:   5    -0.821697236296E+03    0.45373E-07   -0.14511E-06 27384   0.262E-03
  31 F= -.82169724E+03 E0= -.82175675E+03  d E =-.509539E-03
       N       E                     dE             d eps       ncg     rms          rms(c)
DAV:   1    -0.821697698992E+03   -0.46265E-03   -0.14942E-02 36216   0.190E-01    0.119E-02
DAV:   2    -0.821697731891E+03   -0.32898E-04   -0.34632E-04 41256   0.278E-02    0.839E-03
DAV:   3    -0.821697734897E+03   -0.30063E-05   -0.26087E-05 53144   0.688E-03    0.853E-03
DAV:   4    -0.821697733522E+03    0.13755E-05   -0.34634E-06 31776   0.417E-03    0.593E-03
DAV:   5    -0.821697733474E+03    0.47905E-07   -0.13380E-06 26936   0.255E-03
  32 F= -.82169773E+03 E0= -.82175724E+03  d E =-.497177E-03
       N       E                     dE             d eps       ncg     rms          rms(c)
DAV:   1    -0.821698187681E+03   -0.45416E-03   -0.14204E-02 36216   0.186E-01    0.116E-02
DAV:   2    -0.821698218978E+03   -0.31297E-04   -0.32948E-04 41352   0.271E-02    0.819E-03
DAV:   3    -0.821698221806E+03   -0.28287E-05   -0.24630E-05 53008   0.672E-03    0.832E-03
DAV:   4    -0.821698220495E+03    0.13118E-05   -0.32770E-06 31576   0.407E-03    0.577E-03
DAV:   5    -0.821698220446E+03    0.49069E-07   -0.12245E-06 26592   0.247E-03
  33 F= -.82169822E+03 E0= -.82175773E+03  d E =-.486972E-03
       N       E                     dE             d eps       ncg     rms          rms(c)
DAV:   1    -0.821698673677E+03   -0.45318E-03   -0.14150E-02 36184   0.185E-01    0.115E-02
DAV:   2    -0.821698704823E+03   -0.31147E-04   -0.32776E-04 41352   0.269E-02    0.816E-03
DAV:   3    -0.821698707619E+03   -0.27957E-05   -0.24463E-05 52984   0.669E-03    0.828E-03
DAV:   4    -0.821698706325E+03    0.12943E-05   -0.32403E-06 31528   0.404E-03    0.576E-03
DAV:   5    -0.821698706273E+03    0.51368E-07   -0.11951E-06 26512   0.245E-03
  34 F= -.82169871E+03 E0= -.82175821E+03  d E =-.485828E-03
       N       E                     dE             d eps       ncg     rms          rms(c)
DAV:   1    -0.821699150825E+03   -0.44450E-03   -0.13460E-02 36224   0.181E-01    0.112E-02
DAV:   2    -0.821699180465E+03   -0.29640E-04   -0.31181E-04 41288   0.263E-02    0.796E-03
DAV:   3    -0.821699183151E+03   -0.26864E-05   -0.23459E-05 52760   0.658E-03    0.812E-03
DAV:   4    -0.821699181904E+03    0.12471E-05   -0.30975E-06 31440   0.395E-03    0.563E-03
DAV:   5    -0.821699181853E+03    0.51543E-07   -0.11265E-06 26152   0.240E-03
  35 F= -.82169918E+03 E0= -.82175868E+03  d E =-.475579E-03
       N       E                     dE             d eps       ncg     rms          rms(c)
DAV:   1    -0.821699618032E+03   -0.43613E-03   -0.12947E-02 36344   0.178E-01    0.110E-02
DAV:   2    -0.821699646540E+03   -0.28508E-04   -0.30048E-04 41288   0.259E-02    0.778E-03
DAV:   3    -0.821699649099E+03   -0.25590E-05   -0.22343E-05 52512   0.627E-03    0.784E-03
DAV:   4    -0.821699647971E+03    0.11280E-05   -0.28440E-06 31008   0.379E-03    0.551E-03
DAV:   5    -0.821699647916E+03    0.54977E-07   -0.10461E-06 25800   0.234E-03
  36 F= -.82169965E+03 E0= -.82175915E+03  d E =-.466063E-03
       N       E                     dE             d eps       ncg     rms          rms(c)
DAV:   1    -0.821700076117E+03   -0.42815E-03   -0.12387E-02 36344   0.174E-01    0.108E-02
DAV:   2    -0.821700103393E+03   -0.27276E-04   -0.28767E-04 41352   0.254E-02    0.760E-03
DAV:   3    -0.821700105796E+03   -0.24029E-05   -0.21095E-05 51888   0.604E-03    0.758E-03
DAV:   4    -0.821700104757E+03    0.10383E-05   -0.26363E-06 30512   0.368E-03    0.538E-03
DAV:   5    -0.821700104707E+03    0.50335E-07   -0.98731E-07 25528   0.228E-03
  37 F= -.82170010E+03 E0= -.82175960E+03  d E =-.456791E-03
