TO image 01
1.0
      6.46831269532822    -11.20344622755126      0.00000000000000
      6.46831269532822     11.20344622755126      0.00000000000000
      0.00000000000000      0.00000000000000     15.49806442517753
  Zr  H
  96  1
Direct
      0.08320570521451      0.16628024583377      0.08313201299032
      0.16689107482232      0.08364379467140      0.25014926002722
      0.08296569943634      0.16701711542662      0.41618457471159
      0.16655813674581      0.08314524518580      0.58375112559167
      0.08270374926302      0.16586420906471      0.75049298424764
      0.16663582287964      0.08323282924754      0.91688971964396
      0.08320570851024      0.41692546098103      0.08313201282561
      0.16554064602871      0.33277032235990      0.24914322595249
      0.08296569508283      0.41594858696202      0.41618457252359
      0.16344118978441      0.33172059424388      0.58532120298676
      0.08270374626438      0.41683953940870      0.75049299114783
      0.16656850200666      0.33328425198862      0.91689707861484
      0.08333907725699      0.66673024483787      0.08352257597958
      0.16689107565014      0.58324728311631      0.25014926497024
      0.08333107814470      0.66653369284607      0.41678134400519
      0.16655813613331      0.58341289314060      0.58375112515579
      0.08344948704556      0.66677486113812      0.75025326469416
      0.16663582619044      0.58340299742488      0.91688971881555
      0.08333907555649      0.91660883192120      0.08352257640174
      0.16663826534413      0.83331912944477      0.25010782349014
      0.08333108522624      0.91679738957350      0.41678134236972
      0.16668383852804      0.83334191986542      0.58334816780217
      0.08344948363617      0.91667462213045      0.75025326400841
      0.16663473213262      0.83331736515935      0.91676390196556
      0.33321539435502      0.16648949015688      0.08329076049901
      0.41672730386597      0.08300879359059      0.24964642623697
      0.33398385578663      0.16656859147684      0.41627346619754
      0.41671140812473      0.08272439760367      0.58332193240640
      0.33321446630989      0.16613662342135      0.75043589827773
      0.41681328000819      0.08318423980457      0.91679531659013
      0.33333471240085      0.41666735227205      0.08301866045840
      0.41709554739938      0.33271095060005      0.24932054289941
      0.33280414896408      0.41640207671183      0.41258280205140
      0.41777089893291      0.33127490372450      0.58514866122660
      0.33343211036169      0.41671605425701      0.75198224311813
      0.41674461996234      0.33326233519725      0.91705638122794
      0.33321539309286      0.66672591083026      0.08329076197286
      0.41709554795763      0.58438459589899      0.24932054111932
      0.33398385655086      0.66741526445665      0.41627346484165
      0.41777088736846      0.58649598931598      0.58514866079456
      0.33321446184422      0.66707784246454      0.75043590080393
      0.41674462610875      0.58348228550576      0.91705638351787
      0.33303587813679      0.91651793775960      0.08305688387229
      0.41672731066669      0.83371851812697      0.24964642514467
      0.33354453011758      0.91677226535991      0.41635243944909
      0.41671140041960      0.83398700581817      0.58332193225273
      0.33338255661730      0.91669127581537      0.75020258294473
      0.41681328358956      0.83362904127164      0.91679531573215
      0.58334200175926      0.16663601939540      0.08317594898253
      0.66684762845595      0.08342381110126      0.24976645995426
      0.58357210368922      0.16644227992516      0.41631594680886
      0.66662553999232      0.08331276824793      0.58327265486032
      0.58330894458455      0.16668966730359      0.74965090009966
      0.66668776131284      0.08334387318062      0.91645615750891
      0.58354034353166      0.41684832648273      0.08318229348040
      0.66683320111319      0.33333744814230      0.24965805053450
      0.58346660728731      0.41555620714974      0.41630851109326
      0.66737220186733      0.33317349132821      0.58329013321537
      0.58391809477155      0.41675191967207      0.75033603315334
      0.66673701076868      0.33327048021847      0.91669454805831
      0.58354034558660      0.66669202543289      0.08318229091452
      0.66602021535500      0.58301010631567      0.25022223490408
      0.58346660498456      0.66791039666774      0.41630851187298
      0.66751445206313      0.58375722820058      0.58355148813693
      0.58391809467463      0.66716617406097      0.75033603074647
      0.66666680108466      0.58333339973016      0.91677493153153
      0.58334200616652      0.91670597870741      0.08317594538982
      0.66683320110766      0.83349575182154      0.24965805035227
      0.58357210740523      0.91712982410932      0.41631594423241
      0.66737220029807      0.83419871089073      0.58329013552262
      0.58330894676966      0.91661927675288      0.74965090397385
      0.66673701482916      0.83346653897672      0.91669454376724
      0.83334532047635      0.16667265920768      0.08324935083731
      0.91645923759181      0.08312471260872      0.24961177190560
      0.83304818848478      0.16652409326023      0.41649218592578
      0.91602307742109      0.08267393515910      0.58321343328035
      0.83344232366022      0.16672115349911      0.74965806153920
      0.91645423474222      0.08326200002237      0.91678025446886
      0.83345068853670      0.41685137074898      0.08298865988708
      0.91645923531039      0.33333452045119      0.24961177261240
      0.83316396455726      0.41646193816645      0.41621980412870
      0.91602307746680      0.33334914676762      0.58321343269818
      0.83334991132300      0.41657437214897      0.75018859877012
      0.91645424324718      0.33319223608925      0.91678025290510
      0.83330421228052      0.66665210758549      0.08344545229566
      0.91670156287166      0.58330542027536      0.24991900186619
      0.83348197430139      0.66674098834937      0.41654347115879
      0.91661443479722      0.58339777915344      0.58342711718004
      0.83330964139537      0.66665482313761      0.75020636694939
      0.91670918308241      0.58334910978593      0.91673874022645
      0.83345068368842      0.91659931425422      0.08298865670893
      0.91670156257391      0.83339614159271      0.24991900027378
      0.83316395610671      0.91670202620869      0.41621980186089
      0.91661443353637      0.83321665607074      0.58342711616713
      0.83334990279440      0.91677553791656      0.75018859793449
      0.91670918442830      0.83336007334241      0.91673874208159
      0.36658468670775      0.43329234630408      0.53462552601960
