Zr96 4x4x3 supercell from verified relax
   1.00000000000000     
     6.4683126953282200  -11.2034462275512627    0.0000000000000000
     6.4683126953282200   11.2034462275512627    0.0000000000000000
     0.0000000000000000    0.0000000000000000   15.4980644251775281
   Zr
    96
Direct
  0.0833333333333357  0.1666666666666643  0.0833333333333357
  0.1666666666666643  0.0833333333333357  0.2500000000000000
  0.0833333333333357  0.1666666666666643  0.4166666666666643
  0.1666666666666643  0.0833333333333357  0.5833333333333357
  0.0833333333333357  0.1666666666666643  0.7500000000000000
  0.1666666666666643  0.0833333333333357  0.9166666666666643
  0.0833333333333357  0.4166666666666643  0.0833333333333357
  0.1666666666666643  0.3333333333333357  0.2500000000000000
  0.0833333333333357  0.4166666666666643  0.4166666666666643
  0.1666666666666643  0.3333333333333357  0.5833333333333357
  0.0833333333333357  0.4166666666666643  0.7500000000000000
  0.1666666666666643  0.3333333333333357  0.9166666666666643
  0.0833333333333357  0.6666666666666643  0.0833333333333357
  0.1666666666666643  0.5833333333333357  0.2500000000000000
  0.0833333333333357  0.6666666666666643  0.4166666666666643
  0.1666666666666643  0.5833333333333357  0.5833333333333357
  0.0833333333333357  0.6666666666666643  0.7500000000000000
  0.1666666666666643  0.5833333333333357  0.9166666666666643
  0.0833333333333357  0.9166666666666643  0.0833333333333357
  0.1666666666666643  0.8333333333333357  0.2500000000000000
  0.0833333333333357  0.9166666666666643  0.4166666666666643
  0.1666666666666643  0.8333333333333357  0.5833333333333357
  0.0833333333333357  0.9166666666666643  0.7500000000000000
  0.1666666666666643  0.8333333333333357  0.9166666666666643
  0.3333333333333357  0.1666666666666643  0.0833333333333357
  0.4166666666666643  0.0833333333333357  0.2500000000000000
  0.3333333333333357  0.1666666666666643  0.4166666666666643
  0.4166666666666643  0.0833333333333357  0.5833333333333357
  0.3333333333333357  0.1666666666666643  0.7500000000000000
  0.4166666666666643  0.0833333333333357  0.9166666666666643
  0.3333333333333357  0.4166666666666643  0.0833333333333357
  0.4166666666666643  0.3333333333333357  0.2500000000000000
  0.3333333333333357  0.4166666666666643  0.4166666666666643
  0.4166666666666643  0.3333333333333357  0.5833333333333357
  0.3333333333333357  0.4166666666666643  0.7500000000000000
  0.4166666666666643  0.3333333333333357  0.9166666666666643
  0.3333333333333357  0.6666666666666643  0.0833333333333357
  0.4166666666666643  0.5833333333333357  0.2500000000000000
  0.3333333333333357  0.6666666666666643  0.4166666666666643
  0.4166666666666643  0.5833333333333357  0.5833333333333357
  0.3333333333333357  0.6666666666666643  0.7500000000000000
  0.4166666666666643  0.5833333333333357  0.9166666666666643
  0.3333333333333357  0.9166666666666643  0.0833333333333357
  0.4166666666666643  0.8333333333333357  0.2500000000000000
  0.3333333333333357  0.9166666666666643  0.4166666666666643
  0.4166666666666643  0.8333333333333357  0.5833333333333357
  0.3333333333333357  0.9166666666666643  0.7500000000000000
  0.4166666666666643  0.8333333333333357  0.9166666666666643
  0.5833333333333357  0.1666666666666643  0.0833333333333357
  0.6666666666666643  0.0833333333333357  0.2500000000000000
  0.5833333333333357  0.1666666666666643  0.4166666666666643
  0.6666666666666643  0.0833333333333357  0.5833333333333357
  0.5833333333333357  0.1666666666666643  0.7500000000000000
  0.6666666666666643  0.0833333333333357  0.9166666666666643
  0.5833333333333357  0.4166666666666643  0.0833333333333357
  0.6666666666666643  0.3333333333333357  0.2500000000000000
  0.5833333333333357  0.4166666666666643  0.4166666666666643
  0.6666666666666643  0.3333333333333357  0.5833333333333357
  0.5833333333333357  0.4166666666666643  0.7500000000000000
  0.6666666666666643  0.3333333333333357  0.9166666666666643
  0.5833333333333357  0.6666666666666643  0.0833333333333357
  0.6666666666666643  0.5833333333333357  0.2500000000000000
  0.5833333333333357  0.6666666666666643  0.4166666666666643
  0.6666666666666643  0.5833333333333357  0.5833333333333357
  0.5833333333333357  0.6666666666666643  0.7500000000000000
  0.6666666666666643  0.5833333333333357  0.9166666666666643
  0.5833333333333357  0.9166666666666643  0.0833333333333357
  0.6666666666666643  0.8333333333333357  0.2500000000000000
  0.5833333333333357  0.9166666666666643  0.4166666666666643
  0.6666666666666643  0.8333333333333357  0.5833333333333357
  0.5833333333333357  0.9166666666666643  0.7500000000000000
  0.6666666666666643  0.8333333333333357  0.9166666666666643
  0.8333333333333357  0.1666666666666643  0.0833333333333357
  0.9166666666666643  0.0833333333333357  0.2500000000000000
  0.8333333333333357  0.1666666666666643  0.4166666666666643
  0.9166666666666643  0.0833333333333357  0.5833333333333357
  0.8333333333333357  0.1666666666666643  0.7500000000000000
  0.9166666666666643  0.0833333333333357  0.9166666666666643
  0.8333333333333357  0.4166666666666643  0.0833333333333357
  0.9166666666666643  0.3333333333333357  0.2500000000000000
  0.8333333333333357  0.4166666666666643  0.4166666666666643
  0.9166666666666643  0.3333333333333357  0.5833333333333357
  0.8333333333333357  0.4166666666666643  0.7500000000000000
  0.9166666666666643  0.3333333333333357  0.9166666666666643
  0.8333333333333357  0.6666666666666643  0.0833333333333357
  0.9166666666666643  0.5833333333333357  0.2500000000000000
  0.8333333333333357  0.6666666666666643  0.4166666666666643
  0.9166666666666643  0.5833333333333357  0.5833333333333357
  0.8333333333333357  0.6666666666666643  0.7500000000000000
  0.9166666666666643  0.5833333333333357  0.9166666666666643
  0.8333333333333357  0.9166666666666643  0.0833333333333357
  0.9166666666666643  0.8333333333333357  0.2500000000000000
  0.8333333333333357  0.9166666666666643  0.4166666666666643
  0.9166666666666643  0.8333333333333357  0.5833333333333357
  0.8333333333333357  0.9166666666666643  0.7500000000000000
  0.9166666666666643  0.8333333333333357  0.9166666666666643
 
  0.00000000E+00  0.00000000E+00  0.00000000E+00
  0.00000000E+00  0.00000000E+00  0.00000000E+00
  0.00000000E+00  0.00000000E+00  0.00000000E+00
  0.00000000E+00  0.00000000E+00  0.00000000E+00
  0.00000000E+00  0.00000000E+00  0.00000000E+00
  0.00000000E+00  0.00000000E+00  0.00000000E+00
  0.00000000E+00  0.00000000E+00  0.00000000E+00
  0.00000000E+00  0.00000000E+00  0.00000000E+00
  0.00000000E+00  0.00000000E+00  0.00000000E+00
  0.00000000E+00  0.00000000E+00  0.00000000E+00
  0.00000000E+00  0.00000000E+00  0.00000000E+00
  0.00000000E+00  0.00000000E+00  0.00000000E+00
  0.00000000E+00  0.00000000E+00  0.00000000E+00
  0.00000000E+00  0.00000000E+00  0.00000000E+00
  0.00000000E+00  0.00000000E+00  0.00000000E+00
  0.00000000E+00  0.00000000E+00  0.00000000E+00
  0.00000000E+00  0.00000000E+00  0.00000000E+00
  0.00000000E+00  0.00000000E+00  0.00000000E+00
  0.00000000E+00  0.00000000E+00  0.00000000E+00
  0.00000000E+00  0.00000000E+00  0.00000000E+00
  0.00000000E+00  0.00000000E+00  0.00000000E+00
  0.00000000E+00  0.00000000E+00  0.00000000E+00
  0.00000000E+00  0.00000000E+00  0.00000000E+00
  0.00000000E+00  0.00000000E+00  0.00000000E+00
  0.00000000E+00  0.00000000E+00  0.00000000E+00
  0.00000000E+00  0.00000000E+00  0.00000000E+00
  0.00000000E+00  0.00000000E+00  0.00000000E+00
  0.00000000E+00  0.00000000E+00  0.00000000E+00
  0.00000000E+00  0.00000000E+00  0.00000000E+00
  0.00000000E+00  0.00000000E+00  0.00000000E+00
  0.00000000E+00  0.00000000E+00  0.00000000E+00
  0.00000000E+00  0.00000000E+00  0.00000000E+00
  0.00000000E+00  0.00000000E+00  0.00000000E+00
  0.00000000E+00  0.00000000E+00  0.00000000E+00
  0.00000000E+00  0.00000000E+00  0.00000000E+00
  0.00000000E+00  0.00000000E+00  0.00000000E+00
  0.00000000E+00  0.00000000E+00  0.00000000E+00
  0.00000000E+00  0.00000000E+00  0.00000000E+00
  0.00000000E+00  0.00000000E+00  0.00000000E+00
  0.00000000E+00  0.00000000E+00  0.00000000E+00
  0.00000000E+00  0.00000000E+00  0.00000000E+00
  0.00000000E+00  0.00000000E+00  0.00000000E+00
  0.00000000E+00  0.00000000E+00  0.00000000E+00
  0.00000000E+00  0.00000000E+00  0.00000000E+00
  0.00000000E+00  0.00000000E+00  0.00000000E+00
  0.00000000E+00  0.00000000E+00  0.00000000E+00
  0.00000000E+00  0.00000000E+00  0.00000000E+00
  0.00000000E+00  0.00000000E+00  0.00000000E+00
  0.00000000E+00  0.00000000E+00  0.00000000E+00
  0.00000000E+00  0.00000000E+00  0.00000000E+00
  0.00000000E+00  0.00000000E+00  0.00000000E+00
  0.00000000E+00  0.00000000E+00  0.00000000E+00
  0.00000000E+00  0.00000000E+00  0.00000000E+00
  0.00000000E+00  0.00000000E+00  0.00000000E+00
  0.00000000E+00  0.00000000E+00  0.00000000E+00
  0.00000000E+00  0.00000000E+00  0.00000000E+00
  0.00000000E+00  0.00000000E+00  0.00000000E+00
  0.00000000E+00  0.00000000E+00  0.00000000E+00
  0.00000000E+00  0.00000000E+00  0.00000000E+00
  0.00000000E+00  0.00000000E+00  0.00000000E+00
  0.00000000E+00  0.00000000E+00  0.00000000E+00
  0.00000000E+00  0.00000000E+00  0.00000000E+00
  0.00000000E+00  0.00000000E+00  0.00000000E+00
  0.00000000E+00  0.00000000E+00  0.00000000E+00
  0.00000000E+00  0.00000000E+00  0.00000000E+00
  0.00000000E+00  0.00000000E+00  0.00000000E+00
  0.00000000E+00  0.00000000E+00  0.00000000E+00
  0.00000000E+00  0.00000000E+00  0.00000000E+00
  0.00000000E+00  0.00000000E+00  0.00000000E+00
  0.00000000E+00  0.00000000E+00  0.00000000E+00
  0.00000000E+00  0.00000000E+00  0.00000000E+00
  0.00000000E+00  0.00000000E+00  0.00000000E+00
  0.00000000E+00  0.00000000E+00  0.00000000E+00
  0.00000000E+00  0.00000000E+00  0.00000000E+00
  0.00000000E+00  0.00000000E+00  0.00000000E+00
  0.00000000E+00  0.00000000E+00  0.00000000E+00
  0.00000000E+00  0.00000000E+00  0.00000000E+00
  0.00000000E+00  0.00000000E+00  0.00000000E+00
  0.00000000E+00  0.00000000E+00  0.00000000E+00
  0.00000000E+00  0.00000000E+00  0.00000000E+00
  0.00000000E+00  0.00000000E+00  0.00000000E+00
  0.00000000E+00  0.00000000E+00  0.00000000E+00
  0.00000000E+00  0.00000000E+00  0.00000000E+00
  0.00000000E+00  0.00000000E+00  0.00000000E+00
  0.00000000E+00  0.00000000E+00  0.00000000E+00
  0.00000000E+00  0.00000000E+00  0.00000000E+00
  0.00000000E+00  0.00000000E+00  0.00000000E+00
  0.00000000E+00  0.00000000E+00  0.00000000E+00
  0.00000000E+00  0.00000000E+00  0.00000000E+00
  0.00000000E+00  0.00000000E+00  0.00000000E+00
  0.00000000E+00  0.00000000E+00  0.00000000E+00
  0.00000000E+00  0.00000000E+00  0.00000000E+00
  0.00000000E+00  0.00000000E+00  0.00000000E+00
  0.00000000E+00  0.00000000E+00  0.00000000E+00
  0.00000000E+00  0.00000000E+00  0.00000000E+00
  0.00000000E+00  0.00000000E+00  0.00000000E+00
