  96  96   0   0
  0.2339801E+02  0.1293663E-08  0.1293663E-08  0.1549806E-08  0.5000000E-15
  1.000000000000000E-004
  CAR 
 Zr96 fixed-cell static reference        
     13.07374058    -42.43321592  301      8.95487129      1.00000000
    -42.433  0.0000E+00  0.0000E+00
    -42.248  0.0000E+00  0.0000E+00
    -42.063  0.0000E+00  0.0000E+00
    -41.878  0.0000E+00  0.0000E+00
    -41.693 -0.8312E-35 -0.1538E-35
    -41.508 -0.3260E-26 -0.6032E-27
    -41.323 -0.3943E-20 -0.7295E-21
    -41.138 -0.8743E-15 -0.1618E-15
    -40.953 -0.3460E-10 -0.6402E-11
    -40.768 -0.2613E-06 -0.4835E-07
    -40.583 -0.3732E-03 -0.6910E-04
    -40.398 -0.1021E+00 -0.1897E-01
    -40.213 -0.5091E+01 -0.9609E+00
    -40.028 -0.2395E+02 -0.5393E+01
    -39.843  0.2753E+03  0.4554E+02
    -39.658  0.6781E+03  0.1710E+03
    -39.473  0.1417E+03  0.1972E+03
    -39.288 -0.2610E+02  0.1924E+03
    -39.103 -0.2075E+01  0.1920E+03
    -38.918 -0.1914E-01  0.1920E+03
    -38.733 -0.2849E-04  0.1920E+03
    -38.548 -0.7316E-08  0.1920E+03
    -38.363 -0.3343E-12  0.1920E+03
    -38.178  0.0000E+00  0.1920E+03
    -37.993  0.0000E+00  0.1920E+03
    -37.808  0.0000E+00  0.1920E+03
    -37.623  0.0000E+00  0.1920E+03
    -37.438  0.0000E+00  0.1920E+03
    -37.253  0.0000E+00  0.1920E+03
    -37.068  0.0000E+00  0.1920E+03
    -36.883  0.0000E+00  0.1920E+03
    -36.697  0.0000E+00  0.1920E+03
    -36.512  0.0000E+00  0.1920E+03
    -36.327  0.0000E+00  0.1920E+03
    -36.142  0.0000E+00  0.1920E+03
    -35.957  0.0000E+00  0.1920E+03
    -35.772  0.0000E+00  0.1920E+03
    -35.587  0.0000E+00  0.1920E+03
    -35.402  0.0000E+00  0.1920E+03
    -35.217  0.0000E+00  0.1920E+03
    -35.032  0.0000E+00  0.1920E+03
    -34.847  0.0000E+00  0.1920E+03
    -34.662  0.0000E+00  0.1920E+03
    -34.477  0.0000E+00  0.1920E+03
    -34.292  0.0000E+00  0.1920E+03
    -34.107  0.0000E+00  0.1920E+03
    -33.922  0.0000E+00  0.1920E+03
    -33.737  0.0000E+00  0.1920E+03
    -33.552  0.0000E+00  0.1920E+03
    -33.367  0.0000E+00  0.1920E+03
    -33.182  0.0000E+00  0.1920E+03
    -32.997  0.0000E+00  0.1920E+03
    -32.812  0.0000E+00  0.1920E+03
    -32.627  0.0000E+00  0.1920E+03
    -32.442  0.0000E+00  0.1920E+03
    -32.257  0.0000E+00  0.1920E+03
    -32.072  0.0000E+00  0.1920E+03
    -31.887  0.0000E+00  0.1920E+03
    -31.702  0.0000E+00  0.1920E+03
    -31.517  0.0000E+00  0.1920E+03
    -31.332  0.0000E+00  0.1920E+03
    -31.147  0.0000E+00  0.1920E+03
    -30.962  0.0000E+00  0.1920E+03
    -30.777  0.0000E+00  0.1920E+03
    -30.592  0.0000E+00  0.1920E+03
    -30.407  0.0000E+00  0.1920E+03
    -30.222  0.0000E+00  0.1920E+03
    -30.037  0.0000E+00  0.1920E+03
    -29.852  0.0000E+00  0.1920E+03
    -29.667  0.0000E+00  0.1920E+03
    -29.482  0.0000E+00  0.1920E+03
    -29.297  0.0000E+00  0.1920E+03
    -29.112  0.0000E+00  0.1920E+03
    -28.927  0.0000E+00  0.1920E+03
    -28.741  0.0000E+00  0.1920E+03
    -28.556  0.0000E+00  0.1920E+03
    -28.371  0.0000E+00  0.1920E+03
    -28.186  0.0000E+00  0.1920E+03
    -28.001  0.0000E+00  0.1920E+03
    -27.816  0.0000E+00  0.1920E+03
    -27.631  0.0000E+00  0.1920E+03
    -27.446  0.0000E+00  0.1920E+03
    -27.261  0.0000E+00  0.1920E+03
    -27.076  0.0000E+00  0.1920E+03
    -26.891  0.0000E+00  0.1920E+03
    -26.706  0.0000E+00  0.1920E+03
    -26.521  0.0000E+00  0.1920E+03
    -26.336  0.0000E+00  0.1920E+03
    -26.151  0.0000E+00  0.1920E+03
    -25.966  0.0000E+00  0.1920E+03
    -25.781  0.0000E+00  0.1920E+03
    -25.596  0.0000E+00  0.1920E+03
    -25.411  0.0000E+00  0.1920E+03
    -25.226  0.0000E+00  0.1920E+03
    -25.041  0.0000E+00  0.1920E+03
    -24.856  0.0000E+00  0.1920E+03
    -24.671  0.0000E+00  0.1920E+03
    -24.486  0.0000E+00  0.1920E+03
    -24.301  0.0000E+00  0.1920E+03
    -24.116  0.0000E+00  0.1920E+03
    -23.931  0.0000E+00  0.1920E+03
    -23.746  0.0000E+00  0.1920E+03
    -23.561  0.0000E+00  0.1920E+03
    -23.376  0.0000E+00  0.1920E+03
    -23.191  0.0000E+00  0.1920E+03
    -23.006  0.0000E+00  0.1920E+03
    -22.821  0.0000E+00  0.1920E+03
    -22.636  0.0000E+00  0.1920E+03
    -22.451  0.0000E+00  0.1920E+03
    -22.266  0.0000E+00  0.1920E+03
    -22.081  0.0000E+00  0.1920E+03
    -21.896  0.0000E+00  0.1920E+03
    -21.711  0.0000E+00  0.1920E+03
    -21.526  0.0000E+00  0.1920E+03
    -21.341  0.0000E+00  0.1920E+03
    -21.156  0.0000E+00  0.1920E+03
    -20.971  0.0000E+00  0.1920E+03
    -20.786  0.0000E+00  0.1920E+03
    -20.600  0.0000E+00  0.1920E+03
    -20.415  0.0000E+00  0.1920E+03
    -20.230  0.0000E+00  0.1920E+03
    -20.045 -0.5902E-28  0.1920E+03
    -19.860 -0.8950E-22  0.1920E+03
    -19.675 -0.2496E-16  0.1920E+03
    -19.490 -0.1255E-11  0.1920E+03
    -19.305 -0.1224E-07  0.1920E+03
    -19.120 -0.2342E-04  0.1920E+03
    -18.935 -0.9173E-02  0.1920E+03
    -18.750 -0.7471E+00  0.1919E+03
    -18.565 -0.1053E+02  0.1899E+03
    -18.380  0.2922E+02  0.1953E+03
    -18.195  0.3550E+03  0.2610E+03
    -18.010  0.4907E+03  0.3518E+03
    -17.825  0.4773E+03  0.4401E+03
    -17.640  0.8538E+03  0.5981E+03
    -17.455  0.8080E+03  0.7476E+03
    -17.270  0.1385E+03  0.7732E+03
    -17.085 -0.2527E+02  0.7685E+03
    -16.900 -0.2878E+01  0.7680E+03
    -16.715 -0.4426E-01  0.7680E+03
    -16.530 -0.1232E-03  0.7680E+03
    -16.345 -0.6352E-07  0.7680E+03
    -16.160 -0.6040E-11  0.7680E+03
    -15.975  0.0000E+00  0.7680E+03
    -15.790  0.0000E+00  0.7680E+03
    -15.605  0.0000E+00  0.7680E+03
    -15.420  0.0000E+00  0.7680E+03
    -15.235  0.0000E+00  0.7680E+03
    -15.050  0.0000E+00  0.7680E+03
    -14.865  0.0000E+00  0.7680E+03
    -14.680  0.0000E+00  0.7680E+03
    -14.495  0.0000E+00  0.7680E+03
    -14.310  0.0000E+00  0.7680E+03
    -14.125  0.0000E+00  0.7680E+03
    -13.940  0.0000E+00  0.7680E+03
    -13.755  0.0000E+00  0.7680E+03
    -13.570  0.0000E+00  0.7680E+03
    -13.385  0.0000E+00  0.7680E+03
    -13.200  0.0000E+00  0.7680E+03
    -13.015  0.0000E+00  0.7680E+03
    -12.830  0.0000E+00  0.7680E+03
    -12.644  0.0000E+00  0.7680E+03
    -12.459  0.0000E+00  0.7680E+03
    -12.274  0.0000E+00  0.7680E+03
    -12.089  0.0000E+00  0.7680E+03
    -11.904  0.0000E+00  0.7680E+03
    -11.719  0.0000E+00  0.7680E+03
    -11.534  0.0000E+00  0.7680E+03
    -11.349  0.0000E+00  0.7680E+03
    -11.164  0.0000E+00  0.7680E+03
    -10.979  0.0000E+00  0.7680E+03
    -10.794  0.0000E+00  0.7680E+03
    -10.609  0.0000E+00  0.7680E+03
    -10.424  0.0000E+00  0.7680E+03
    -10.239  0.0000E+00  0.7680E+03
    -10.054  0.0000E+00  0.7680E+03
     -9.869  0.0000E+00  0.7680E+03
     -9.684  0.0000E+00  0.7680E+03
     -9.499  0.0000E+00  0.7680E+03
     -9.314  0.0000E+00  0.7680E+03
     -9.129  0.0000E+00  0.7680E+03
     -8.944  0.0000E+00  0.7680E+03
     -8.759  0.0000E+00  0.7680E+03
     -8.574  0.0000E+00  0.7680E+03
     -8.389  0.0000E+00  0.7680E+03
     -8.204  0.0000E+00  0.7680E+03
     -8.019  0.0000E+00  0.7680E+03
     -7.834  0.0000E+00  0.7680E+03
     -7.649  0.0000E+00  0.7680E+03
     -7.464  0.0000E+00  0.7680E+03
     -7.279  0.0000E+00  0.7680E+03
     -7.094  0.0000E+00  0.7680E+03
     -6.909  0.0000E+00  0.7680E+03
     -6.724  0.0000E+00  0.7680E+03
     -6.539  0.0000E+00  0.7680E+03
     -6.354  0.0000E+00  0.7680E+03
     -6.169  0.0000E+00  0.7680E+03
     -5.984  0.0000E+00  0.7680E+03
     -5.799  0.0000E+00  0.7680E+03
     -5.614  0.0000E+00  0.7680E+03
     -5.429  0.0000E+00  0.7680E+03
     -5.244  0.0000E+00  0.7680E+03
     -5.059  0.0000E+00  0.7680E+03
     -4.874  0.0000E+00  0.7680E+03
     -4.688  0.0000E+00  0.7680E+03
     -4.503  0.0000E+00  0.7680E+03
     -4.318  0.0000E+00  0.7680E+03
     -4.133  0.0000E+00  0.7680E+03
     -3.948  0.0000E+00  0.7680E+03
     -3.763  0.0000E+00  0.7680E+03
     -3.578  0.0000E+00  0.7680E+03
     -3.393  0.0000E+00  0.7680E+03
     -3.208  0.0000E+00  0.7680E+03
     -3.023  0.0000E+00  0.7680E+03
     -2.838  0.0000E+00  0.7680E+03
     -2.653  0.0000E+00  0.7680E+03
     -2.468  0.0000E+00  0.7680E+03
     -2.283  0.0000E+00  0.7680E+03
     -2.098  0.0000E+00  0.7680E+03
     -1.913  0.0000E+00  0.7680E+03
     -1.728  0.0000E+00  0.7680E+03
     -1.543  0.0000E+00  0.7680E+03
     -1.358  0.0000E+00  0.7680E+03
     -1.173  0.0000E+00  0.7680E+03
     -0.988  0.0000E+00  0.7680E+03
     -0.803  0.0000E+00  0.7680E+03
     -0.618  0.0000E+00  0.7680E+03
     -0.433  0.0000E+00  0.7680E+03
     -0.248  0.0000E+00  0.7680E+03
     -0.063  0.0000E+00  0.7680E+03
      0.122  0.0000E+00  0.7680E+03
      0.307  0.0000E+00  0.7680E+03
      0.492  0.0000E+00  0.7680E+03
      0.677  0.0000E+00  0.7680E+03
      0.862  0.0000E+00  0.7680E+03
      1.047  0.0000E+00  0.7680E+03
      1.232  0.0000E+00  0.7680E+03
      1.417  0.0000E+00  0.7680E+03
      1.602 -0.3368E-31  0.7680E+03
      1.787 -0.7812E-25  0.7680E+03
      1.972 -0.3283E-19  0.7680E+03
      2.157 -0.2458E-14  0.7680E+03
      2.342 -0.3455E-10  0.7680E+03
      2.527 -0.9194E-07  0.7680E+03
      2.712 -0.4668E-04  0.7680E+03
      2.897 -0.4404E-02  0.7680E+03
      3.082 -0.6337E-01  0.7680E+03
      3.268  0.1380E+00  0.7680E+03
      3.453  0.2009E+01  0.7684E+03
      3.638  0.4445E+01  0.7692E+03
      3.823  0.6220E+01  0.7704E+03
      4.008  0.7561E+01  0.7718E+03
      4.193  0.9168E+01  0.7735E+03
      4.378  0.1065E+02  0.7754E+03
      4.563  0.1179E+02  0.7776E+03
      4.748  0.1457E+02  0.7803E+03
      4.933  0.1469E+02  0.7830E+03
      5.118  0.1901E+02  0.7865E+03
      5.303  0.2023E+02  0.7903E+03
      5.488  0.2321E+02  0.7946E+03
      5.673  0.3053E+02  0.8002E+03
      5.858  0.3963E+02  0.8076E+03
      6.043  0.8179E+02  0.8227E+03
      6.228  0.9317E+02  0.8399E+03
      6.413  0.9823E+02  0.8581E+03
      6.598  0.1108E+03  0.8786E+03
      6.783  0.1192E+03  0.9007E+03
      6.968  0.1373E+03  0.9261E+03
      7.153  0.1230E+03  0.9488E+03
      7.338  0.9631E+02  0.9666E+03
      7.523  0.9682E+02  0.9845E+03
      7.708  0.1140E+03  0.1006E+04
      7.893  0.1268E+03  0.1029E+04
      8.078  0.1432E+03  0.1056E+04
      8.263  0.1655E+03  0.1086E+04
      8.448  0.1580E+03  0.1115E+04
      8.633  0.8803E+02  0.1132E+04
      8.818  0.5325E+02  0.1142E+04
      9.003  0.8531E+02  0.1157E+04
      9.188  0.1612E+03  0.1187E+04
      9.373  0.1775E+03  0.1220E+04
      9.558  0.1577E+03  0.1249E+04
      9.743  0.1621E+03  0.1279E+04
      9.928  0.1791E+03  0.1312E+04
     10.113  0.1849E+03  0.1347E+04
     10.298  0.1917E+03  0.1382E+04
     10.483  0.1236E+03  0.1405E+04
     10.668  0.2085E+02  0.1409E+04
     10.853 -0.3646E+01  0.1408E+04
     11.038 -0.5031E+00  0.1408E+04
     11.224 -0.8815E-02  0.1408E+04
     11.409 -0.2734E-04  0.1408E+04
     11.594 -0.1586E-07  0.1408E+04
     11.779 -0.1760E-11  0.1408E+04
     11.964  0.0000E+00  0.1408E+04
     12.149  0.0000E+00  0.1408E+04
     12.334  0.0000E+00  0.1408E+04
     12.519  0.0000E+00  0.1408E+04
     12.704  0.0000E+00  0.1408E+04
     12.889  0.0000E+00  0.1408E+04
     13.074  0.0000E+00  0.1408E+04
