   96   96    1    1
  0.2339801E+02  0.1293663E-08  0.1293663E-08  0.1549806E-08  0.5000000E-15
  1.000000000000000E-004
  CAR 
 Zr96 fixed-cell static reference        
   1152     15    704
 
  0.0000000E+00  0.0000000E+00  0.0000000E+00  0.1000000E-01
      1        -39.910172   1.000000
      2        -39.873260   1.000000
      3        -39.873260   1.000000
      4        -39.849911   1.000000
      5        -39.849911   1.000000
      6        -39.849911   1.000000
      7        -39.849911   1.000000
      8        -39.849911   1.000000
      9        -39.849911   1.000000
     10        -39.822244   1.000000
     11        -39.822244   1.000000
     12        -39.822244   1.000000
     13        -39.822244   1.000000
     14        -39.822244   1.000000
     15        -39.822244   1.000000
     16        -39.822244   1.000000
     17        -39.822244   1.000000
     18        -39.822244   1.000000
     19        -39.822244   1.000000
     20        -39.822244   1.000000
     21        -39.822244   1.000000
     22        -39.798477   1.000000
     23        -39.798477   1.000000
     24        -39.777314   1.000000
     25        -39.777314   1.000000
     26        -39.777314   1.000000
     27        -39.777314   1.000000
     28        -39.777314   1.000000
     29        -39.777314   1.000000
     30        -39.776815   1.000000
     31        -39.776815   1.000000
     32        -39.776815   1.000000
     33        -39.766428   1.000000
     34        -39.766428   1.000000
     35        -39.766428   1.000000
     36        -39.766428   1.000000
     37        -39.766428   1.000000
     38        -39.766428   1.000000
     39        -39.766428   1.000000
     40        -39.766428   1.000000
     41        -39.766428   1.000000
     42        -39.766428   1.000000
     43        -39.766428   1.000000
     44        -39.766428   1.000000
     45        -39.764852   1.000000
     46        -39.764852   1.000000
     47        -39.764852   1.000000
     48        -39.764852   1.000000
     49        -39.764852   1.000000
     50        -39.764852   1.000000
     51        -39.764852   1.000000
     52        -39.764852   1.000000
     53        -39.764852   1.000000
     54        -39.764852   1.000000
     55        -39.764852   1.000000
     56        -39.764852   1.000000
     57        -39.764576   1.000000
     58        -39.764576   1.000000
     59        -39.764576   1.000000
     60        -39.764576   1.000000
     61        -39.764576   1.000000
     62        -39.764576   1.000000
     63        -39.760577   1.000000
     64        -39.740144   1.000000
     65        -39.740144   1.000000
     66        -39.740144   1.000000
     67        -39.740144   1.000000
     68        -39.740144   1.000000
     69        -39.740144   1.000000
     70        -39.739950   1.000000
     71        -39.739950   1.000000
     72        -39.739950   1.000000
     73        -39.739950   1.000000
     74        -39.739950   1.000000
     75        -39.739950   1.000000
     76        -39.739950   1.000000
     77        -39.739950   1.000000
     78        -39.739950   1.000000
     79        -39.739950   1.000000
     80        -39.739950   1.000000
     81        -39.739950   1.000000
     82        -39.738284   1.000000
     83        -39.738284   1.000000
     84        -39.738284   1.000000
     85        -39.738284   1.000000
     86        -39.738284   1.000000
     87        -39.738284   1.000000
     88        -39.727946   1.000000
     89        -39.727946   1.000000
     90        -39.727946   1.000000
     91        -39.727504   1.000000
     92        -39.727504   1.000000
     93        -39.727504   1.000000
     94        -39.727504   1.000000
     95        -39.727504   1.000000
     96        -39.727504   1.000000
     97        -18.422272   1.000000
     98        -18.338753   1.000000
     99        -18.338753   1.000000
    100        -18.338753   1.000000
    101        -18.338753   1.000000
    102        -18.338753   1.000000
    103        -18.338753   1.000000
    104        -18.251580   1.000000
    105        -18.251580   1.000000
    106        -18.251580   1.000000
    107        -18.251580   1.000000
    108        -18.251580   1.000000
    109        -18.251580   1.000000
    110        -18.251057   1.000000
    111        -18.251057   1.000000
    112        -18.251056   1.000000
    113        -18.242515   1.000000
    114        -18.242515   1.000000
    115        -18.242515   1.000000
    116        -18.242515   1.000000
    117        -18.242515   1.000000
    118        -18.242515   1.000000
    119        -18.209574   1.000000
    120        -18.209574   1.000000
    121        -18.209574   1.000000
    122        -18.209574   1.000000
    123        -18.209574   1.000000
    124        -18.209574   1.000000
    125        -18.209574   1.000000
    126        -18.209574   1.000000
    127        -18.209574   1.000000
    128        -18.209574   1.000000
    129        -18.209574   1.000000
    130        -18.209574   1.000000
    131        -18.188394   1.000000
    132        -18.188394   1.000000
    133        -18.171205   1.000000
    134        -18.171205   1.000000
    135        -18.171205   1.000000
    136        -18.171205   1.000000
    137        -18.171205   1.000000
    138        -18.171205   1.000000
    139        -18.171205   1.000000
    140        -18.171205   1.000000
    141        -18.171205   1.000000
    142        -18.171205   1.000000
    143        -18.171205   1.000000
    144        -18.171205   1.000000
    145        -18.166310   1.000000
    146        -18.166310   1.000000
    147        -18.166310   1.000000
    148        -18.166310   1.000000
    149        -18.166310   1.000000
    150        -18.166310   1.000000
    151        -18.166310   1.000000
    152        -18.166310   1.000000
    153        -18.166310   1.000000
    154        -18.166310   1.000000
    155        -18.166310   1.000000
    156        -18.166310   1.000000
    157        -18.106782   1.000000
    158        -18.106782   1.000000
    159        -18.106782   1.000000
    160        -18.106782   1.000000
    161        -18.106782   1.000000
    162        -18.106782   1.000000
    163        -18.083816   1.000000
    164        -18.083816   1.000000
    165        -18.083816   1.000000
    166        -18.032301   1.000000
    167        -18.032301   1.000000
    168        -18.032301   1.000000
    169        -18.032301   1.000000
    170        -18.032301   1.000000
    171        -18.032301   1.000000
    172        -18.002237   1.000000
    173        -18.002237   1.000000
    174        -18.002237   1.000000
    175        -18.002237   1.000000
    176        -18.002237   1.000000
    177        -18.002237   1.000000
    178        -17.997919   1.000000
    179        -17.997919   1.000000
    180        -17.997919   1.000000
    181        -17.944965   1.000000
    182        -17.944965   1.000000
    183        -17.944965   1.000000
    184        -17.944965   1.000000
    185        -17.944965   1.000000
    186        -17.944965   1.000000
    187        -17.944965   1.000000
    188        -17.944965   1.000000
    189        -17.944965   1.000000
    190        -17.944965   1.000000
    191        -17.944965   1.000000
    192        -17.944965   1.000000
    193        -17.909683   1.000000
    194        -17.909683   1.000000
    195        -17.909683   1.000000
    196        -17.909683   1.000000
    197        -17.909683   1.000000
    198        -17.909683   1.000000
    199        -17.887540   1.000000
    200        -17.887540   1.000000
    201        -17.887540   1.000000
    202        -17.887540   1.000000
    203        -17.887540   1.000000
    204        -17.887540   1.000000
    205        -17.887540   1.000000
    206        -17.887540   1.000000
    207        -17.887540   1.000000
    208        -17.887540   1.000000
    209        -17.887540   1.000000
    210        -17.887540   1.000000
    211        -17.830679   1.000000
    212        -17.830679   1.000000
    213        -17.830679   1.000000
    214        -17.830679   1.000000
    215        -17.830679   1.000000
    216        -17.830679   1.000000
    217        -17.805094   1.000000
    218        -17.805094   1.000000
    219        -17.805094   1.000000
    220        -17.805094   1.000000
    221        -17.805094   1.000000
    222        -17.805094   1.000000
    223        -17.805094   1.000000
    224        -17.805094   1.000000
    225        -17.805094   1.000000
    226        -17.805094   1.000000
    227        -17.805094   1.000000
    228        -17.805094   1.000000
    229        -17.782754   1.000000
    230        -17.782754   1.000000
    231        -17.782754   1.000000
    232        -17.782754   1.000000
    233        -17.782754   1.000000
    234        -17.782754   1.000000
    235        -17.770258   1.000000
    236        -17.770258   1.000000
    237        -17.770258   1.000000
    238        -17.770258   1.000000
    239        -17.770258   1.000000
    240        -17.770258   1.000000
    241        -17.769617   1.000000
    242        -17.769617   1.000000
    243        -17.769617   1.000000
    244        -17.767098   1.000000
    245        -17.767098   1.000000
    246        -17.767098   1.000000
    247        -17.767098   1.000000
    248        -17.767098   1.000000
    249        -17.767098   1.000000
    250        -17.767098   1.000000
    251        -17.767098   1.000000
    252        -17.767098   1.000000
    253        -17.767098   1.000000
    254        -17.767098   1.000000
    255        -17.767098   1.000000
    256        -17.711875   1.000000
    257        -17.711875   1.000000
    258        -17.711875   1.000000
    259        -17.711875   1.000000
    260        -17.711875   1.000000
    261        -17.711875   1.000000
    262        -17.697094   1.000000
    263        -17.697094   1.000000
    264        -17.687038   1.000000
    265        -17.687038   1.000000
    266        -17.687038   1.000000
    267        -17.687038   1.000000
    268        -17.687038   1.000000
    269        -17.687038   1.000000
    270        -17.681147   1.000000
    271        -17.681147   1.000000
    272        -17.681147   1.000000
    273        -17.676608   1.000000
    274        -17.676608   1.000000
    275        -17.676608   1.000000
    276        -17.676608   1.000000
    277        -17.676608   1.000000
    278        -17.676608   1.000000
    279        -17.674800   1.000000
    280        -17.674800   1.000000
    281        -17.674800   1.000000
    282        -17.674800   1.000000
    283        -17.674800   1.000000
    284        -17.674800   1.000000
    285        -17.674800   1.000000
    286        -17.674800   1.000000
    287        -17.674799   1.000000
    288        -17.674799   1.000000
    289        -17.674799   1.000000
    290        -17.674799   1.000000
    291        -17.671234   1.000000
    292        -17.671234   1.000000
    293        -17.671234   1.000000
    294        -17.671234   1.000000
    295        -17.671234   1.000000
    296        -17.671234   1.000000
    297        -17.636545   1.000000
    298        -17.636545   1.000000
    299        -17.636545   1.000000
    300        -17.636545   1.000000
    301        -17.636545   1.000000
    302        -17.636545   1.000000
    303        -17.623517   1.000000
    304        -17.623517   1.000000
    305        -17.623517   1.000000
    306        -17.623517   1.000000
    307        -17.623517   1.000000
    308        -17.623517   1.000000
    309        -17.623517   1.000000
    310        -17.623517   1.000000
    311        -17.623517   1.000000
    312        -17.623517   1.000000
    313        -17.623517   1.000000
    314        -17.623517   1.000000
    315        -17.594215   1.000000
    316        -17.594215   1.000000
    317        -17.594215   1.000000
    318        -17.594215   1.000000
    319        -17.594215   1.000000
    320        -17.594215   1.000000
    321        -17.581534   1.000000
    322        -17.581534   1.000000
    323        -17.581534   1.000000
    324        -17.581534   1.000000
    325        -17.581534   1.000000
    326        -17.581534   1.000000
    327        -17.581534   1.000000
    328        -17.581534   1.000000
    329        -17.581534   1.000000
    330        -17.581534   1.000000
    331        -17.581534   1.000000
    332        -17.581534   1.000000
    333        -17.571992   1.000000
    334        -17.571992   1.000000
    335        -17.571992   1.000000
    336        -17.571992   1.000000
    337        -17.571992   1.000000
    338        -17.571992   1.000000
    339        -17.571992   1.000000
    340        -17.571992   1.000000
    341        -17.571992   1.000000
    342        -17.571992   1.000000
    343        -17.571992   1.000000
    344        -17.571992   1.000000
    345        -17.564028   1.000000
    346        -17.564028   1.000000
    347        -17.534254   1.000000
    348        -17.534253   1.000000
    349        -17.534253   1.000000
    350        -17.530021   1.000000
    351        -17.530021   1.000000
    352        -17.530021   1.000000
    353        -17.530021   1.000000
    354        -17.526694   1.000000
    355        -17.526694   1.000000
    356        -17.526694   1.000000
    357        -17.526694   1.000000
    358        -17.526694   1.000000
    359        -17.526694   1.000000
    360        -17.526694   1.000000
    361        -17.526694   1.000000
    362        -17.526694   1.000000
    363        -17.526694   1.000000
    364        -17.526694   1.000000
    365        -17.526694   1.000000
    366        -17.518643   1.000000
    367        -17.518643   1.000000
    368        -17.518643   1.000000
    369        -17.518643   1.000000
    370        -17.518643   1.000000
    371        -17.518643   1.000000
    372        -17.477571   1.000000
    373        -17.477571   1.000000
    374        -17.477571   1.000000
    375        -17.477571   1.000000
    376        -17.477571   1.000000
    377        -17.477571   1.000000
    378        -17.461416   1.000000
    379        -17.461416   1.000000
    380        -17.461416   1.000000
    381        -17.461416   1.000000
    382        -17.437876   1.000000
    383        -17.426837   1.000000
    384        -17.426837   1.000000
    385          3.289182   1.000000
    386          4.147008   1.000000
    387          4.147008   1.000000
    388          4.808925   1.000000
    389          4.808925   1.000000
    390          4.808925   1.000000
    391          4.808925   1.000000
    392          4.808925   1.000000
    393          4.808925   1.000000
    394          5.387580   1.000000
    395          5.387580   1.000000
    396          5.387580   1.000000
    397          5.387580   1.000000
    398          5.387580   1.000000
    399          5.387580   1.000000
    400          5.387580   1.000000
    401          5.387580   1.000000
    402          5.387580   1.000000
    403          5.387580   1.000000
    404          5.387580   1.000000
    405          5.387580   1.000000
    406          5.654000   1.000000
    407          5.654000   1.000000
    408          5.903384   1.000000
    409          5.903384   1.000000
    410          5.903384   1.000000
    411          5.903384   1.000000
    412          5.903384   1.000000
    413          5.903384   1.000000
    414          5.918497   1.000000
    415          6.392423   1.000000
    416          6.392423   1.000000
    417          6.392423   1.000000
    418          6.420010   1.000000
    419          6.420010   1.000000
    420          6.420010   1.000000
    421          6.420010   1.000000
    422          6.420010   1.000000
    423          6.420010   1.000000
    424          6.437093   1.000000
    425          6.437093   1.000000
    426          6.437093   1.000000
    427          6.715362   1.000000
    428          6.715362   1.000000
    429          6.715362   1.000000
    430          6.715362   1.000000
    431          6.715362   1.000000
    432          6.715362   1.000000
    433          6.715362   1.000000
    434          6.715362   1.000000
    435          6.715362   1.000000
    436          6.715362   1.000000
    437          6.715362   1.000000
    438          6.715362   1.000000
    439          6.786437   1.000000
    440          6.786437   1.000000
    441          6.786437   1.000000
    442          6.786437   1.000000
    443          6.786437   1.000000
    444          6.786437   1.000000
    445          6.786437   1.000000
    446          6.786437   1.000000
    447          6.786437   1.000000
    448          6.786437   1.000000
    449          6.786437   1.000000
    450          6.786437   1.000000
    451          6.808900   1.000000
    452          6.808900   1.000000
    453          6.808900   1.000000
    454          6.858974   1.000000
    455          6.858974   1.000000
    456          6.858974   1.000000
    457          6.858974   1.000000
    458          6.858974   1.000000
    459          6.858974   1.000000
    460          6.898906   1.000000
    461          6.898906   1.000000
    462          6.898906   1.000000
    463          6.898906   1.000000
    464          6.898906   1.000000
    465          6.898906   1.000000
    466          6.898906   1.000000
    467          6.898906   1.000000
    468          6.898906   1.000000
    469          6.898906   1.000000
    470          6.898906   1.000000
    471          6.898906   1.000000
    472          6.927936   1.000000
    473          6.927936   1.000000
    474          6.927936   1.000000
    475          6.927936   1.000000
    476          6.927936   1.000000
    477          6.927936   1.000000
    478          7.033772   1.000000
    479          7.033772   1.000000
    480          7.033772   1.000000
    481          7.033772   1.000000
    482          7.033772   1.000000
    483          7.033772   1.000000
    484          7.569394   1.000000
    485          7.569394   1.000000
    486          7.569394   1.000000
    487          7.569394   1.000000
    488          7.569394   1.000000
    489          7.569394   1.000000
    490          7.671369   1.000000
    491          7.671369   1.000000
    492          7.671369   1.000000
    493          7.671369   1.000000
    494          7.671369   1.000000
    495          7.671369   1.000000
    496          7.686108   1.000000
    497          7.686108   1.000000
    498          7.686108   1.000000
    499          7.686108   1.000000
    500          7.686108   1.000000
    501          7.686108   1.000000
    502          7.763965   1.000000
    503          7.763965   1.000000
    504          7.763965   1.000000
    505          7.763965   1.000000
    506          7.763965   1.000000
    507          7.763965   1.000000
    508          7.763965   1.000000
    509          7.763965   1.000000
    510          7.763965   1.000000
    511          7.763965   1.000000
    512          7.763965   1.000000
    513          7.763965   1.000000
    514          7.863200   1.000000
    515          7.863200   1.000000
    516          7.863200   1.000000
    517          7.863200   1.000000
    518          7.863200   1.000000
    519          7.863200   1.000000
    520          7.863200   1.000000
    521          7.863200   1.000000
    522          7.863200   1.000000
    523          7.863200   1.000000
    524          7.863200   1.000000
    525          7.863200   1.000000
    526          8.010424   1.000000
    527          8.010424   1.000000
    528          8.010424   1.000000
    529          8.010424   1.000000
    530          8.010424   1.000000
    531          8.010424   1.000000
    532          8.039678   1.000000
    533          8.039678   1.000000
    534          8.039678   1.000000
    535          8.039678   1.000000
    536          8.039678   1.000000
    537          8.039678   1.000000
    538          8.358436   1.000103
    539          8.358436   1.000103
    540          8.358436   1.000103
    541          8.358436   1.000103
    542          8.358436   1.000103
    543          8.358436   1.000103
    544          8.358436   1.000103
    545          8.358436   1.000103
    546          8.358436   1.000103
    547          8.358436   1.000103
    548          8.358436   1.000103
    549          8.358436   1.000103
    550          8.418709   1.000497
    551          8.418709   1.000497
    552          8.418709   1.000497
    553          8.418709   1.000497
    554          8.418709   1.000497
    555          8.418709   1.000497
    556          8.591423   1.013778
    557          8.591423   1.013778
    558          8.591423   1.013778
    559          8.591423   1.013778
    560          8.591423   1.013778
    561          8.591423   1.013778
    562          8.591423   1.013778
    563          8.591423   1.013778
    564          8.591423   1.013778
    565          8.591423   1.013778
    566          8.591423   1.013778
    567          8.591423   1.013778
    568          8.722297   1.034817
    569          8.722297   1.034817
    570          8.722297   1.034817
    571          8.888694   0.763750
    572          8.888694   0.763750
    573          8.888694   0.763750
    574          8.888694   0.763750
    575          8.888694   0.763750
    576          8.888694   0.763750
    577          8.888694   0.763750
    578          8.888694   0.763750
    579          8.888694   0.763750
    580          8.888694   0.763750
    581          8.888694   0.763750
    582          8.888694   0.763750
    583          9.056982   0.124162
    584          9.056982   0.124162
    585          9.066763   0.099009
    586          9.066763   0.099009
    587          9.066763   0.099009
    588          9.066763   0.099009
    589          9.066763   0.099009
    590          9.066763   0.099009
    591          9.115863   0.008695
    592          9.115863   0.008695
    593          9.115863   0.008695
    594          9.115863   0.008695
    595          9.115863   0.008695
    596          9.115863   0.008695
    597          9.115863   0.008695
    598          9.115863   0.008695
    599          9.115863   0.008695
    600          9.115863   0.008695
    601          9.115863   0.008695
    602          9.115863   0.008695
    603          9.168893  -0.030956
    604          9.168893  -0.030956
    605          9.168893  -0.030956
    606          9.168893  -0.030956
    607          9.168893  -0.030956
    608          9.168893  -0.030956
    609          9.168893  -0.030956
    610          9.168893  -0.030956
    611          9.168894  -0.030956
    612          9.168894  -0.030956
    613          9.168894  -0.030956
    614          9.168894  -0.030956
    615          9.332655  -0.011255
    616          9.332655  -0.011255
    617          9.492601  -0.000478
    618          9.492601  -0.000478
    619          9.492601  -0.000478
    620          9.616689  -0.000015
    621          9.616689  -0.000015
    622          9.616689  -0.000015
    623          9.616689  -0.000015
    624          9.626097  -0.000011
    625          9.626097  -0.000011
    626          9.626097  -0.000011
    627          9.626097  -0.000011
    628          9.626097  -0.000011
    629          9.626097  -0.000011
    630          9.700170  -0.000001
    631          9.700170  -0.000001
    632          9.700170  -0.000001
    633          9.770317  -0.000000
    634          9.770317  -0.000000
    635          9.770317  -0.000000
    636          9.770317  -0.000000
    637          9.770317  -0.000000
    638          9.770318  -0.000000
    639          9.805787  -0.000000
    640          9.805787  -0.000000
    641          9.852545  -0.000000
    642          9.852545  -0.000000
    643          9.852546  -0.000000
    644          9.852546  -0.000000
    645          9.852546  -0.000000
    646          9.852546  -0.000000
    647          9.852546  -0.000000
    648          9.852547  -0.000000
    649          9.852548  -0.000000
    650          9.852548  -0.000000
    651          9.852550  -0.000000
    652          9.852552  -0.000000
    653          9.923426  -0.000000
    654          9.989926  -0.000000
    655          9.989938  -0.000000
    656          9.989948  -0.000000
    657          9.989988  -0.000000
    658         10.053858  -0.000000
    659         10.053863  -0.000000
    660         10.053870  -0.000000
    661         10.053887  -0.000000
    662         10.053912  -0.000000
    663         10.053971  -0.000000
    664         10.066942  -0.000000
    665         10.130519  -0.000000
    666         10.130640  -0.000000
    667         10.130973  -0.000000
    668         10.131050  -0.000000
    669         10.131787  -0.000000
    670         10.132717  -0.000000
    671         10.198170  -0.000000
    672         10.198681  -0.000000
    673         10.199254  -0.000000
    674         10.199992  -0.000000
    675         10.200473  -0.000000
    676         10.203509  -0.000000
    677         10.215886  -0.000000
    678         10.216298  -0.000000
    679         10.216955  -0.000000
    680         10.217358  -0.000000
    681         10.217828  -0.000000
    682         10.219310  -0.000000
    683         10.250439  -0.000000
    684         10.250892  -0.000000
    685         10.251969  -0.000000
    686         10.252817  -0.000000
    687         10.257205  -0.000000
    688         10.258705  -0.000000
    689         10.265510  -0.000000
    690         10.265600  -0.000000
    691         10.266065  -0.000000
    692         10.266755  -0.000000
    693         10.267625  -0.000000
    694         10.270874  -0.000000
    695         10.273877  -0.000000
    696         10.277702  -0.000000
    697         10.284192  -0.000000
    698         10.290387  -0.000000
    699         10.322545  -0.000000
    700         10.349466  -0.000000
    701         10.374897  -0.000000
    702         10.375870  -0.000000
    703         10.376270  -0.000000
    704         10.381578  -0.000000
 
  0.2000000E+00  0.1972964E-16  0.0000000E+00  0.6000000E-01
      1        -39.907354   1.000000
      2        -39.870830   1.000000
      3        -39.870830   1.000000
      4        -39.869237   1.000000
      5        -39.858143   1.000000
      6        -39.858143   1.000000
      7        -39.838375   1.000000
      8        -39.838375   1.000000
      9        -39.838322   1.000000
     10        -39.838322   1.000000
     11        -39.829643   1.000000
     12        -39.829082   1.000000
     13        -39.829082   1.000000
     14        -39.829082   1.000000
     15        -39.829082   1.000000
     16        -39.812684   1.000000
     17        -39.812684   1.000000
     18        -39.812684   1.000000
     19        -39.812684   1.000000
     20        -39.805604   1.000000
     21        -39.805604   1.000000
     22        -39.796855   1.000000
     23        -39.796855   1.000000
     24        -39.792565   1.000000
     25        -39.792565   1.000000
     26        -39.781302   1.000000
     27        -39.777267   1.000000
     28        -39.777267   1.000000
     29        -39.776867   1.000000
     30        -39.776867   1.000000
     31        -39.776263   1.000000
     32        -39.776263   1.000000
     33        -39.776263   1.000000
     34        -39.776263   1.000000
     35        -39.776047   1.000000
     36        -39.776047   1.000000
     37        -39.770434   1.000000
     38        -39.770434   1.000000
     39        -39.770434   1.000000
     40        -39.770434   1.000000
     41        -39.767857   1.000000
     42        -39.767857   1.000000
     43        -39.764829   1.000000
     44        -39.764829   1.000000
     45        -39.764829   1.000000
     46        -39.764829   1.000000
     47        -39.764611   1.000000
     48        -39.764611   1.000000
     49        -39.764611   1.000000
     50        -39.764611   1.000000
     51        -39.764171   1.000000
     52        -39.764171   1.000000
     53        -39.761030   1.000000
     54        -39.761030   1.000000
     55        -39.761030   1.000000
     56        -39.761030   1.000000
     57        -39.759395   1.000000
     58        -39.757225   1.000000
     59        -39.757225   1.000000
     60        -39.755530   1.000000
     61        -39.755530   1.000000
     62        -39.755530   1.000000
     63        -39.755530   1.000000
     64        -39.744579   1.000000
     65        -39.743606   1.000000
     66        -39.743606   1.000000
     67        -39.743606   1.000000
     68        -39.743606   1.000000
     69        -39.740994   1.000000
     70        -39.740994   1.000000
     71        -39.740846   1.000000
     72        -39.740846   1.000000
     73        -39.740129   1.000000
     74        -39.740129   1.000000
     75        -39.740129   1.000000
     76        -39.740129   1.000000
     77        -39.739971   1.000000
     78        -39.739971   1.000000
     79        -39.739971   1.000000
     80        -39.739971   1.000000
     81        -39.738321   1.000000
     82        -39.738321   1.000000
     83        -39.738321   1.000000
     84        -39.738321   1.000000
     85        -39.735010   1.000000
     86        -39.735010   1.000000
     87        -39.732862   1.000000
     88        -39.729758   1.000000
     89        -39.729758   1.000000
     90        -39.727898   1.000000
     91        -39.727898   1.000000
     92        -39.727577   1.000000
     93        -39.727546   1.000000
     94        -39.727546   1.000000
     95        -39.727246   1.000000
     96        -39.727246   1.000000
     97        -18.414719   1.000000
     98        -18.330065   1.000000
     99        -18.330065   1.000000
    100        -18.330065   1.000000
    101        -18.330065   1.000000
    102        -18.326380   1.000000
    103        -18.326380   1.000000
    104        -18.308697   1.000000
    105        -18.276257   1.000000
    106        -18.276257   1.000000
    107        -18.242057   1.000000
    108        -18.242057   1.000000
    109        -18.234776   1.000000
    110        -18.234776   1.000000
    111        -18.234776   1.000000
    112        -18.234776   1.000000
    113        -18.234546   1.000000
    114        -18.230211   1.000000
    115        -18.230211   1.000000
    116        -18.230210   1.000000
    117        -18.230210   1.000000
    118        -18.228329   1.000000
    119        -18.228329   1.000000
    120        -18.215948   1.000000
    121        -18.215948   1.000000
    122        -18.210827   1.000000
    123        -18.210827   1.000000
    124        -18.210827   1.000000
    125        -18.210827   1.000000
    126        -18.208809   1.000000
    127        -18.208809   1.000000
    128        -18.208809   1.000000
    129        -18.208809   1.000000
    130        -18.199602   1.000000
    131        -18.199602   1.000000
    132        -18.188399   1.000000
    133        -18.185574   1.000000
    134        -18.185574   1.000000
    135        -18.181746   1.000000
    136        -18.181746   1.000000
    137        -18.181746   1.000000
    138        -18.181746   1.000000
    139        -18.172965   1.000000
    140        -18.172965   1.000000
    141        -18.172965   1.000000
    142        -18.172965   1.000000
    143        -18.169081   1.000000
    144        -18.169081   1.000000
    145        -18.169081   1.000000
    146        -18.169081   1.000000
    147        -18.164509   1.000000
    148        -18.164509   1.000000
    149        -18.164509   1.000000
    150        -18.164509   1.000000
    151        -18.163465   1.000000
    152        -18.163465   1.000000
    153        -18.139427   1.000000
    154        -18.139427   1.000000
    155        -18.139427   1.000000
    156        -18.139427   1.000000
    157        -18.132647   1.000000
    158        -18.132647   1.000000
    159        -18.132186   1.000000
    160        -18.132186   1.000000
    161        -18.077357   1.000000
    162        -18.077357   1.000000
    163        -18.075713   1.000000
    164        -18.075713   1.000000
    165        -18.068997   1.000000
    166        -18.061395   1.000000
    167        -18.061395   1.000000
    168        -18.038061   1.000000
    169        -18.038061   1.000000
    170        -18.023688   1.000000
    171        -18.023688   1.000000
    172        -18.022353   1.000000
    173        -18.022353   1.000000
    174        -18.016310   1.000000
    175        -18.015922   1.000000
    176        -18.014455   1.000000
    177        -18.014455   1.000000
    178        -18.001831   1.000000
    179        -18.001831   1.000000
    180        -17.998338   1.000000
    181        -17.998338   1.000000
    182        -17.995915   1.000000
    183        -17.995915   1.000000
    184        -17.995915   1.000000
    185        -17.995915   1.000000
    186        -17.962564   1.000000
    187        -17.962564   1.000000
    188        -17.945731   1.000000
    189        -17.945731   1.000000
    190        -17.943239   1.000000
    191        -17.943239   1.000000
    192        -17.943239   1.000000
    193        -17.943239   1.000000
    194        -17.904461   1.000000
    195        -17.904461   1.000000
    196        -17.904461   1.000000
    197        -17.904461   1.000000
    198        -17.883073   1.000000
    199        -17.883073   1.000000
    200        -17.881006   1.000000
    201        -17.881006   1.000000
    202        -17.881006   1.000000
    203        -17.881006   1.000000
    204        -17.869819   1.000000
    205        -17.856598   1.000000
    206        -17.856598   1.000000
    207        -17.854281   1.000000
    208        -17.854281   1.000000
    209        -17.834326   1.000000
    210        -17.834326   1.000000
    211        -17.832917   1.000000
    212        -17.832917   1.000000
    213        -17.831208   1.000000
    214        -17.831208   1.000000
    215        -17.831208   1.000000
    216        -17.831208   1.000000
    217        -17.828514   1.000000
    218        -17.828514   1.000000
    219        -17.828514   1.000000
    220        -17.828514   1.000000
    221        -17.803059   1.000000
    222        -17.800748   1.000000
    223        -17.800748   1.000000
    224        -17.795230   1.000000
    225        -17.795230   1.000000
    226        -17.795230   1.000000
    227        -17.795230   1.000000
    228        -17.788272   1.000000
    229        -17.788272   1.000000
    230        -17.786420   1.000000
    231        -17.786420   1.000000
    232        -17.786420   1.000000
    233        -17.786420   1.000000
    234        -17.785317   1.000000
    235        -17.785317   1.000000
    236        -17.785317   1.000000
    237        -17.785317   1.000000
    238        -17.782806   1.000000
    239        -17.782806   1.000000
    240        -17.782806   1.000000
    241        -17.782806   1.000000
    242        -17.782073   1.000000
    243        -17.782073   1.000000
    244        -17.777828   1.000000
    245        -17.777828   1.000000
    246        -17.764940   1.000000
    247        -17.741420   1.000000
    248        -17.741420   1.000000
    249        -17.741420   1.000000
    250        -17.741420   1.000000
    251        -17.741170   1.000000
    252        -17.741170   1.000000
    253        -17.726801   1.000000
    254        -17.726801   1.000000
    255        -17.721111   1.000000
    256        -17.721111   1.000000
    257        -17.710335   1.000000
    258        -17.710335   1.000000
    259        -17.708289   1.000000
    260        -17.708289   1.000000
    261        -17.708288   1.000000
    262        -17.708288   1.000000
    263        -17.707635   1.000000
    264        -17.707635   1.000000
    265        -17.704644   1.000000
    266        -17.704644   1.000000
    267        -17.702330   1.000000
    268        -17.686088   1.000000
    269        -17.686088   1.000000
    270        -17.680709   1.000000
    271        -17.680709   1.000000
    272        -17.677037   1.000000
    273        -17.677037   1.000000
    274        -17.675795   1.000000
    275        -17.675795   1.000000
    276        -17.675795   1.000000
    277        -17.675795   1.000000
    278        -17.670299   1.000000
    279        -17.670299   1.000000
    280        -17.670299   1.000000
    281        -17.670299   1.000000
    282        -17.667849   1.000000
    283        -17.667252   1.000000
    284        -17.664411   1.000000
    285        -17.664411   1.000000
    286        -17.661565   1.000000
    287        -17.661565   1.000000
    288        -17.661565   1.000000
    289        -17.661565   1.000000
    290        -17.651246   1.000000
    291        -17.651246   1.000000
    292        -17.649990   1.000000
    293        -17.649990   1.000000
    294        -17.649990   1.000000
    295        -17.649990   1.000000
    296        -17.649968   1.000000
    297        -17.649968   1.000000
    298        -17.649968   1.000000
    299        -17.649968   1.000000
    300        -17.646142   1.000000
    301        -17.646142   1.000000
    302        -17.639348   1.000000
    303        -17.634746   1.000000
    304        -17.634746   1.000000
    305        -17.633936   1.000000
    306        -17.633936   1.000000
    307        -17.631603   1.000000
    308        -17.631603   1.000000
    309        -17.621967   1.000000
    310        -17.621967   1.000000
    311        -17.621967   1.000000
    312        -17.621967   1.000000
    313        -17.595323   1.000000
    314        -17.595323   1.000000
    315        -17.594583   1.000000
    316        -17.594583   1.000000
    317        -17.594583   1.000000
    318        -17.594583   1.000000
    319        -17.590893   1.000000
    320        -17.590893   1.000000
    321        -17.590053   1.000000
    322        -17.590053   1.000000
    323        -17.590053   1.000000
    324        -17.590053   1.000000
    325        -17.588687   1.000000
    326        -17.588687   1.000000
    327        -17.581713   1.000000
    328        -17.581713   1.000000
    329        -17.581713   1.000000
    330        -17.581713   1.000000
    331        -17.580982   1.000000
    332        -17.579215   1.000000
    333        -17.579215   1.000000
    334        -17.579215   1.000000
    335        -17.579215   1.000000
    336        -17.570230   1.000000
    337        -17.570230   1.000000
    338        -17.570230   1.000000
    339        -17.570230   1.000000
    340        -17.569610   1.000000
    341        -17.558131   1.000000
    342        -17.558131   1.000000
    343        -17.558131   1.000000
    344        -17.558131   1.000000
    345        -17.553787   1.000000
    346        -17.552203   1.000000
    347        -17.552203   1.000000
    348        -17.547439   1.000000
    349        -17.547439   1.000000
    350        -17.544866   1.000000
    351        -17.544866   1.000000
    352        -17.544539   1.000000
    353        -17.544539   1.000000
    354        -17.540846   1.000000
    355        -17.540846   1.000000
    356        -17.540846   1.000000
    357        -17.540846   1.000000
    358        -17.538044   1.000000
    359        -17.538044   1.000000
    360        -17.534778   1.000000
    361        -17.534778   1.000000
    362        -17.531407   1.000000
    363        -17.521600   1.000000
    364        -17.521600   1.000000
    365        -17.521600   1.000000
    366        -17.521600   1.000000
    367        -17.506137   1.000000
    368        -17.506137   1.000000
    369        -17.505723   1.000000
    370        -17.505723   1.000000
    371        -17.495345   1.000000
    372        -17.495345   1.000000
    373        -17.494689   1.000000
    374        -17.489445   1.000000
    375        -17.477247   1.000000
    376        -17.477247   1.000000
    377        -17.471305   1.000000
    378        -17.471305   1.000000
    379        -17.464496   1.000000
    380        -17.464496   1.000000
    381        -17.460968   1.000000
    382        -17.444498   1.000000
    383        -17.441056   1.000000
    384        -17.429052   1.000000
    385          3.359587   1.000000
    386          4.210754   1.000000
    387          4.210754   1.000000
    388          4.320820   1.000000
    389          4.606164   1.000000
    390          4.606164   1.000000
    391          5.029934   1.000000
    392          5.029934   1.000000
    393          5.107471   1.000000
    394          5.107471   1.000000
    395          5.251871   1.000000
    396          5.251871   1.000000
    397          5.251871   1.000000
    398          5.251871   1.000000
    399          5.308687   1.000000
    400          5.589003   1.000000
    401          5.589003   1.000000
    402          5.589003   1.000000
    403          5.589003   1.000000
    404          5.682427   1.000000
    405          5.682427   1.000000
    406          5.721122   1.000000
    407          5.721122   1.000000
    408          5.909837   1.000000
    409          5.909837   1.000000
    410          5.950588   1.000000
    411          5.950588   1.000000
    412          5.950588   1.000000
    413          5.950588   1.000000
    414          5.983629   1.000000
    415          6.296843   1.000000
    416          6.413384   1.000000
    417          6.413384   1.000000
    418          6.419932   1.000000
    419          6.419932   1.000000
    420          6.445583   1.000000
    421          6.445583   1.000000
    422          6.472407   1.000000
    423          6.472407   1.000000
    424          6.472407   1.000000
    425          6.472407   1.000000
    426          6.481151   1.000000
    427          6.481151   1.000000
    428          6.481151   1.000000
    429          6.481151   1.000000
    430          6.510917   1.000000
    431          6.511393   1.000000
    432          6.511393   1.000000
    433          6.515105   1.000000
    434          6.515105   1.000000
    435          6.568442   1.000000
    436          6.568442   1.000000
    437          6.568442   1.000000
    438          6.568442   1.000000
    439          6.679144   1.000000
    440          6.679144   1.000000
    441          6.679144   1.000000
    442          6.679144   1.000000
    443          6.720827   1.000000
    444          6.720827   1.000000
    445          6.739256   1.000000
    446          6.780723   1.000000
    447          6.780723   1.000000
    448          6.780723   1.000000
    449          6.780723   1.000000
    450          6.798121   1.000000
    451          6.798121   1.000000
    452          6.827501   1.000000
    453          6.827501   1.000000
    454          6.861169   1.000000
    455          6.862503   1.000000
    456          6.862503   1.000000
    457          6.862503   1.000000
    458          6.862503   1.000000
    459          6.898833   1.000000
    460          6.898833   1.000000
    461          6.898833   1.000000
    462          6.898833   1.000000
    463          6.903719   1.000000
    464          6.903719   1.000000
    465          6.917583   1.000000
    466          6.929672   1.000000
    467          6.929672   1.000000
    468          6.996514   1.000000
    469          6.996514   1.000000
    470          6.996514   1.000000
    471          6.996514   1.000000
    472          6.999668   1.000000
    473          6.999668   1.000000
    474          7.008717   1.000000
    475          7.008717   1.000000
    476          7.127998   1.000000
    477          7.127998   1.000000
    478          7.127998   1.000000
    479          7.127998   1.000000
    480          7.163245   1.000000
    481          7.163245   1.000000
    482          7.181347   1.000000
    483          7.181347   1.000000
    484          7.281353   1.000000
    485          7.281353   1.000000
    486          7.443847   1.000000
    487          7.443847   1.000000
    488          7.498205   1.000000
    489          7.498205   1.000000
    490          7.615523   1.000000
    491          7.651492   1.000000
    492          7.651492   1.000000
    493          7.656973   1.000000
    494          7.656973   1.000000
    495          7.673663   1.000000
    496          7.673663   1.000000
    497          7.673663   1.000000
    498          7.673663   1.000000
    499          7.697941   1.000000
    500          7.697941   1.000000
    501          7.697941   1.000000
    502          7.697941   1.000000
    503          7.738030   1.000000
    504          7.738030   1.000000
    505          7.738031   1.000000
    506          7.738031   1.000000
    507          7.797931   1.000000
    508          7.797931   1.000000
    509          7.801271   1.000000
    510          7.801271   1.000000
    511          7.801271   1.000000
    512          7.801271   1.000000
    513          7.805148   1.000000
    514          7.805148   1.000000
    515          7.831045   1.000000
    516          7.831045   1.000000
    517          7.835495   1.000000
    518          7.835495   1.000000
    519          7.835495   1.000000
    520          7.835495   1.000000
    521          7.856769   1.000000
    522          7.856769   1.000000
    523          7.856769   1.000000
    524          7.856769   1.000000
    525          7.970352   1.000000
    526          7.970352   1.000000
    527          7.975436   1.000000
    528          7.975436   1.000000
    529          8.056708   1.000000
    530          8.056708   1.000000
    531          8.060727   1.000000
    532          8.060727   1.000000
    533          8.060727   1.000000
    534          8.060727   1.000000
    535          8.250691   1.000004
    536          8.250691   1.000004
    537          8.268607   1.000007
    538          8.268607   1.000007
    539          8.268607   1.000007
    540          8.268607   1.000007
    541          8.314142   1.000029
    542          8.314142   1.000029
    543          8.314142   1.000029
    544          8.314142   1.000029
    545          8.331428   1.000048
    546          8.331428   1.000048
    547          8.401603   1.000325
    548          8.422969   1.000551
    549          8.422969   1.000551
    550          8.437576   1.000780
    551          8.437576   1.000780
    552          8.437576   1.000780
    553          8.437576   1.000780
    554          8.469615   1.001599
    555          8.469615   1.001599
    556          8.513168   1.003850
    557          8.513168   1.003850
    558          8.513168   1.003851
    559          8.513168   1.003851
    560          8.525199   1.004809
    561          8.591269   1.013749
    562          8.636786   1.023509
    563          8.636786   1.023509
    564          8.636786   1.023509
    565          8.636786   1.023509
    566          8.667929   1.030437
    567          8.667965   1.030444
    568          8.667965   1.030444
    569          8.776124   1.010297
    570          8.776124   1.010297
    571          8.797560   0.986527
    572          8.797560   0.986527
    573          8.797560   0.986527
    574          8.797560   0.986527
    575          8.898388   0.728759
    576          8.898388   0.728759
    577          8.898388   0.728759
    578          8.898388   0.728759
    579          8.928545   0.610332
    580          8.928545   0.610332
    581          9.066440   0.099801
    582          9.066440   0.099801
    583          9.087233   0.054174
    584          9.087233   0.054174
    585          9.087233   0.054174
    586          9.087233   0.054174
    587          9.105344   0.023163
    588          9.105344   0.023163
    589          9.105344   0.023163
    590          9.105344   0.023163
    591          9.113870   0.011245
    592          9.113870   0.011245
    593          9.118589   0.005348
    594          9.118589   0.005348
    595          9.118589   0.005348
    596          9.118589   0.005348
    597          9.144650  -0.018979
    598          9.144650  -0.018979
    599          9.168250  -0.030749
    600          9.168250  -0.030749
    601          9.168250  -0.030749
    602          9.168250  -0.030749
    603          9.169953  -0.031287
    604          9.169953  -0.031287
    605          9.217274  -0.034418
    606          9.217274  -0.034418
    607          9.217274  -0.034418
    608          9.217274  -0.034418
    609          9.228267  -0.032908
    610          9.228267  -0.032908
    611          9.286195  -0.020474
    612          9.286195  -0.020474
    613          9.286195  -0.020474
    614          9.286195  -0.020474
    615          9.314580  -0.014488
    616          9.314580  -0.014488
    617          9.464335  -0.000935
    618          9.464336  -0.000935
    619          9.520095  -0.000239
    620          9.547130  -0.000116
    621          9.547130  -0.000116
    622          9.562806  -0.000075
    623          9.562806  -0.000075
    624          9.573673  -0.000055
    625          9.621139  -0.000013
    626          9.621139  -0.000013
    627          9.667297  -0.000003
    628          9.667297  -0.000003
    629          9.670800  -0.000003
    630          9.673140  -0.000002
    631          9.673140  -0.000002
    632          9.695184  -0.000001
    633          9.695184  -0.000001
    634          9.722358  -0.000000
    635          9.726084  -0.000000
    636          9.726084  -0.000000
    637          9.726084  -0.000000
    638          9.726084  -0.000000
    639          9.758672  -0.000000
    640          9.758672  -0.000000
    641          9.762451  -0.000000
    642          9.813455  -0.000000
    643          9.813455  -0.000000
    644          9.813455  -0.000000
    645          9.813455  -0.000000
    646          9.818056  -0.000000
    647          9.818056  -0.000000
    648          9.818056  -0.000000
    649          9.818056  -0.000000
    650          9.841570  -0.000000
    651          9.841570  -0.000000
    652          9.870614  -0.000000
    653          9.888290  -0.000000
    654          9.888290  -0.000000
    655          9.913450  -0.000000
    656          9.917288  -0.000000
    657          9.917289  -0.000000
    658          9.921962  -0.000000
    659          9.954596  -0.000000
    660          9.954597  -0.000000
    661          9.978799  -0.000000
    662          9.978800  -0.000000
    663         10.003537  -0.000000
    664         10.003538  -0.000000
    665         10.017632  -0.000000
    666         10.017633  -0.000000
    667         10.040445  -0.000000
    668         10.042416  -0.000000
    669         10.042427  -0.000000
    670         10.045970  -0.000000
    671         10.045990  -0.000000
    672         10.115974  -0.000000
    673         10.165615  -0.000000
    674         10.165766  -0.000000
    675         10.166031  -0.000000
    676         10.166177  -0.000000
    677         10.230276  -0.000000
    678         10.230952  -0.000000
    679         10.240059  -0.000000
    680         10.241054  -0.000000
    681         10.259462  -0.000000
    682         10.260368  -0.000000
    683         10.266080  -0.000000
    684         10.266246  -0.000000
    685         10.322733  -0.000000
    686         10.338886  -0.000000
    687         10.339748  -0.000000
    688         10.341442  -0.000000
    689         10.349861  -0.000000
    690         10.375513  -0.000000
    691         10.379151  -0.000000
    692         10.384741  -0.000000
    693         10.397010  -0.000000
    694         10.399558  -0.000000
    695         10.401724  -0.000000
    696         10.406232  -0.000000
    697         10.408543  -0.000000
    698         10.413403  -0.000000
    699         10.417727  -0.000000
    700         10.423498  -0.000000
    701         10.433453  -0.000000
    702         10.442300  -0.000000
    703         10.455387  -0.000000
    704         10.473008  -0.000000
 
  0.4000000E+00  0.2397958E-16  0.0000000E+00  0.6000000E-01
      1        -39.899114   1.000000
      2        -39.886064   1.000000
      3        -39.863753   1.000000
      4        -39.863753   1.000000
      5        -39.862412   1.000000
      6        -39.862412   1.000000
      7        -39.852617   1.000000
      8        -39.852617   1.000000
      9        -39.832652   1.000000
     10        -39.832652   1.000000
     11        -39.832652   1.000000
     12        -39.832652   1.000000
     13        -39.824210   1.000000
     14        -39.824210   1.000000
     15        -39.810132   1.000000
     16        -39.808588   1.000000
     17        -39.808588   1.000000
     18        -39.801195   1.000000
     19        -39.801195   1.000000
     20        -39.801195   1.000000
     21        -39.801195   1.000000
     22        -39.793269   1.000000
     23        -39.792176   1.000000
     24        -39.792176   1.000000
     25        -39.789962   1.000000
     26        -39.789962   1.000000
     27        -39.788715   1.000000
     28        -39.788715   1.000000
     29        -39.788715   1.000000
     30        -39.788715   1.000000
     31        -39.784967   1.000000
     32        -39.784967   1.000000
     33        -39.777140   1.000000
     34        -39.777140   1.000000
     35        -39.776993   1.000000
     36        -39.776993   1.000000
     37        -39.776854   1.000000
     38        -39.776854   1.000000
     39        -39.772561   1.000000
     40        -39.772561   1.000000
     41        -39.772561   1.000000
     42        -39.772561   1.000000
     43        -39.764761   1.000000
     44        -39.764761   1.000000
     45        -39.764761   1.000000
     46        -39.764761   1.000000
     47        -39.764682   1.000000
     48        -39.764682   1.000000
     49        -39.764682   1.000000
     50        -39.764682   1.000000
     51        -39.755968   1.000000
     52        -39.755313   1.000000
     53        -39.755313   1.000000
     54        -39.754900   1.000000
     55        -39.754900   1.000000
     56        -39.754900   1.000000
     57        -39.754900   1.000000
     58        -39.750777   1.000000
     59        -39.749648   1.000000
     60        -39.749648   1.000000
     61        -39.749648   1.000000
     62        -39.749648   1.000000
     63        -39.749475   1.000000
     64        -39.749475   1.000000
     65        -39.748829   1.000000
     66        -39.748829   1.000000
     67        -39.748829   1.000000
     68        -39.748829   1.000000
     69        -39.743974   1.000000
     70        -39.743974   1.000000
     71        -39.742241   1.000000
     72        -39.742241   1.000000
     73        -39.740078   1.000000
     74        -39.740078   1.000000
     75        -39.740078   1.000000
     76        -39.740078   1.000000
     77        -39.740019   1.000000
     78        -39.740019   1.000000
     79        -39.740019   1.000000
     80        -39.740019   1.000000
     81        -39.738435   1.000000
     82        -39.738435   1.000000
     83        -39.738435   1.000000
     84        -39.738435   1.000000
     85        -39.732890   1.000000
     86        -39.732890   1.000000
     87        -39.731616   1.000000
     88        -39.731616   1.000000
     89        -39.729124   1.000000
     90        -39.728800   1.000000
     91        -39.728800   1.000000
     92        -39.727786   1.000000
     93        -39.727786   1.000000
     94        -39.727654   1.000000
     95        -39.727654   1.000000
     96        -39.727497   1.000000
     97        -18.392427   1.000000
     98        -18.356483   1.000000
     99        -18.305346   1.000000
    100        -18.305346   1.000000
    101        -18.305346   1.000000
    102        -18.305346   1.000000
    103        -18.292109   1.000000
    104        -18.292109   1.000000
    105        -18.288880   1.000000
    106        -18.288880   1.000000
    107        -18.269008   1.000000
    108        -18.269008   1.000000
    109        -18.269008   1.000000
    110        -18.269008   1.000000
    111        -18.244898   1.000000
    112        -18.244898   1.000000
    113        -18.216164   1.000000
    114        -18.216163   1.000000
    115        -18.213863   1.000000
    116        -18.213863   1.000000
    117        -18.213863   1.000000
    118        -18.213863   1.000000
    119        -18.212118   1.000000
    120        -18.212118   1.000000
    121        -18.212118   1.000000
    122        -18.212118   1.000000
    123        -18.205434   1.000000
    124        -18.205434   1.000000
    125        -18.205434   1.000000
    126        -18.205434   1.000000
    127        -18.194407   1.000000
    128        -18.194407   1.000000
    129        -18.194407   1.000000
    130        -18.194407   1.000000
    131        -18.187425   1.000000
    132        -18.187425   1.000000
    133        -18.187425   1.000000
    134        -18.187425   1.000000
    135        -18.186912   1.000000
    136        -18.186912   1.000000
    137        -18.186476   1.000000
    138        -18.178023   1.000000
    139        -18.178023   1.000000
    140        -18.177006   1.000000
    141        -18.177006   1.000000
    142        -18.170959   1.000000
    143        -18.170959   1.000000
    144        -18.168717   1.000000
    145        -18.168717   1.000000
    146        -18.164765   1.000000
    147        -18.164765   1.000000
    148        -18.164765   1.000000
    149        -18.164765   1.000000
    150        -18.161483   1.000000
    151        -18.161483   1.000000
    152        -18.161483   1.000000
    153        -18.161483   1.000000
    154        -18.146200   1.000000
    155        -18.146200   1.000000
    156        -18.123456   1.000000
    157        -18.121596   1.000000
    158        -18.121596   1.000000
    159        -18.118634   1.000000
    160        -18.118634   1.000000
    161        -18.111255   1.000000
    162        -18.099028   1.000000
    163        -18.099028   1.000000
    164        -18.099028   1.000000
    165        -18.099028   1.000000
    166        -18.062861   1.000000
    167        -18.054323   1.000000
    168        -18.054322   1.000000
    169        -18.049494   1.000000
    170        -18.049494   1.000000
    171        -18.049494   1.000000
    172        -18.049494   1.000000
    173        -18.047192   1.000000
    174        -18.047192   1.000000
    175        -18.030350   1.000000
    176        -18.030350   1.000000
    177        -18.025726   1.000000
    178        -18.009494   1.000000
    179        -18.009494   1.000000
    180        -18.000760   1.000000
    181        -18.000760   1.000000
    182        -17.999424   1.000000
    183        -17.999424   1.000000
    184        -17.996466   1.000000
    185        -17.996466   1.000000
    186        -17.980155   1.000000
    187        -17.980155   1.000000
    188        -17.980155   1.000000
    189        -17.980155   1.000000
    190        -17.967269   1.000000
    191        -17.967269   1.000000
    192        -17.957465   1.000000
    193        -17.930487   1.000000
    194        -17.930487   1.000000
    195        -17.903205   1.000000
    196        -17.903205   1.000000
    197        -17.903023   1.000000
    198        -17.903023   1.000000
    199        -17.881851   1.000000
    200        -17.881851   1.000000
    201        -17.881851   1.000000
    202        -17.881851   1.000000
    203        -17.857411   1.000000
    204        -17.857411   1.000000
    205        -17.857411   1.000000
    206        -17.857411   1.000000
    207        -17.844018   1.000000
    208        -17.844018   1.000000
    209        -17.844018   1.000000
    210        -17.844018   1.000000
    211        -17.824466   1.000000
    212        -17.824466   1.000000
    213        -17.824331   1.000000
    214        -17.824331   1.000000
    215        -17.824331   1.000000
    216        -17.824331   1.000000
    217        -17.813307   1.000000
    218        -17.813307   1.000000
    219        -17.808592   1.000000
    220        -17.808592   1.000000
    221        -17.803731   1.000000
    222        -17.803731   1.000000
    223        -17.803731   1.000000
    224        -17.803731   1.000000
    225        -17.800302   1.000000
    226        -17.800302   1.000000
    227        -17.799566   1.000000
    228        -17.799566   1.000000
    229        -17.796835   1.000000
    230        -17.796835   1.000000
    231        -17.796835   1.000000
    232        -17.796835   1.000000
    233        -17.779600   1.000000
    234        -17.779600   1.000000
    235        -17.757321   1.000000
    236        -17.757321   1.000000
    237        -17.751295   1.000000
    238        -17.750190   1.000000
    239        -17.750190   1.000000
    240        -17.747822   1.000000
    241        -17.747822   1.000000
    242        -17.744210   1.000000
    243        -17.744210   1.000000
    244        -17.744210   1.000000
    245        -17.744210   1.000000
    246        -17.744178   1.000000
    247        -17.744178   1.000000
    248        -17.744178   1.000000
    249        -17.744178   1.000000
    250        -17.740450   1.000000
    251        -17.740450   1.000000
    252        -17.730109   1.000000
    253        -17.730109   1.000000
    254        -17.729813   1.000000
    255        -17.719492   1.000000
    256        -17.719492   1.000000
    257        -17.719492   1.000000
    258        -17.719492   1.000000
    259        -17.711031   1.000000
    260        -17.711031   1.000000
    261        -17.711031   1.000000
    262        -17.711031   1.000000
    263        -17.707984   1.000000
    264        -17.707984   1.000000
    265        -17.706684   1.000000
    266        -17.695288   1.000000
    267        -17.695288   1.000000
    268        -17.693201   1.000000
    269        -17.693201   1.000000
    270        -17.693201   1.000000
    271        -17.693201   1.000000
    272        -17.679565   1.000000
    273        -17.679565   1.000000
    274        -17.678161   1.000000
    275        -17.678161   1.000000
    276        -17.677971   1.000000
    277        -17.677971   1.000000
    278        -17.677971   1.000000
    279        -17.677971   1.000000
    280        -17.675917   1.000000
    281        -17.675917   1.000000
    282        -17.673377   1.000000
    283        -17.673377   1.000000
    284        -17.673377   1.000000
    285        -17.673377   1.000000
    286        -17.661133   1.000000
    287        -17.661133   1.000000
    288        -17.661133   1.000000
    289        -17.661133   1.000000
    290        -17.644660   1.000000
    291        -17.644660   1.000000
    292        -17.633716   1.000000
    293        -17.632377   1.000000
    294        -17.632377   1.000000
    295        -17.632376   1.000000
    296        -17.632376   1.000000
    297        -17.630710   1.000000
    298        -17.630710   1.000000
    299        -17.630710   1.000000
    300        -17.630710   1.000000
    301        -17.630144   1.000000
    302        -17.619458   1.000000
    303        -17.619458   1.000000
    304        -17.618741   1.000000
    305        -17.618741   1.000000
    306        -17.614636   1.000000
    307        -17.614636   1.000000
    308        -17.609754   1.000000
    309        -17.605391   1.000000
    310        -17.605391   1.000000
    311        -17.605391   1.000000
    312        -17.605391   1.000000
    313        -17.604424   1.000000
    314        -17.604424   1.000000
    315        -17.597765   1.000000
    316        -17.597765   1.000000
    317        -17.597765   1.000000
    318        -17.597765   1.000000
    319        -17.596000   1.000000
    320        -17.596000   1.000000
    321        -17.593338   1.000000
    322        -17.585559   1.000000
    323        -17.585381   1.000000
    324        -17.585381   1.000000
    325        -17.585008   1.000000
    326        -17.585008   1.000000
    327        -17.585008   1.000000
    328        -17.585008   1.000000
    329        -17.582551   1.000000
    330        -17.582551   1.000000
    331        -17.582551   1.000000
    332        -17.582551   1.000000
    333        -17.581252   1.000000
    334        -17.581252   1.000000
    335        -17.579477   1.000000
    336        -17.579477   1.000000
    337        -17.574932   1.000000
    338        -17.574932   1.000000
    339        -17.572721   1.000000
    340        -17.569412   1.000000
    341        -17.569412   1.000000
    342        -17.566264   1.000000
    343        -17.566264   1.000000
    344        -17.563885   1.000000
    345        -17.563885   1.000000
    346        -17.561550   1.000000
    347        -17.561550   1.000000
    348        -17.561550   1.000000
    349        -17.561550   1.000000
    350        -17.553734   1.000000
    351        -17.553734   1.000000
    352        -17.553734   1.000000
    353        -17.553734   1.000000
    354        -17.548455   1.000000
    355        -17.548455   1.000000
    356        -17.540791   1.000000
    357        -17.540791   1.000000
    358        -17.540791   1.000000
    359        -17.540791   1.000000
    360        -17.530648   1.000000
    361        -17.530647   1.000000
    362        -17.527027   1.000000
    363        -17.527027   1.000000
    364        -17.527027   1.000000
    365        -17.527027   1.000000
    366        -17.526637   1.000000
    367        -17.526637   1.000000
    368        -17.523174   1.000000
    369        -17.510472   1.000000
    370        -17.499268   1.000000
    371        -17.499268   1.000000
    372        -17.496629   1.000000
    373        -17.496629   1.000000
    374        -17.495230   1.000000
    375        -17.487830   1.000000
    376        -17.487830   1.000000
    377        -17.486474   1.000000
    378        -17.486474   1.000000
    379        -17.473531   1.000000
    380        -17.473531   1.000000
    381        -17.466746   1.000000
    382        -17.450645   1.000000
    383        -17.446584   1.000000
    384        -17.435705   1.000000
    385          3.566082   1.000000
    386          3.894543   1.000000
    387          4.395417   1.000000
    388          4.395417   1.000000
    389          4.503924   1.000000
    390          4.503924   1.000000
    391          4.680684   1.000000
    392          4.680684   1.000000
    393          5.184076   1.000000
    394          5.184076   1.000000
    395          5.184076   1.000000
    396          5.184076   1.000000
    397          5.491641   1.000000
    398          5.491641   1.000000
    399          5.756532   1.000000
    400          5.848185   1.000000
    401          5.848185   1.000000
    402          5.848185   1.000000
    403          5.848185   1.000000
    404          5.855873   1.000000
    405          5.855873   1.000000
    406          5.911603   1.000000
    407          5.911603   1.000000
    408          5.913591   1.000000
    409          5.913591   1.000000
    410          5.941529   1.000000
    411          5.941529   1.000000
    412          6.088277   1.000000
    413          6.088277   1.000000
    414          6.088277   1.000000
    415          6.088277   1.000000
    416          6.092336   1.000000
    417          6.149660   1.000000
    418          6.149660   1.000000
    419          6.149660   1.000000
    420          6.149660   1.000000
    421          6.169747   1.000000
    422          6.200461   1.000000
    423          6.200461   1.000000
    424          6.303428   1.000000
    425          6.303428   1.000000
    426          6.303428   1.000000
    427          6.303428   1.000000
    428          6.444956   1.000000
    429          6.507458   1.000000
    430          6.507458   1.000000
    431          6.517342   1.000000
    432          6.517342   1.000000
    433          6.621104   1.000000
    434          6.621104   1.000000
    435          6.630698   1.000000
    436          6.652201   1.000000
    437          6.652201   1.000000
    438          6.652201   1.000000
    439          6.652201   1.000000
    440          6.655328   1.000000
    441          6.655328   1.000000
    442          6.667246   1.000000
    443          6.667246   1.000000
    444          6.667246   1.000000
    445          6.667246   1.000000
    446          6.701890   1.000000
    447          6.701890   1.000000
    448          6.782268   1.000000
    449          6.853724   1.000000
    450          6.853724   1.000000
    451          6.853724   1.000000
    452          6.853724   1.000000
    453          6.861278   1.000000
    454          6.861278   1.000000
    455          6.861278   1.000000
    456          6.861278   1.000000
    457          6.875715   1.000000
    458          6.875715   1.000000
    459          6.878600   1.000000
    460          6.878600   1.000000
    461          6.879407   1.000000
    462          6.879407   1.000000
    463          6.879407   1.000000
    464          6.879407   1.000000
    465          6.895687   1.000000
    466          6.895687   1.000000
    467          6.895687   1.000000
    468          6.895687   1.000000
    469          6.904281   1.000000
    470          6.904281   1.000000
    471          6.947390   1.000000
    472          6.947390   1.000000
    473          6.966604   1.000000
    474          6.966604   1.000000
    475          7.016537   1.000000
    476          7.122107   1.000000
    477          7.122108   1.000000
    478          7.270556   1.000000
    479          7.278784   1.000000
    480          7.278784   1.000000
    481          7.301259   1.000000
    482          7.301259   1.000000
    483          7.364502   1.000000
    484          7.364502   1.000000
    485          7.379913   1.000000
    486          7.379913   1.000000
    487          7.379913   1.000000
    488          7.379913   1.000000
    489          7.432828   1.000000
    490          7.432828   1.000000
    491          7.575367   1.000000
    492          7.575367   1.000000
    493          7.610876   1.000000
    494          7.610876   1.000000
    495          7.617551   1.000000
    496          7.617551   1.000000
    497          7.672402   1.000000
    498          7.672402   1.000000
    499          7.672402   1.000000
    500          7.672402   1.000000
    501          7.675692   1.000000
    502          7.675692   1.000000
    503          7.675692   1.000000
    504          7.675692   1.000000
    505          7.682899   1.000000
    506          7.682899   1.000000
    507          7.682899   1.000000
    508          7.682899   1.000000
    509          7.752732   1.000000
    510          7.752732   1.000000
    511          7.752732   1.000000
    512          7.752732   1.000000
    513          7.783207   1.000000
    514          7.783207   1.000000
    515          7.783207   1.000000
    516          7.783207   1.000000
    517          7.879691   1.000000
    518          7.879691   1.000000
    519          7.879691   1.000000
    520          7.879691   1.000000
    521          7.980557   1.000000
    522          7.980557   1.000000
    523          7.981680   1.000000
    524          7.981680   1.000000
    525          8.009666   1.000000
    526          8.009666   1.000000
    527          8.009666   1.000000
    528          8.009666   1.000000
    529          8.172285   1.000000
    530          8.172285   1.000000
    531          8.172871   1.000000
    532          8.172871   1.000000
    533          8.199342   1.000001
    534          8.199342   1.000001
    535          8.199342   1.000001
    536          8.199342   1.000001
    537          8.271483   1.000008
    538          8.271483   1.000008
    539          8.286472   1.000012
    540          8.286472   1.000012
    541          8.323910   1.000038
    542          8.323910   1.000038
    543          8.357750   1.000101
    544          8.357750   1.000101
    545          8.357750   1.000101
    546          8.357750   1.000101
    547          8.377419   1.000173
    548          8.377419   1.000173
    549          8.377419   1.000173
    550          8.377419   1.000173
    551          8.385876   1.000216
    552          8.385876   1.000216
    553          8.393287   1.000262
    554          8.393287   1.000262
    555          8.433228   1.000704
    556          8.433228   1.000704
    557          8.433228   1.000704
    558          8.433228   1.000704
    559          8.455639   1.001178
    560          8.511978   1.003765
    561          8.511978   1.003765
    562          8.552667   1.007714
    563          8.631480   1.022283
    564          8.631480   1.022283
    565          8.638719   1.023956
    566          8.638719   1.023956
    567          8.638719   1.023956
    568          8.638719   1.023956
    569          8.861278   0.852000
    570          8.861278   0.852000
    571          8.861278   0.852000
    572          8.861278   0.852000
    573          8.895644   0.738844
    574          9.005150   0.294526
    575          9.005150   0.294526
    576          9.005150   0.294526
    577          9.005150   0.294526
    578          9.032047   0.198837
    579          9.032047   0.198837
    580          9.043088   0.163954
    581          9.066756   0.099027
    582          9.066756   0.099027
    583          9.066756   0.099026
    584          9.066756   0.099026
    585          9.075145   0.079373
    586          9.075145   0.079373
    587          9.075145   0.079372
    588          9.075145   0.079372
    589          9.115874   0.008681
    590          9.115874   0.008681
    591          9.136349  -0.012656
    592          9.136349  -0.012656
    593          9.136349  -0.012656
    594          9.136349  -0.012656
    595          9.153670  -0.024493
    596          9.153670  -0.024493
    597          9.153670  -0.024493
    598          9.153670  -0.024493
    599          9.232786  -0.032147
    600          9.232786  -0.032147
    601          9.241678  -0.030464
    602          9.241678  -0.030464
    603          9.244908  -0.029804
    604          9.258479  -0.026840
    605          9.258479  -0.026840
    606          9.305897  -0.016214
    607          9.305897  -0.016214
    608          9.321139  -0.013256
    609          9.321139  -0.013256
    610          9.321139  -0.013256
    611          9.321139  -0.013256
    612          9.369561  -0.006261
    613          9.369561  -0.006261
    614          9.381064  -0.005119
    615          9.381064  -0.005119
    616          9.404627  -0.003302
    617          9.404627  -0.003302
    618          9.476738  -0.000701
    619          9.476738  -0.000701
    620          9.476738  -0.000701
    621          9.476738  -0.000701
    622          9.540240  -0.000140
    623          9.540240  -0.000140
    624          9.540653  -0.000138
    625          9.544564  -0.000124
    626          9.544564  -0.000124
    627          9.601674  -0.000024
    628          9.667143  -0.000003
    629          9.667143  -0.000003
    630          9.685224  -0.000002
    631          9.685224  -0.000002
    632          9.685224  -0.000002
    633          9.685224  -0.000002
    634          9.702733  -0.000001
    635          9.702733  -0.000001
    636          9.705756  -0.000001
    637          9.705756  -0.000001
    638          9.705756  -0.000001
    639          9.705756  -0.000001
    640          9.726535  -0.000000
    641          9.726535  -0.000000
    642          9.730361  -0.000000
    643          9.730361  -0.000000
    644          9.734494  -0.000000
    645          9.772359  -0.000000
    646          9.772359  -0.000000
    647          9.772359  -0.000000
    648          9.772360  -0.000000
    649          9.774197  -0.000000
    650          9.774197  -0.000000
    651          9.788282  -0.000000
    652          9.811780  -0.000000
    653          9.811780  -0.000000
    654          9.838977  -0.000000
    655          9.838977  -0.000000
    656          9.889451  -0.000000
    657          9.895713  -0.000000
    658          9.948824  -0.000000
    659          9.948825  -0.000000
    660          9.973094  -0.000000
    661          9.973097  -0.000000
    662          9.992250  -0.000000
    663         10.022931  -0.000000
    664         10.022947  -0.000000
    665         10.029813  -0.000000
    666         10.029826  -0.000000
    667         10.063553  -0.000000
    668         10.098418  -0.000000
    669         10.098496  -0.000000
    670         10.146226  -0.000000
    671         10.150279  -0.000000
    672         10.150438  -0.000000
    673         10.196459  -0.000000
    674         10.198015  -0.000000
    675         10.216491  -0.000000
    676         10.216509  -0.000000
    677         10.216547  -0.000000
    678         10.216761  -0.000000
    679         10.218152  -0.000000
    680         10.218202  -0.000000
    681         10.219027  -0.000000
    682         10.220231  -0.000000
    683         10.224196  -0.000000
    684         10.250545  -0.000000
    685         10.251766  -0.000000
    686         10.296668  -0.000000
    687         10.302070  -0.000000
    688         10.307622  -0.000000
    689         10.311746  -0.000000
    690         10.318168  -0.000000
    691         10.318689  -0.000000
    692         10.320315  -0.000000
    693         10.327527  -0.000000
    694         10.332834  -0.000000
    695         10.333842  -0.000000
    696         10.339097  -0.000000
    697         10.348231  -0.000000
    698         10.351097  -0.000000
    699         10.366172  -0.000000
    700         10.373341  -0.000000
    701         10.384559  -0.000000
    702         10.393258  -0.000000
    703         10.397125  -0.000000
    704         10.415562  -0.000000
 
  0.2000000E+00  0.2000000E+00  0.0000000E+00  0.6000000E-01
      1        -39.901829   1.000000
      2        -39.876231   1.000000
      3        -39.876231   1.000000
      4        -39.866078   1.000000
      5        -39.866078   1.000000
      6        -39.844279   1.000000
      7        -39.844279   1.000000
      8        -39.844279   1.000000
      9        -39.844279   1.000000
     10        -39.843792   1.000000
     11        -39.843792   1.000000
     12        -39.818371   1.000000
     13        -39.818371   1.000000
     14        -39.817175   1.000000
     15        -39.817175   1.000000
     16        -39.817175   1.000000
     17        -39.817175   1.000000
     18        -39.809718   1.000000
     19        -39.796515   1.000000
     20        -39.796515   1.000000
     21        -39.796515   1.000000
     22        -39.796515   1.000000
     23        -39.793703   1.000000
     24        -39.793703   1.000000
     25        -39.791277   1.000000
     26        -39.791277   1.000000
     27        -39.789597   1.000000
     28        -39.789597   1.000000
     29        -39.785399   1.000000
     30        -39.785399   1.000000
     31        -39.779701   1.000000
     32        -39.779701   1.000000
     33        -39.779701   1.000000
     34        -39.779701   1.000000
     35        -39.775300   1.000000
     36        -39.775300   1.000000
     37        -39.775300   1.000000
     38        -39.775300   1.000000
     39        -39.772512   1.000000
     40        -39.770899   1.000000
     41        -39.770899   1.000000
     42        -39.770899   1.000000
     43        -39.770899   1.000000
     44        -39.765753   1.000000
     45        -39.765753   1.000000
     46        -39.763523   1.000000
     47        -39.763523   1.000000
     48        -39.763523   1.000000
     49        -39.763523   1.000000
     50        -39.761451   1.000000
     51        -39.761451   1.000000
     52        -39.757088   1.000000
     53        -39.756634   1.000000
     54        -39.756634   1.000000
     55        -39.756634   1.000000
     56        -39.756634   1.000000
     57        -39.752944   1.000000
     58        -39.752577   1.000000
     59        -39.752577   1.000000
     60        -39.752577   1.000000
     61        -39.752577   1.000000
     62        -39.749217   1.000000
     63        -39.749217   1.000000
     64        -39.748142   1.000000
     65        -39.748142   1.000000
     66        -39.747077   1.000000
     67        -39.747077   1.000000
     68        -39.743291   1.000000
     69        -39.743291   1.000000
     70        -39.743291   1.000000
     71        -39.743291   1.000000
     72        -39.741887   1.000000
     73        -39.741887   1.000000
     74        -39.741887   1.000000
     75        -39.741887   1.000000
     76        -39.739374   1.000000
     77        -39.739374   1.000000
     78        -39.738662   1.000000
     79        -39.738662   1.000000
     80        -39.738477   1.000000
     81        -39.738477   1.000000
     82        -39.738477   1.000000
     83        -39.738477   1.000000
     84        -39.736486   1.000000
     85        -39.736486   1.000000
     86        -39.733993   1.000000
     87        -39.730488   1.000000
     88        -39.730488   1.000000
     89        -39.729430   1.000000
     90        -39.729430   1.000000
     91        -39.728944   1.000000
     92        -39.728357   1.000000
     93        -39.727377   1.000000
     94        -39.727377   1.000000
     95        -39.727248   1.000000
     96        -39.727248   1.000000
     97        -18.399799   1.000000
     98        -18.328777   1.000000
     99        -18.328777   1.000000
    100        -18.316502   1.000000
    101        -18.316502   1.000000
    102        -18.306611   1.000000
    103        -18.306611   1.000000
    104        -18.306611   1.000000
    105        -18.306611   1.000000
    106        -18.247393   1.000000
    107        -18.247393   1.000000
    108        -18.247393   1.000000
    109        -18.247393   1.000000
    110        -18.238283   1.000000
    111        -18.238283   1.000000
    112        -18.238283   1.000000
    113        -18.238283   1.000000
    114        -18.232975   1.000000
    115        -18.232975   1.000000
    116        -18.231744   1.000000
    117        -18.225709   1.000000
    118        -18.225709   1.000000
    119        -18.218692   1.000000
    120        -18.218692   1.000000
    121        -18.218692   1.000000
    122        -18.218692   1.000000
    123        -18.209840   1.000000
    124        -18.209840   1.000000
    125        -18.207783   1.000000
    126        -18.207783   1.000000
    127        -18.207783   1.000000
    128        -18.207783   1.000000
    129        -18.193948   1.000000
    130        -18.193948   1.000000
    131        -18.181509   1.000000
    132        -18.181509   1.000000
    133        -18.181026   1.000000
    134        -18.181026   1.000000
    135        -18.181026   1.000000
    136        -18.181026   1.000000
    137        -18.180376   1.000000
    138        -18.180376   1.000000
    139        -18.169568   1.000000
    140        -18.169568   1.000000
    141        -18.169568   1.000000
    142        -18.169568   1.000000
    143        -18.167577   1.000000
    144        -18.167577   1.000000
    145        -18.166190   1.000000
    146        -18.166190   1.000000
    147        -18.164149   1.000000
    148        -18.164149   1.000000
    149        -18.164149   1.000000
    150        -18.164149   1.000000
    151        -18.152580   1.000000
    152        -18.152580   1.000000
    153        -18.152580   1.000000
    154        -18.152580   1.000000
    155        -18.151526   1.000000
    156        -18.151526   1.000000
    157        -18.127012   1.000000
    158        -18.122795   1.000000
    159        -18.122795   1.000000
    160        -18.122616   1.000000
    161        -18.090750   1.000000
    162        -18.090750   1.000000
    163        -18.083029   1.000000
    164        -18.083029   1.000000
    165        -18.083029   1.000000
    166        -18.083029   1.000000
    167        -18.065826   1.000000
    168        -18.063166   1.000000
    169        -18.063166   1.000000
    170        -18.056305   1.000000
    171        -18.056305   1.000000
    172        -18.047917   1.000000
    173        -18.047917   1.000000
    174        -18.032829   1.000000
    175        -18.032829   1.000000
    176        -18.021209   1.000000
    177        -18.021209   1.000000
    178        -18.008169   1.000000
    179        -18.005004   1.000000
    180        -18.005004   1.000000
    181        -18.002331   1.000000
    182        -18.001963   1.000000
    183        -18.001963   1.000000
    184        -17.987919   1.000000
    185        -17.980502   1.000000
    186        -17.965569   1.000000
    187        -17.965569   1.000000
    188        -17.965569   1.000000
    189        -17.965569   1.000000
    190        -17.952385   1.000000
    191        -17.952385   1.000000
    192        -17.928914   1.000000
    193        -17.920719   1.000000
    194        -17.920719   1.000000
    195        -17.915986   1.000000
    196        -17.915986   1.000000
    197        -17.915986   1.000000
    198        -17.915986   1.000000
    199        -17.909826   1.000000
    200        -17.909826   1.000000
    201        -17.891347   1.000000
    202        -17.877280   1.000000
    203        -17.877280   1.000000
    204        -17.865458   1.000000
    205        -17.865458   1.000000
    206        -17.832406   1.000000
    207        -17.832406   1.000000
    208        -17.832406   1.000000
    209        -17.832406   1.000000
    210        -17.828758   1.000000
    211        -17.828758   1.000000
    212        -17.826419   1.000000
    213        -17.826419   1.000000
    214        -17.821417   1.000000
    215        -17.821417   1.000000
    216        -17.821417   1.000000
    217        -17.821417   1.000000
    218        -17.807094   1.000000
    219        -17.807094   1.000000
    220        -17.807094   1.000000
    221        -17.807094   1.000000
    222        -17.806276   1.000000
    223        -17.800742   1.000000
    224        -17.800742   1.000000
    225        -17.800742   1.000000
    226        -17.800742   1.000000
    227        -17.791253   1.000000
    228        -17.791253   1.000000
    229        -17.791253   1.000000
    230        -17.791253   1.000000
    231        -17.787738   1.000000
    232        -17.787738   1.000000
    233        -17.784303   1.000000
    234        -17.784303   1.000000
    235        -17.776599   1.000000
    236        -17.773345   1.000000
    237        -17.773345   1.000000
    238        -17.767758   1.000000
    239        -17.767659   1.000000
    240        -17.767659   1.000000
    241        -17.765956   1.000000
    242        -17.765956   1.000000
    243        -17.765956   1.000000
    244        -17.765956   1.000000
    245        -17.756292   1.000000
    246        -17.756292   1.000000
    247        -17.749596   1.000000
    248        -17.749596   1.000000
    249        -17.749596   1.000000
    250        -17.749596   1.000000
    251        -17.731700   1.000000
    252        -17.721151   1.000000
    253        -17.721151   1.000000
    254        -17.720313   1.000000
    255        -17.720313   1.000000
    256        -17.715894   1.000000
    257        -17.715894   1.000000
    258        -17.705564   1.000000
    259        -17.705564   1.000000
    260        -17.705564   1.000000
    261        -17.705564   1.000000
    262        -17.699848   1.000000
    263        -17.699848   1.000000
    264        -17.694218   1.000000
    265        -17.688502   1.000000
    266        -17.688502   1.000000
    267        -17.682748   1.000000
    268        -17.682748   1.000000
    269        -17.680842   1.000000
    270        -17.680842   1.000000
    271        -17.680842   1.000000
    272        -17.680842   1.000000
    273        -17.676650   1.000000
    274        -17.676650   1.000000
    275        -17.676650   1.000000
    276        -17.676650   1.000000
    277        -17.675213   1.000000
    278        -17.675213   1.000000
    279        -17.675213   1.000000
    280        -17.675213   1.000000
    281        -17.664939   1.000000
    282        -17.664939   1.000000
    283        -17.664939   1.000000
    284        -17.664939   1.000000
    285        -17.661747   1.000000
    286        -17.661747   1.000000
    287        -17.661685   1.000000
    288        -17.661685   1.000000
    289        -17.658565   1.000000
    290        -17.658565   1.000000
    291        -17.658565   1.000000
    292        -17.658565   1.000000
    293        -17.654982   1.000000
    294        -17.654982   1.000000
    295        -17.654693   1.000000
    296        -17.654693   1.000000
    297        -17.638012   1.000000
    298        -17.638012   1.000000
    299        -17.638012   1.000000
    300        -17.638012   1.000000
    301        -17.637671   1.000000
    302        -17.637671   1.000000
    303        -17.632705   1.000000
    304        -17.632705   1.000000
    305        -17.612430   1.000000
    306        -17.610014   1.000000
    307        -17.610014   1.000000
    308        -17.602452   1.000000
    309        -17.602452   1.000000
    310        -17.599876   1.000000
    311        -17.599876   1.000000
    312        -17.599876   1.000000
    313        -17.599876   1.000000
    314        -17.596365   1.000000
    315        -17.596365   1.000000
    316        -17.595510   1.000000
    317        -17.593567   1.000000
    318        -17.593567   1.000000
    319        -17.593567   1.000000
    320        -17.593567   1.000000
    321        -17.593380   1.000000
    322        -17.592115   1.000000
    323        -17.592115   1.000000
    324        -17.592115   1.000000
    325        -17.592115   1.000000
    326        -17.588111   1.000000
    327        -17.588111   1.000000
    328        -17.584007   1.000000
    329        -17.584007   1.000000
    330        -17.584007   1.000000
    331        -17.584007   1.000000
    332        -17.582725   1.000000
    333        -17.578312   1.000000
    334        -17.575740   1.000000
    335        -17.575740   1.000000
    336        -17.572337   1.000000
    337        -17.572337   1.000000
    338        -17.572337   1.000000
    339        -17.572337   1.000000
    340        -17.571213   1.000000
    341        -17.571213   1.000000
    342        -17.568292   1.000000
    343        -17.568292   1.000000
    344        -17.568292   1.000000
    345        -17.568292   1.000000
    346        -17.560152   1.000000
    347        -17.560152   1.000000
    348        -17.558313   1.000000
    349        -17.558313   1.000000
    350        -17.558313   1.000000
    351        -17.558313   1.000000
    352        -17.545594   1.000000
    353        -17.545594   1.000000
    354        -17.541281   1.000000
    355        -17.541281   1.000000
    356        -17.541281   1.000000
    357        -17.541281   1.000000
    358        -17.539011   1.000000
    359        -17.539011   1.000000
    360        -17.535467   1.000000
    361        -17.535467   1.000000
    362        -17.535467   1.000000
    363        -17.535467   1.000000
    364        -17.528577   1.000000
    365        -17.528577   1.000000
    366        -17.512841   1.000000
    367        -17.512841   1.000000
    368        -17.509036   1.000000
    369        -17.509036   1.000000
    370        -17.502346   1.000000
    371        -17.502346   1.000000
    372        -17.502346   1.000000
    373        -17.502346   1.000000
    374        -17.487244   1.000000
    375        -17.487244   1.000000
    376        -17.479711   1.000000
    377        -17.479711   1.000000
    378        -17.476764   1.000000
    379        -17.471650   1.000000
    380        -17.471650   1.000000
    381        -17.460253   1.000000
    382        -17.460253   1.000000
    383        -17.447445   1.000000
    384        -17.434688   1.000000
    385          3.498063   1.000000
    386          4.145071   1.000000
    387          4.145071   1.000000
    388          4.335068   1.000000
    389          4.335068   1.000000
    390          4.891344   1.000000
    391          4.891344   1.000000
    392          4.891344   1.000000
    393          4.891344   1.000000
    394          4.988187   1.000000
    395          4.988187   1.000000
    396          5.541285   1.000000
    397          5.541285   1.000000
    398          5.541285   1.000000
    399          5.541285   1.000000
    400          5.591863   1.000000
    401          5.591863   1.000000
    402          5.831198   1.000000
    403          5.831198   1.000000
    404          5.831198   1.000000
    405          5.831198   1.000000
    406          5.851211   1.000000
    407          5.851211   1.000000
    408          5.941796   1.000000
    409          5.960054   1.000000
    410          5.960054   1.000000
    411          5.960054   1.000000
    412          5.960054   1.000000
    413          6.080105   1.000000
    414          6.080105   1.000000
    415          6.109589   1.000000
    416          6.205436   1.000000
    417          6.205436   1.000000
    418          6.263904   1.000000
    419          6.263904   1.000000
    420          6.286934   1.000000
    421          6.286934   1.000000
    422          6.286934   1.000000
    423          6.286934   1.000000
    424          6.366647   1.000000
    425          6.366647   1.000000
    426          6.402783   1.000000
    427          6.402783   1.000000
    428          6.402783   1.000000
    429          6.402783   1.000000
    430          6.527931   1.000000
    431          6.527931   1.000000
    432          6.527931   1.000000
    433          6.527931   1.000000
    434          6.561528   1.000000
    435          6.561528   1.000000
    436          6.561528   1.000000
    437          6.561528   1.000000
    438          6.605806   1.000000
    439          6.614943   1.000000
    440          6.614943   1.000000
    441          6.626977   1.000000
    442          6.633829   1.000000
    443          6.633829   1.000000
    444          6.639457   1.000000
    445          6.639457   1.000000
    446          6.715839   1.000000
    447          6.715839   1.000000
    448          6.715839   1.000000
    449          6.715839   1.000000
    450          6.829735   1.000000
    451          6.860990   1.000000
    452          6.860990   1.000000
    453          6.860990   1.000000
    454          6.860990   1.000000
    455          6.871789   1.000000
    456          6.871789   1.000000
    457          6.871789   1.000000
    458          6.871789   1.000000
    459          6.881834   1.000000
    460          6.900434   1.000000
    461          6.900434   1.000000
    462          6.909317   1.000000
    463          6.909317   1.000000
    464          6.925886   1.000000
    465          6.925886   1.000000
    466          6.930032   1.000000
    467          6.930032   1.000000
    468          7.015191   1.000000
    469          7.015191   1.000000
    470          7.107082   1.000000
    471          7.107082   1.000000
    472          7.112071   1.000000
    473          7.112071   1.000000
    474          7.118604   1.000000
    475          7.118604   1.000000
    476          7.120967   1.000000
    477          7.120967   1.000000
    478          7.122371   1.000000
    479          7.122371   1.000000
    480          7.122371   1.000000
    481          7.122371   1.000000
    482          7.177343   1.000000
    483          7.177343   1.000000
    484          7.295362   1.000000
    485          7.295362   1.000000
    486          7.392606   1.000000
    487          7.407030   1.000000
    488          7.427119   1.000000
    489          7.427119   1.000000
    490          7.567445   1.000000
    491          7.629412   1.000000
    492          7.629412   1.000000
    493          7.629412   1.000000
    494          7.629412   1.000000
    495          7.638489   1.000000
    496          7.638489   1.000000
    497          7.638489   1.000000
    498          7.638489   1.000000
    499          7.668835   1.000000
    500          7.668835   1.000000
    501          7.668835   1.000000
    502          7.668835   1.000000
    503          7.679814   1.000000
    504          7.699955   1.000000
    505          7.702763   1.000000
    506          7.702763   1.000000
    507          7.728650   1.000000
    508          7.728650   1.000000
    509          7.728650   1.000000
    510          7.728650   1.000000
    511          7.739786   1.000000
    512          7.739786   1.000000
    513          7.739786   1.000000
    514          7.739786   1.000000
    515          7.753422   1.000000
    516          7.821002   1.000000
    517          7.821002   1.000000
    518          7.944564   1.000000
    519          7.944564   1.000000
    520          7.958290   1.000000
    521          7.958290   1.000000
    522          8.041893   1.000000
    523          8.041893   1.000000
    524          8.044885   1.000000
    525          8.044885   1.000000
    526          8.087953   1.000000
    527          8.087953   1.000000
    528          8.087953   1.000000
    529          8.087953   1.000000
    530          8.119058   1.000000
    531          8.119058   1.000000
    532          8.133094   1.000000
    533          8.133094   1.000000
    534          8.143634   1.000000
    535          8.143634   1.000000
    536          8.143634   1.000000
    537          8.143634   1.000000
    538          8.158177   1.000000
    539          8.158177   1.000000
    540          8.189083   1.000000
    541          8.189083   1.000000
    542          8.349180   1.000080
    543          8.349180   1.000080
    544          8.349180   1.000080
    545          8.349180   1.000080
    546          8.367538   1.000132
    547          8.367538   1.000132
    548          8.413749   1.000440
    549          8.413749   1.000440
    550          8.413749   1.000440
    551          8.413749   1.000440
    552          8.429053   1.000638
    553          8.429053   1.000638
    554          8.429053   1.000638
    555          8.429053   1.000638
    556          8.459560   1.001285
    557          8.459560   1.001285
    558          8.459560   1.001285
    559          8.459560   1.001285
    560          8.570329   1.010180
    561          8.570329   1.010180
    562          8.570781   1.010249
    563          8.677010   1.032156
    564          8.677010   1.032156
    565          8.719978   1.035041
    566          8.719978   1.035041
    567          8.739885   1.031258
    568          8.739885   1.031258
    569          8.773374   1.012672
    570          8.773374   1.012672
    571          8.773374   1.012672
    572          8.773374   1.012672
    573          8.853503   0.873833
    574          8.853503   0.873833
    575          8.863752   0.844744
    576          8.863752   0.844744
    577          8.863752   0.844744
    578          8.863752   0.844744
    579          9.069673   0.091991
    580          9.069673   0.091991
    581          9.069673   0.091991
    582          9.069673   0.091991
    583          9.076145   0.077148
    584          9.076145   0.077148
    585          9.092577   0.044195
    586          9.095584   0.038888
    587          9.095584   0.038888
    588          9.105992   0.022199
    589          9.105992   0.022199
    590          9.105992   0.022199
    591          9.105992   0.022199
    592          9.143299  -0.018033
    593          9.143299  -0.018033
    594          9.200072  -0.035458
    595          9.200072  -0.035458
    596          9.200072  -0.035458
    597          9.200072  -0.035458
    598          9.238237  -0.031141
    599          9.238237  -0.031141
    600          9.253464  -0.027964
    601          9.270398  -0.024101
    602          9.270398  -0.024101
    603          9.296531  -0.018187
    604          9.296531  -0.018187
    605          9.299924  -0.017460
    606          9.299924  -0.017460
    607          9.299924  -0.017460
    608          9.299924  -0.017460
    609          9.335087  -0.010860
    610          9.370225  -0.006190
    611          9.370225  -0.006190
    612          9.376774  -0.005524
    613          9.377269  -0.005476
    614          9.425584  -0.002172
    615          9.425584  -0.002172
    616          9.425584  -0.002172
    617          9.425584  -0.002172
    618          9.426757  -0.002120
    619          9.426757  -0.002120
    620          9.487760  -0.000538
    621          9.487760  -0.000538
    622          9.487760  -0.000538
    623          9.487760  -0.000538
    624          9.495063  -0.000450
    625          9.495063  -0.000450
    626          9.571190  -0.000059
    627          9.571190  -0.000059
    628          9.618348  -0.000014
    629          9.618348  -0.000014
    630          9.644221  -0.000006
    631          9.661352  -0.000004
    632          9.680137  -0.000002
    633          9.680137  -0.000002
    634          9.692445  -0.000001
    635          9.692445  -0.000001
    636          9.692445  -0.000001
    637          9.692445  -0.000001
    638          9.707400  -0.000001
    639          9.707400  -0.000001
    640          9.707400  -0.000001
    641          9.707400  -0.000001
    642          9.716854  -0.000000
    643          9.716854  -0.000000
    644          9.734673  -0.000000
    645          9.761570  -0.000000
    646          9.761570  -0.000000
    647          9.764342  -0.000000
    648          9.764342  -0.000000
    649          9.765654  -0.000000
    650          9.765654  -0.000000
    651          9.861064  -0.000000
    652          9.861065  -0.000000
    653          9.895801  -0.000000
    654          9.895802  -0.000000
    655          9.895802  -0.000000
    656          9.895803  -0.000000
    657          9.901580  -0.000000
    658          9.901580  -0.000000
    659          9.901580  -0.000000
    660          9.901580  -0.000000
    661          9.928182  -0.000000
    662          9.928182  -0.000000
    663         10.001318  -0.000000
    664         10.035253  -0.000000
    665         10.035259  -0.000000
    666         10.036047  -0.000000
    667         10.036079  -0.000000
    668         10.060128  -0.000000
    669         10.060134  -0.000000
    670         10.115564  -0.000000
    671         10.115657  -0.000000
    672         10.143381  -0.000000
    673         10.143599  -0.000000
    674         10.176870  -0.000000
    675         10.176897  -0.000000
    676         10.176979  -0.000000
    677         10.177401  -0.000000
    678         10.193629  -0.000000
    679         10.251810  -0.000000
    680         10.252141  -0.000000
    681         10.284300  -0.000000
    682         10.286939  -0.000000
    683         10.288162  -0.000000
    684         10.308883  -0.000000
    685         10.333627  -0.000000
    686         10.334018  -0.000000
    687         10.355688  -0.000000
    688         10.356860  -0.000000
    689         10.359448  -0.000000
    690         10.365103  -0.000000
    691         10.366988  -0.000000
    692         10.367695  -0.000000
    693         10.370190  -0.000000
    694         10.373345  -0.000000
    695         10.381013  -0.000000
    696         10.385344  -0.000000
    697         10.388379  -0.000000
    698         10.393365  -0.000000
    699         10.395366  -0.000000
    700         10.411186  -0.000000
    701         10.421615  -0.000000
    702         10.446820  -0.000000
    703         10.469374  -0.000000
    704         10.487255  -0.000000
 
  0.4000000E+00  0.2000000E+00  0.0000000E+00  0.6000000E-01
      1        -39.891181   1.000000
      2        -39.891181   1.000000
      3        -39.878633   1.000000
      4        -39.856971   1.000000
      5        -39.856971   1.000000
      6        -39.856971   1.000000
      7        -39.856971   1.000000
      8        -39.846304   1.000000
      9        -39.846304   1.000000
     10        -39.845657   1.000000
     11        -39.827233   1.000000
     12        -39.827233   1.000000
     13        -39.818719   1.000000
     14        -39.818719   1.000000
     15        -39.805289   1.000000
     16        -39.805289   1.000000
     17        -39.803635   1.000000
     18        -39.803635   1.000000
     19        -39.803635   1.000000
     20        -39.803635   1.000000
     21        -39.800058   1.000000
     22        -39.800058   1.000000
     23        -39.788821   1.000000
     24        -39.788821   1.000000
     25        -39.787766   1.000000
     26        -39.787766   1.000000
     27        -39.787766   1.000000
     28        -39.787766   1.000000
     29        -39.786136   1.000000
     30        -39.786136   1.000000
     31        -39.786136   1.000000
     32        -39.786136   1.000000
     33        -39.782072   1.000000
     34        -39.782072   1.000000
     35        -39.782072   1.000000
     36        -39.782072   1.000000
     37        -39.780967   1.000000
     38        -39.780967   1.000000
     39        -39.773457   1.000000
     40        -39.773457   1.000000
     41        -39.773457   1.000000
     42        -39.773457   1.000000
     43        -39.768666   1.000000
     44        -39.768666   1.000000
     45        -39.764387   1.000000
     46        -39.764387   1.000000
     47        -39.761115   1.000000
     48        -39.758699   1.000000
     49        -39.758699   1.000000
     50        -39.758699   1.000000
     51        -39.758699   1.000000
     52        -39.756145   1.000000
     53        -39.756145   1.000000
     54        -39.756145   1.000000
     55        -39.756145   1.000000
     56        -39.753472   1.000000
     57        -39.753472   1.000000
     58        -39.752769   1.000000
     59        -39.752769   1.000000
     60        -39.747969   1.000000
     61        -39.747706   1.000000
     62        -39.747706   1.000000
     63        -39.747706   1.000000
     64        -39.747706   1.000000
     65        -39.746596   1.000000
     66        -39.746007   1.000000
     67        -39.746007   1.000000
     68        -39.746007   1.000000
     69        -39.746007   1.000000
     70        -39.744357   1.000000
     71        -39.744357   1.000000
     72        -39.742687   1.000000
     73        -39.742687   1.000000
     74        -39.742687   1.000000
     75        -39.742687   1.000000
     76        -39.740023   1.000000
     77        -39.740023   1.000000
     78        -39.738818   1.000000
     79        -39.738818   1.000000
     80        -39.738818   1.000000
     81        -39.738818   1.000000
     82        -39.738290   1.000000
     83        -39.738290   1.000000
     84        -39.737921   1.000000
     85        -39.737011   1.000000
     86        -39.732255   1.000000
     87        -39.732255   1.000000
     88        -39.730744   1.000000
     89        -39.728902   1.000000
     90        -39.728902   1.000000
     91        -39.728417   1.000000
     92        -39.728417   1.000000
     93        -39.727922   1.000000
     94        -39.727922   1.000000
     95        -39.727281   1.000000
     96        -39.727281   1.000000
     97        -18.370669   1.000000
     98        -18.370669   1.000000
     99        -18.335581   1.000000
    100        -18.287266   1.000000
    101        -18.287266   1.000000
    102        -18.287265   1.000000
    103        -18.287265   1.000000
    104        -18.274717   1.000000
    105        -18.274717   1.000000
    106        -18.274717   1.000000
    107        -18.274717   1.000000
    108        -18.265503   1.000000
    109        -18.265503   1.000000
    110        -18.265503   1.000000
    111        -18.265503   1.000000
    112        -18.254148   1.000000
    113        -18.254148   1.000000
    114        -18.238734   1.000000
    115        -18.233325   1.000000
    116        -18.233325   1.000000
    117        -18.233325   1.000000
    118        -18.233325   1.000000
    119        -18.205263   1.000000
    120        -18.205263   1.000000
    121        -18.204425   1.000000
    122        -18.204425   1.000000
    123        -18.204425   1.000000
    124        -18.204425   1.000000
    125        -18.183695   1.000000
    126        -18.183695   1.000000
    127        -18.180899   1.000000
    128        -18.180899   1.000000
    129        -18.179721   1.000000
    130        -18.179721   1.000000
    131        -18.179721   1.000000
    132        -18.179721   1.000000
    133        -18.179509   1.000000
    134        -18.179004   1.000000
    135        -18.179004   1.000000
    136        -18.179004   1.000000
    137        -18.179004   1.000000
    138        -18.172606   1.000000
    139        -18.172606   1.000000
    140        -18.171838   1.000000
    141        -18.171838   1.000000
    142        -18.171838   1.000000
    143        -18.171838   1.000000
    144        -18.170773   1.000000
    145        -18.170773   1.000000
    146        -18.165317   1.000000
    147        -18.165317   1.000000
    148        -18.164619   1.000000
    149        -18.164619   1.000000
    150        -18.155849   1.000000
    151        -18.155849   1.000000
    152        -18.155849   1.000000
    153        -18.155849   1.000000
    154        -18.153106   1.000000
    155        -18.153106   1.000000
    156        -18.148313   1.000000
    157        -18.148313   1.000000
    158        -18.124038   1.000000
    159        -18.123010   1.000000
    160        -18.123010   1.000000
    161        -18.123010   1.000000
    162        -18.123010   1.000000
    163        -18.106881   1.000000
    164        -18.106881   1.000000
    165        -18.099643   1.000000
    166        -18.099643   1.000000
    167        -18.087968   1.000000
    168        -18.087968   1.000000
    169        -18.046524   1.000000
    170        -18.046524   1.000000
    171        -18.042965   1.000000
    172        -18.042965   1.000000
    173        -18.031155   1.000000
    174        -18.031155   1.000000
    175        -18.030187   1.000000
    176        -18.030187   1.000000
    177        -18.030186   1.000000
    178        -18.030186   1.000000
    179        -18.020932   1.000000
    180        -18.020932   1.000000
    181        -18.017356   1.000000
    182        -17.994699   1.000000
    183        -17.994699   1.000000
    184        -17.969759   1.000000
    185        -17.968876   1.000000
    186        -17.968876   1.000000
    187        -17.968807   1.000000
    188        -17.964557   1.000000
    189        -17.964557   1.000000
    190        -17.957784   1.000000
    191        -17.957784   1.000000
    192        -17.954490   1.000000
    193        -17.954490   1.000000
    194        -17.930868   1.000000
    195        -17.928736   1.000000
    196        -17.928736   1.000000
    197        -17.917468   1.000000
    198        -17.917468   1.000000
    199        -17.895250   1.000000
    200        -17.880115   1.000000
    201        -17.880115   1.000000
    202        -17.875490   1.000000
    203        -17.871338   1.000000
    204        -17.871338   1.000000
    205        -17.871338   1.000000
    206        -17.871338   1.000000
    207        -17.856409   1.000000
    208        -17.845266   1.000000
    209        -17.844541   1.000000
    210        -17.844541   1.000000
    211        -17.819261   1.000000
    212        -17.819261   1.000000
    213        -17.819261   1.000000
    214        -17.819261   1.000000
    215        -17.811929   1.000000
    216        -17.811929   1.000000
    217        -17.811929   1.000000
    218        -17.811929   1.000000
    219        -17.810009   1.000000
    220        -17.810009   1.000000
    221        -17.807950   1.000000
    222        -17.807950   1.000000
    223        -17.807950   1.000000
    224        -17.807950   1.000000
    225        -17.800024   1.000000
    226        -17.796555   1.000000
    227        -17.794320   1.000000
    228        -17.794320   1.000000
    229        -17.779881   1.000000
    230        -17.779881   1.000000
    231        -17.779797   1.000000
    232        -17.779797   1.000000
    233        -17.779797   1.000000
    234        -17.779797   1.000000
    235        -17.758776   1.000000
    236        -17.758776   1.000000
    237        -17.758776   1.000000
    238        -17.758776   1.000000
    239        -17.753705   1.000000
    240        -17.753705   1.000000
    241        -17.748570   1.000000
    242        -17.748570   1.000000
    243        -17.748042   1.000000
    244        -17.748042   1.000000
    245        -17.739121   1.000000
    246        -17.739121   1.000000
    247        -17.739121   1.000000
    248        -17.739121   1.000000
    249        -17.733760   1.000000
    250        -17.732856   1.000000
    251        -17.718393   1.000000
    252        -17.718393   1.000000
    253        -17.718393   1.000000
    254        -17.718393   1.000000
    255        -17.716957   1.000000
    256        -17.716957   1.000000
    257        -17.716957   1.000000
    258        -17.716957   1.000000
    259        -17.712577   1.000000
    260        -17.712577   1.000000
    261        -17.712576   1.000000
    262        -17.712576   1.000000
    263        -17.706442   1.000000
    264        -17.706442   1.000000
    265        -17.694670   1.000000
    266        -17.694670   1.000000
    267        -17.694670   1.000000
    268        -17.694670   1.000000
    269        -17.690495   1.000000
    270        -17.690494   1.000000
    271        -17.688952   1.000000
    272        -17.687349   1.000000
    273        -17.687349   1.000000
    274        -17.687349   1.000000
    275        -17.687349   1.000000
    276        -17.675743   1.000000
    277        -17.675743   1.000000
    278        -17.674807   1.000000
    279        -17.674807   1.000000
    280        -17.672192   1.000000
    281        -17.672178   1.000000
    282        -17.672178   1.000000
    283        -17.666905   1.000000
    284        -17.666905   1.000000
    285        -17.651149   1.000000
    286        -17.651149   1.000000
    287        -17.651149   1.000000
    288        -17.651149   1.000000
    289        -17.646402   1.000000
    290        -17.644867   1.000000
    291        -17.644867   1.000000
    292        -17.642970   1.000000
    293        -17.642970   1.000000
    294        -17.627221   1.000000
    295        -17.627221   1.000000
    296        -17.625809   1.000000
    297        -17.625809   1.000000
    298        -17.625809   1.000000
    299        -17.625809   1.000000
    300        -17.621085   1.000000
    301        -17.621085   1.000000
    302        -17.620024   1.000000
    303        -17.620024   1.000000
    304        -17.620024   1.000000
    305        -17.620024   1.000000
    306        -17.619615   1.000000
    307        -17.619615   1.000000
    308        -17.619615   1.000000
    309        -17.619615   1.000000
    310        -17.616473   1.000000
    311        -17.616473   1.000000
    312        -17.611451   1.000000
    313        -17.611451   1.000000
    314        -17.603775   1.000000
    315        -17.603775   1.000000
    316        -17.598330   1.000000
    317        -17.598330   1.000000
    318        -17.597414   1.000000
    319        -17.597414   1.000000
    320        -17.597414   1.000000
    321        -17.597414   1.000000
    322        -17.596665   1.000000
    323        -17.596665   1.000000
    324        -17.589179   1.000000
    325        -17.589179   1.000000
    326        -17.589179   1.000000
    327        -17.589179   1.000000
    328        -17.576805   1.000000
    329        -17.576805   1.000000
    330        -17.576805   1.000000
    331        -17.576805   1.000000
    332        -17.572995   1.000000
    333        -17.572995   1.000000
    334        -17.572995   1.000000
    335        -17.572995   1.000000
    336        -17.571929   1.000000
    337        -17.566809   1.000000
    338        -17.566809   1.000000
    339        -17.566809   1.000000
    340        -17.566809   1.000000
    341        -17.565782   1.000000
    342        -17.565782   1.000000
    343        -17.565782   1.000000
    344        -17.565782   1.000000
    345        -17.565127   1.000000
    346        -17.565127   1.000000
    347        -17.562779   1.000000
    348        -17.562779   1.000000
    349        -17.557921   1.000000
    350        -17.557921   1.000000
    351        -17.551836   1.000000
    352        -17.551836   1.000000
    353        -17.551836   1.000000
    354        -17.551836   1.000000
    355        -17.551092   1.000000
    356        -17.551092   1.000000
    357        -17.549885   1.000000
    358        -17.549885   1.000000
    359        -17.543486   1.000000
    360        -17.543486   1.000000
    361        -17.533056   1.000000
    362        -17.533056   1.000000
    363        -17.527935   1.000000
    364        -17.527935   1.000000
    365        -17.525417   1.000000
    366        -17.523183   1.000000
    367        -17.523183   1.000000
    368        -17.518910   1.000000
    369        -17.510849   1.000000
    370        -17.510849   1.000000
    371        -17.510849   1.000000
    372        -17.510849   1.000000
    373        -17.505766   1.000000
    374        -17.505766   1.000000
    375        -17.485098   1.000000
    376        -17.485098   1.000000
    377        -17.485098   1.000000
    378        -17.485098   1.000000
    379        -17.476479   1.000000
    380        -17.464375   1.000000
    381        -17.460291   1.000000
    382        -17.460291   1.000000
    383        -17.445697   1.000000
    384        -17.445697   1.000000
    385          3.766043   1.000000
    386          3.766043   1.000000
    387          4.085755   1.000000
    388          4.570959   1.000000
    389          4.570959   1.000000
    390          4.570959   1.000000
    391          4.570959   1.000000
    392          4.844308   1.000000
    393          4.844308   1.000000
    394          4.948775   1.000000
    395          5.445274   1.000000
    396          5.445274   1.000000
    397          5.527221   1.000000
    398          5.527221   1.000000
    399          5.872277   1.000000
    400          5.872277   1.000000
    401          5.872277   1.000000
    402          5.872277   1.000000
    403          5.942228   1.000000
    404          5.942228   1.000000
    405          5.942228   1.000000
    406          5.942228   1.000000
    407          5.950733   1.000000
    408          5.950733   1.000000
    409          5.992907   1.000000
    410          5.992907   1.000000
    411          6.035906   1.000000
    412          6.035906   1.000000
    413          6.035906   1.000000
    414          6.035906   1.000000
    415          6.093619   1.000000
    416          6.093619   1.000000
    417          6.093619   1.000000
    418          6.093619   1.000000
    419          6.093825   1.000000
    420          6.093825   1.000000
    421          6.093825   1.000000
    422          6.093825   1.000000
    423          6.289359   1.000000
    424          6.289359   1.000000
    425          6.289359   1.000000
    426          6.289359   1.000000
    427          6.298732   1.000000
    428          6.298732   1.000000
    429          6.343308   1.000000
    430          6.343308   1.000000
    431          6.365820   1.000000
    432          6.365820   1.000000
    433          6.552820   1.000000
    434          6.552820   1.000000
    435          6.606313   1.000000
    436          6.612122   1.000000
    437          6.612122   1.000000
    438          6.612122   1.000000
    439          6.612122   1.000000
    440          6.700665   1.000000
    441          6.700665   1.000000
    442          6.700665   1.000000
    443          6.700665   1.000000
    444          6.753855   1.000000
    445          6.753855   1.000000
    446          6.770823   1.000000
    447          6.770823   1.000000
    448          6.770823   1.000000
    449          6.770823   1.000000
    450          6.802514   1.000000
    451          6.802514   1.000000
    452          6.820122   1.000000
    453          6.820122   1.000000
    454          6.859656   1.000000
    455          6.859656   1.000000
    456          6.863550   1.000000
    457          6.865788   1.000000
    458          6.877124   1.000000
    459          6.877124   1.000000
    460          6.877124   1.000000
    461          6.877124   1.000000
    462          6.877295   1.000000
    463          6.877295   1.000000
    464          6.900067   1.000000
    465          6.900067   1.000000
    466          6.953585   1.000000
    467          6.953585   1.000000
    468          6.953585   1.000000
    469          6.953585   1.000000
    470          6.977193   1.000000
    471          6.977193   1.000000
    472          7.023443   1.000000
    473          7.023443   1.000000
    474          7.083361   1.000000
    475          7.132023   1.000000
    476          7.132023   1.000000
    477          7.138591   1.000000
    478          7.162708   1.000000
    479          7.162708   1.000000
    480          7.188169   1.000000
    481          7.189055   1.000000
    482          7.189055   1.000000
    483          7.258867   1.000000
    484          7.258867   1.000000
    485          7.361905   1.000000
    486          7.361905   1.000000
    487          7.504799   1.000000
    488          7.557197   1.000000
    489          7.557197   1.000000
    490          7.606760   1.000000
    491          7.610836   1.000000
    492          7.610836   1.000000
    493          7.610836   1.000000
    494          7.610836   1.000000
    495          7.630117   1.000000
    496          7.630117   1.000000
    497          7.630117   1.000000
    498          7.630117   1.000000
    499          7.631112   1.000000
    500          7.631112   1.000000
    501          7.631127   1.000000
    502          7.631127   1.000000
    503          7.631127   1.000000
    504          7.631127   1.000000
    505          7.671327   1.000000
    506          7.671327   1.000000
    507          7.725084   1.000000
    508          7.725084   1.000000
    509          7.725084   1.000000
    510          7.725084   1.000000
    511          7.761671   1.000000
    512          7.761671   1.000000
    513          7.771352   1.000000
    514          7.771352   1.000000
    515          7.802686   1.000000
    516          7.802686   1.000000
    517          7.802687   1.000000
    518          7.802687   1.000000
    519          7.819725   1.000000
    520          7.819725   1.000000
    521          7.840410   1.000000
    522          7.929580   1.000000
    523          7.929580   1.000000
    524          8.019904   1.000000
    525          8.106954   1.000000
    526          8.130757   1.000000
    527          8.130757   1.000000
    528          8.206274   1.000001
    529          8.252480   1.000004
    530          8.252480   1.000004
    531          8.254339   1.000004
    532          8.254339   1.000004
    533          8.254340   1.000004
    534          8.254340   1.000004
    535          8.260630   1.000005
    536          8.260630   1.000005
    537          8.274931   1.000008
    538          8.274931   1.000008
    539          8.274931   1.000008
    540          8.274931   1.000008
    541          8.296929   1.000017
    542          8.296929   1.000017
    543          8.296929   1.000017
    544          8.296929   1.000017
    545          8.310974   1.000026
    546          8.310974   1.000026
    547          8.310974   1.000026
    548          8.310974   1.000026
    549          8.383255   1.000202
    550          8.383255   1.000202
    551          8.386968   1.000223
    552          8.386968   1.000223
    553          8.399929   1.000311
    554          8.399929   1.000311
    555          8.399930   1.000311
    556          8.399930   1.000311
    557          8.400151   1.000313
    558          8.400151   1.000313
    559          8.408365   1.000385
    560          8.408365   1.000385
    561          8.408365   1.000385
    562          8.408365   1.000385
    563          8.451883   1.001083
    564          8.451883   1.001083
    565          8.699727   1.035085
    566          8.743555   1.030046
    567          8.743555   1.030046
    568          8.826166   0.938592
    569          8.891843   0.752581
    570          8.891843   0.752581
    571          8.910044   0.684499
    572          8.910044   0.684499
    573          8.910044   0.684499
    574          8.910044   0.684499
    575          8.962523   0.467648
    576          8.962523   0.467648
    577          8.969617   0.437794
    578          8.969617   0.437794
    579          9.009230   0.279137
    580          9.009230   0.279137
    581          9.062699   0.109169
    582          9.062699   0.109169
    583          9.062699   0.109169
    584          9.062699   0.109169
    585          9.091370   0.046387
    586          9.091370   0.046387
    587          9.118981   0.004880
    588          9.118981   0.004880
    589          9.118981   0.004880
    590          9.118981   0.004880
    591          9.147919  -0.021133
    592          9.176752  -0.033072
    593          9.209858  -0.035096
    594          9.209858  -0.035096
    595          9.232989  -0.032111
    596          9.232989  -0.032111
    597          9.255051  -0.027611
    598          9.255051  -0.027611
    599          9.255051  -0.027611
    600          9.255051  -0.027611
    601          9.262360  -0.025956
    602          9.262361  -0.025956
    603          9.266584  -0.024983
    604          9.289527  -0.019726
    605          9.289527  -0.019726
    606          9.289527  -0.019726
    607          9.289527  -0.019726
    608          9.357368  -0.007677
    609          9.357368  -0.007677
    610          9.357368  -0.007677
    611          9.357368  -0.007677
    612          9.378037  -0.005402
    613          9.378037  -0.005402
    614          9.432721  -0.001872
    615          9.432721  -0.001872
    616          9.445859  -0.001413
    617          9.445859  -0.001413
    618          9.483853  -0.000592
    619          9.488460  -0.000529
    620          9.488460  -0.000529
    621          9.538054  -0.000148
    622          9.538054  -0.000148
    623          9.538054  -0.000148
    624          9.538054  -0.000148
    625          9.564958  -0.000070
    626          9.564958  -0.000070
    627          9.584094  -0.000040
    628          9.584094  -0.000040
    629          9.584094  -0.000040
    630          9.584094  -0.000040
    631          9.596250  -0.000028
    632          9.596250  -0.000028
    633          9.626347  -0.000011
    634          9.626347  -0.000011
    635          9.627168  -0.000011
    636          9.636013  -0.000008
    637          9.636013  -0.000008
    638          9.661661  -0.000003
    639          9.731419  -0.000000
    640          9.731419  -0.000000
    641          9.731419  -0.000000
    642          9.731419  -0.000000
    643          9.845925  -0.000000
    644          9.845925  -0.000000
    645          9.880271  -0.000000
    646          9.880271  -0.000000
    647          9.880271  -0.000000
    648          9.880271  -0.000000
    649          9.881627  -0.000000
    650          9.881627  -0.000000
    651          9.886182  -0.000000
    652          9.886183  -0.000000
    653          9.890617  -0.000000
    654          9.890617  -0.000000
    655          9.911815  -0.000000
    656          9.927038  -0.000000
    657          9.927039  -0.000000
    658          9.927039  -0.000000
    659          9.927042  -0.000000
    660          9.938082  -0.000000
    661          9.938082  -0.000000
    662          9.938083  -0.000000
    663          9.938083  -0.000000
    664         10.019647  -0.000000
    665         10.019649  -0.000000
    666         10.020288  -0.000000
    667         10.020290  -0.000000
    668         10.020293  -0.000000
    669         10.020298  -0.000000
    670         10.036268  -0.000000
    671         10.036276  -0.000000
    672         10.087682  -0.000000
    673         10.087688  -0.000000
    674         10.087692  -0.000000
    675         10.087705  -0.000000
    676         10.094681  -0.000000
    677         10.094805  -0.000000
    678         10.151099  -0.000000
    679         10.151208  -0.000000
    680         10.166530  -0.000000
    681         10.166596  -0.000000
    682         10.234487  -0.000000
    683         10.240379  -0.000000
    684         10.240613  -0.000000
    685         10.241501  -0.000000
    686         10.241963  -0.000000
    687         10.266112  -0.000000
    688         10.267530  -0.000000
    689         10.332980  -0.000000
    690         10.335511  -0.000000
    691         10.340816  -0.000000
    692         10.342020  -0.000000
    693         10.346544  -0.000000
    694         10.356813  -0.000000
    695         10.373411  -0.000000
    696         10.376210  -0.000000
    697         10.389125  -0.000000
    698         10.392968  -0.000000
    699         10.398956  -0.000000
    700         10.413501  -0.000000
    701         10.423043  -0.000000
    702         10.435727  -0.000000
    703         10.458636  -0.000000
    704         10.472228  -0.000000
 
  0.0000000E+00  0.0000000E+00  0.2500000E+00  0.2000000E-01
      1        -39.907665   1.000000
      2        -39.888579   1.000000
      3        -39.855335   1.000000
      4        -39.848031   1.000000
      5        -39.848031   1.000000
      6        -39.848031   1.000000
      7        -39.848031   1.000000
      8        -39.848031   1.000000
      9        -39.848031   1.000000
     10        -39.833722   1.000000
     11        -39.833722   1.000000
     12        -39.833722   1.000000
     13        -39.833722   1.000000
     14        -39.833722   1.000000
     15        -39.833722   1.000000
     16        -39.816626   1.000000
     17        -39.808838   1.000000
     18        -39.808838   1.000000
     19        -39.808838   1.000000
     20        -39.808838   1.000000
     21        -39.808838   1.000000
     22        -39.808838   1.000000
     23        -39.782828   1.000000
     24        -39.779946   1.000000
     25        -39.779946   1.000000
     26        -39.779946   1.000000
     27        -39.779946   1.000000
     28        -39.779946   1.000000
     29        -39.779946   1.000000
     30        -39.776469   1.000000
     31        -39.776469   1.000000
     32        -39.776469   1.000000
     33        -39.776469   1.000000
     34        -39.776469   1.000000
     35        -39.776469   1.000000
     36        -39.775987   1.000000
     37        -39.775987   1.000000
     38        -39.775987   1.000000
     39        -39.770012   1.000000
     40        -39.770012   1.000000
     41        -39.770012   1.000000
     42        -39.770012   1.000000
     43        -39.770012   1.000000
     44        -39.770012   1.000000
     45        -39.769652   1.000000
     46        -39.769652   1.000000
     47        -39.769652   1.000000
     48        -39.763172   1.000000
     49        -39.758844   1.000000
     50        -39.758844   1.000000
     51        -39.758844   1.000000
     52        -39.758844   1.000000
     53        -39.758844   1.000000
     54        -39.758844   1.000000
     55        -39.758683   1.000000
     56        -39.758683   1.000000
     57        -39.758683   1.000000
     58        -39.754791   1.000000
     59        -39.754791   1.000000
     60        -39.754791   1.000000
     61        -39.754791   1.000000
     62        -39.754791   1.000000
     63        -39.754791   1.000000
     64        -39.746042   1.000000
     65        -39.746042   1.000000
     66        -39.746042   1.000000
     67        -39.745956   1.000000
     68        -39.745956   1.000000
     69        -39.745956   1.000000
     70        -39.745956   1.000000
     71        -39.745956   1.000000
     72        -39.745956   1.000000
     73        -39.740208   1.000000
     74        -39.740208   1.000000
     75        -39.740208   1.000000
     76        -39.740208   1.000000
     77        -39.740208   1.000000
     78        -39.740208   1.000000
     79        -39.735101   1.000000
     80        -39.735101   1.000000
     81        -39.735101   1.000000
     82        -39.734795   1.000000
     83        -39.734795   1.000000
     84        -39.734795   1.000000
     85        -39.734795   1.000000
     86        -39.734795   1.000000
     87        -39.734795   1.000000
     88        -39.728780   1.000000
     89        -39.728780   1.000000
     90        -39.728780   1.000000
     91        -39.728358   1.000000
     92        -39.728358   1.000000
     93        -39.728358   1.000000
     94        -39.728358   1.000000
     95        -39.728358   1.000000
     96        -39.728358   1.000000
     97        -18.406559   1.000000
     98        -18.337915   1.000000
     99        -18.337915   1.000000
    100        -18.337915   1.000000
    101        -18.323686   1.000000
    102        -18.323686   1.000000
    103        -18.323686   1.000000
    104        -18.287581   1.000000
    105        -18.287581   1.000000
    106        -18.287581   1.000000
    107        -18.286146   1.000000
    108        -18.265922   1.000000
    109        -18.265922   1.000000
    110        -18.265922   1.000000
    111        -18.246911   1.000000
    112        -18.246911   1.000000
    113        -18.246911   1.000000
    114        -18.246911   1.000000
    115        -18.246911   1.000000
    116        -18.246911   1.000000
    117        -18.219422   1.000000
    118        -18.219422   1.000000
    119        -18.219422   1.000000
    120        -18.219422   1.000000
    121        -18.219422   1.000000
    122        -18.219422   1.000000
    123        -18.207405   1.000000
    124        -18.207405   1.000000
    125        -18.207405   1.000000
    126        -18.207405   1.000000
    127        -18.207405   1.000000
    128        -18.207405   1.000000
    129        -18.193875   1.000000
    130        -18.193875   1.000000
    131        -18.193875   1.000000
    132        -18.193875   1.000000
    133        -18.193875   1.000000
    134        -18.193875   1.000000
    135        -18.190398   1.000000
    136        -18.190398   1.000000
    137        -18.190398   1.000000
    138        -18.183054   1.000000
    139        -18.183054   1.000000
    140        -18.183054   1.000000
    141        -18.183054   1.000000
    142        -18.183054   1.000000
    143        -18.183054   1.000000
    144        -18.138577   1.000000
    145        -18.138577   1.000000
    146        -18.138577   1.000000
    147        -18.138577   1.000000
    148        -18.138577   1.000000
    149        -18.138577   1.000000
    150        -18.124394   1.000000
    151        -18.124394   1.000000
    152        -18.124394   1.000000
    153        -18.124394   1.000000
    154        -18.124394   1.000000
    155        -18.124394   1.000000
    156        -18.109276   1.000000
    157        -18.109276   1.000000
    158        -18.109276   1.000000
    159        -18.109276   1.000000
    160        -18.109276   1.000000
    161        -18.109276   1.000000
    162        -18.099213   1.000000
    163        -18.099213   1.000000
    164        -18.099213   1.000000
    165        -18.085323   1.000000
    166        -18.085323   1.000000
    167        -18.085323   1.000000
    168        -18.085323   1.000000
    169        -18.085323   1.000000
    170        -18.085323   1.000000
    171        -18.072915   1.000000
    172        -18.007336   1.000000
    173        -18.007336   1.000000
    174        -18.007336   1.000000
    175        -18.007336   1.000000
    176        -18.007336   1.000000
    177        -18.007336   1.000000
    178        -17.974251   1.000000
    179        -17.974251   1.000000
    180        -17.974251   1.000000
    181        -17.943863   1.000000
    182        -17.943863   1.000000
    183        -17.943863   1.000000
    184        -17.943863   1.000000
    185        -17.943863   1.000000
    186        -17.943863   1.000000
    187        -17.901251   1.000000
    188        -17.901251   1.000000
    189        -17.901251   1.000000
    190        -17.901251   1.000000
    191        -17.901251   1.000000
    192        -17.901251   1.000000
    193        -17.891284   1.000000
    194        -17.891284   1.000000
    195        -17.891284   1.000000
    196        -17.891284   1.000000
    197        -17.891284   1.000000
    198        -17.891284   1.000000
    199        -17.890167   1.000000
    200        -17.890167   1.000000
    201        -17.890167   1.000000
    202        -17.890167   1.000000
    203        -17.890167   1.000000
    204        -17.890167   1.000000
    205        -17.870531   1.000000
    206        -17.870531   1.000000
    207        -17.870531   1.000000
    208        -17.870531   1.000000
    209        -17.870531   1.000000
    210        -17.870531   1.000000
    211        -17.850167   1.000000
    212        -17.850167   1.000000
    213        -17.850167   1.000000
    214        -17.846640   1.000000
    215        -17.846640   1.000000
    216        -17.846640   1.000000
    217        -17.846640   1.000000
    218        -17.846640   1.000000
    219        -17.846640   1.000000
    220        -17.820786   1.000000
    221        -17.820786   1.000000
    222        -17.820786   1.000000
    223        -17.820786   1.000000
    224        -17.820786   1.000000
    225        -17.820786   1.000000
    226        -17.820692   1.000000
    227        -17.820692   1.000000
    228        -17.820692   1.000000
    229        -17.820692   1.000000
    230        -17.820692   1.000000
    231        -17.820692   1.000000
    232        -17.818712   1.000000
    233        -17.810838   1.000000
    234        -17.810838   1.000000
    235        -17.810838   1.000000
    236        -17.810838   1.000000
    237        -17.810838   1.000000
    238        -17.810838   1.000000
    239        -17.782093   1.000000
    240        -17.782093   1.000000
    241        -17.782093   1.000000
    242        -17.782093   1.000000
    243        -17.782093   1.000000
    244        -17.782093   1.000000
    245        -17.765704   1.000000
    246        -17.765704   1.000000
    247        -17.765704   1.000000
    248        -17.735882   1.000000
    249        -17.735882   1.000000
    250        -17.735882   1.000000
    251        -17.723520   1.000000
    252        -17.723520   1.000000
    253        -17.723520   1.000000
    254        -17.713478   1.000000
    255        -17.713478   1.000000
    256        -17.713478   1.000000
    257        -17.713478   1.000000
    258        -17.713478   1.000000
    259        -17.713478   1.000000
    260        -17.698557   1.000000
    261        -17.698557   1.000000
    262        -17.698557   1.000000
    263        -17.698557   1.000000
    264        -17.698557   1.000000
    265        -17.698557   1.000000
    266        -17.690109   1.000000
    267        -17.690109   1.000000
    268        -17.690109   1.000000
    269        -17.690109   1.000000
    270        -17.690109   1.000000
    271        -17.690109   1.000000
    272        -17.683769   1.000000
    273        -17.683769   1.000000
    274        -17.683769   1.000000
    275        -17.673364   1.000000
    276        -17.673364   1.000000
    277        -17.673364   1.000000
    278        -17.667998   1.000000
    279        -17.667998   1.000000
    280        -17.667998   1.000000
    281        -17.667998   1.000000
    282        -17.667998   1.000000
    283        -17.667998   1.000000
    284        -17.659478   1.000000
    285        -17.659478   1.000000
    286        -17.659478   1.000000
    287        -17.659478   1.000000
    288        -17.659478   1.000000
    289        -17.659478   1.000000
    290        -17.648298   1.000000
    291        -17.648298   1.000000
    292        -17.648298   1.000000
    293        -17.643338   1.000000
    294        -17.643338   1.000000
    295        -17.643338   1.000000
    296        -17.643338   1.000000
    297        -17.643338   1.000000
    298        -17.643338   1.000000
    299        -17.640785   1.000000
    300        -17.640785   1.000000
    301        -17.640785   1.000000
    302        -17.635017   1.000000
    303        -17.635017   1.000000
    304        -17.635017   1.000000
    305        -17.635017   1.000000
    306        -17.635017   1.000000
    307        -17.635017   1.000000
    308        -17.622864   1.000000
    309        -17.622864   1.000000
    310        -17.622864   1.000000
    311        -17.611309   1.000000
    312        -17.611309   1.000000
    313        -17.611309   1.000000
    314        -17.611309   1.000000
    315        -17.611309   1.000000
    316        -17.611309   1.000000
    317        -17.600335   1.000000
    318        -17.600335   1.000000
    319        -17.600335   1.000000
    320        -17.600335   1.000000
    321        -17.600335   1.000000
    322        -17.600335   1.000000
    323        -17.597313   1.000000
    324        -17.597313   1.000000
    325        -17.597313   1.000000
    326        -17.597313   1.000000
    327        -17.597313   1.000000
    328        -17.597313   1.000000
    329        -17.590915   1.000000
    330        -17.582684   1.000000
    331        -17.582684   1.000000
    332        -17.582684   1.000000
    333        -17.582684   1.000000
    334        -17.582684   1.000000
    335        -17.582684   1.000000
    336        -17.569471   1.000000
    337        -17.569471   1.000000
    338        -17.569471   1.000000
    339        -17.561716   1.000000
    340        -17.561716   1.000000
    341        -17.550217   1.000000
    342        -17.550217   1.000000
    343        -17.550217   1.000000
    344        -17.550217   1.000000
    345        -17.550217   1.000000
    346        -17.550217   1.000000
    347        -17.544137   1.000000
    348        -17.544137   1.000000
    349        -17.544030   1.000000
    350        -17.544030   1.000000
    351        -17.544030   1.000000
    352        -17.544030   1.000000
    353        -17.544030   1.000000
    354        -17.544030   1.000000
    355        -17.538364   1.000000
    356        -17.538364   1.000000
    357        -17.538364   1.000000
    358        -17.520365   1.000000
    359        -17.520365   1.000000
    360        -17.520365   1.000000
    361        -17.520365   1.000000
    362        -17.520365   1.000000
    363        -17.520365   1.000000
    364        -17.513540   1.000000
    365        -17.513540   1.000000
    366        -17.506405   1.000000
    367        -17.506405   1.000000
    368        -17.506405   1.000000
    369        -17.506405   1.000000
    370        -17.506405   1.000000
    371        -17.506405   1.000000
    372        -17.480935   1.000000
    373        -17.480935   1.000000
    374        -17.480935   1.000000
    375        -17.480935   1.000000
    376        -17.480935   1.000000
    377        -17.480935   1.000000
    378        -17.478028   1.000000
    379        -17.478028   1.000000
    380        -17.455859   1.000000
    381        -17.447118   1.000000
    382        -17.447117   1.000000
    383        -17.429197   1.000000
    384        -17.429197   1.000000
    385          3.347167   1.000000
    386          3.790384   1.000000
    387          4.559078   1.000000
    388          4.846686   1.000000
    389          4.846686   1.000000
    390          4.846686   1.000000
    391          4.846686   1.000000
    392          4.846686   1.000000
    393          4.846686   1.000000
    394          5.141275   1.000000
    395          5.141275   1.000000
    396          5.141275   1.000000
    397          5.141275   1.000000
    398          5.141275   1.000000
    399          5.141275   1.000000
    400          5.368250   1.000000
    401          5.687872   1.000000
    402          5.687872   1.000000
    403          5.687872   1.000000
    404          5.687872   1.000000
    405          5.687872   1.000000
    406          5.687872   1.000000
    407          5.820127   1.000000
    408          5.914659   1.000000
    409          5.939248   1.000000
    410          5.939248   1.000000
    411          5.939248   1.000000
    412          5.956890   1.000000
    413          5.956890   1.000000
    414          5.956890   1.000000
    415          6.263545   1.000000
    416          6.263545   1.000000
    417          6.263545   1.000000
    418          6.268768   1.000000
    419          6.268768   1.000000
    420          6.268768   1.000000
    421          6.384605   1.000000
    422          6.384605   1.000000
    423          6.384605   1.000000
    424          6.384605   1.000000
    425          6.384605   1.000000
    426          6.384605   1.000000
    427          6.410511   1.000000
    428          6.410511   1.000000
    429          6.410511   1.000000
    430          6.479565   1.000000
    431          6.479565   1.000000
    432          6.479565   1.000000
    433          6.789536   1.000000
    434          6.789536   1.000000
    435          6.789536   1.000000
    436          6.789536   1.000000
    437          6.789536   1.000000
    438          6.789536   1.000000
    439          6.803456   1.000000
    440          6.803456   1.000000
    441          6.803456   1.000000
    442          6.803456   1.000000
    443          6.803456   1.000000
    444          6.803456   1.000000
    445          6.851261   1.000000
    446          6.851261   1.000000
    447          6.851261   1.000000
    448          6.851261   1.000000
    449          6.851261   1.000000
    450          6.851261   1.000000
    451          6.853745   1.000000
    452          6.853745   1.000000
    453          6.853745   1.000000
    454          6.853745   1.000000
    455          6.853745   1.000000
    456          6.853745   1.000000
    457          6.932418   1.000000
    458          6.932418   1.000000
    459          6.932418   1.000000
    460          6.932418   1.000000
    461          6.932418   1.000000
    462          6.932418   1.000000
    463          6.943205   1.000000
    464          6.943205   1.000000
    465          6.943205   1.000000
    466          6.943205   1.000000
    467          6.943205   1.000000
    468          6.943205   1.000000
    469          6.944693   1.000000
    470          6.944693   1.000000
    471          6.944693   1.000000
    472          6.944693   1.000000
    473          6.944693   1.000000
    474          6.944693   1.000000
    475          7.018932   1.000000
    476          7.018932   1.000000
    477          7.018932   1.000000
    478          7.018932   1.000000
    479          7.018932   1.000000
    480          7.018932   1.000000
    481          7.040665   1.000000
    482          7.040665   1.000000
    483          7.040665   1.000000
    484          7.580035   1.000000
    485          7.580035   1.000000
    486          7.580035   1.000000
    487          7.580035   1.000000
    488          7.580035   1.000000
    489          7.580035   1.000000
    490          7.708341   1.000000
    491          7.708341   1.000000
    492          7.708341   1.000000
    493          7.708341   1.000000
    494          7.708341   1.000000
    495          7.708341   1.000000
    496          7.715833   1.000000
    497          7.715833   1.000000
    498          7.715833   1.000000
    499          7.715833   1.000000
    500          7.715833   1.000000
    501          7.715833   1.000000
    502          7.728827   1.000000
    503          7.728827   1.000000
    504          7.728827   1.000000
    505          7.741903   1.000000
    506          7.741903   1.000000
    507          7.741903   1.000000
    508          7.741903   1.000000
    509          7.741903   1.000000
    510          7.741903   1.000000
    511          7.781340   1.000000
    512          7.781340   1.000000
    513          7.781340   1.000000
    514          7.810190   1.000000
    515          7.810190   1.000000
    516          7.810190   1.000000
    517          7.956226   1.000000
    518          7.956226   1.000000
    519          7.956226   1.000000
    520          7.956226   1.000000
    521          7.956226   1.000000
    522          7.956226   1.000000
    523          7.976509   1.000000
    524          7.976509   1.000000
    525          7.976509   1.000000
    526          7.976509   1.000000
    527          7.976509   1.000000
    528          7.976509   1.000000
    529          8.024626   1.000000
    530          8.024626   1.000000
    531          8.024626   1.000000
    532          8.060080   1.000000
    533          8.060080   1.000000
    534          8.060080   1.000000
    535          8.060080   1.000000
    536          8.060080   1.000000
    537          8.060080   1.000000
    538          8.109464   1.000000
    539          8.109464   1.000000
    540          8.109464   1.000000
    541          8.109464   1.000000
    542          8.109464   1.000000
    543          8.109464   1.000000
    544          8.440136   1.000828
    545          8.440136   1.000828
    546          8.440136   1.000828
    547          8.440136   1.000828
    548          8.440136   1.000828
    549          8.440136   1.000828
    550          8.447844   1.000988
    551          8.447844   1.000988
    552          8.447844   1.000988
    553          8.447844   1.000988
    554          8.447844   1.000988
    555          8.447844   1.000988
    556          8.505316   1.003315
    557          8.505316   1.003315
    558          8.505316   1.003315
    559          8.526720   1.004942
    560          8.526720   1.004942
    561          8.526720   1.004942
    562          8.526720   1.004942
    563          8.526720   1.004942
    564          8.526720   1.004942
    565          8.569303   1.010023
    566          8.569303   1.010023
    567          8.569303   1.010023
    568          8.569303   1.010023
    569          8.569303   1.010023
    570          8.569303   1.010023
    571          8.682804   1.033118
    572          8.682804   1.033118
    573          8.682804   1.033118
    574          8.682804   1.033118
    575          8.682804   1.033118
    576          8.682804   1.033118
    577          8.933948   0.587999
    578          9.055831   0.127279
    579          9.055831   0.127279
    580          9.055831   0.127279
    581          9.055831   0.127279
    582          9.055831   0.127278
    583          9.055831   0.127278
    584          9.096188   0.037850
    585          9.096188   0.037850
    586          9.096188   0.037850
    587          9.096188   0.037850
    588          9.096188   0.037850
    589          9.096188   0.037850
    590          9.120292   0.003340
    591          9.178866  -0.033516
    592          9.178866  -0.033516
    593          9.178866  -0.033516
    594          9.178866  -0.033516
    595          9.178866  -0.033516
    596          9.178866  -0.033516
    597          9.188943  -0.034967
    598          9.188943  -0.034967
    599          9.188943  -0.034967
    600          9.188943  -0.034967
    601          9.188943  -0.034967
    602          9.188943  -0.034967
    603          9.198842  -0.035454
    604          9.198842  -0.035454
    605          9.198842  -0.035454
    606          9.198842  -0.035454
    607          9.198842  -0.035454
    608          9.198842  -0.035454
    609          9.241044  -0.030591
    610          9.241044  -0.030591
    611          9.241044  -0.030591
    612          9.241044  -0.030591
    613          9.241044  -0.030591
    614          9.241044  -0.030591
    615          9.329046  -0.011860
    616          9.540909  -0.000137
    617          9.540909  -0.000137
    618          9.540909  -0.000137
    619          9.556057  -0.000090
    620          9.569460  -0.000062
    621          9.569460  -0.000062
    622          9.569460  -0.000062
    623          9.569460  -0.000062
    624          9.569460  -0.000062
    625          9.569460  -0.000062
    626          9.617649  -0.000015
    627          9.617649  -0.000015
    628          9.617649  -0.000015
    629          9.617649  -0.000015
    630          9.617649  -0.000015
    631          9.617649  -0.000015
    632          9.640427  -0.000007
    633          9.640427  -0.000007
    634          9.641326  -0.000007
    635          9.641326  -0.000007
    636          9.687469  -0.000001
    637          9.687469  -0.000001
    638          9.687469  -0.000001
    639          9.687469  -0.000001
    640          9.687469  -0.000001
    641          9.687469  -0.000001
    642          9.772266  -0.000000
    643          9.772266  -0.000000
    644          9.835683  -0.000000
    645          9.835683  -0.000000
    646          9.877940  -0.000000
    647          9.920811  -0.000000
    648          9.920811  -0.000000
    649          9.920811  -0.000000
    650          9.922697  -0.000000
    651          9.922698  -0.000000
    652          9.922699  -0.000000
    653          9.954904  -0.000000
    654         10.035604  -0.000000
    655         10.035605  -0.000000
    656         10.035607  -0.000000
    657         10.035611  -0.000000
    658         10.035617  -0.000000
    659         10.035635  -0.000000
    660         10.066948  -0.000000
    661         10.066956  -0.000000
    662         10.066981  -0.000000
    663         10.143474  -0.000000
    664         10.143477  -0.000000
    665         10.143517  -0.000000
    666         10.143563  -0.000000
    667         10.143687  -0.000000
    668         10.144208  -0.000000
    669         10.161101  -0.000000
    670         10.161476  -0.000000
    671         10.190443  -0.000000
    672         10.190477  -0.000000
    673         10.190517  -0.000000
    674         10.190629  -0.000000
    675         10.190726  -0.000000
    676         10.191039  -0.000000
    677         10.191326  -0.000000
    678         10.191419  -0.000000
    679         10.191455  -0.000000
    680         10.191617  -0.000000
    681         10.191985  -0.000000
    682         10.193319  -0.000000
    683         10.199204  -0.000000
    684         10.199253  -0.000000
    685         10.199269  -0.000000
    686         10.199356  -0.000000
    687         10.199700  -0.000000
    688         10.200551  -0.000000
    689         10.243103  -0.000000
    690         10.243170  -0.000000
    691         10.243373  -0.000000
    692         10.260747  -0.000000
    693         10.260940  -0.000000
    694         10.261275  -0.000000
    695         10.261872  -0.000000
    696         10.263122  -0.000000
    697         10.265288  -0.000000
    698         10.328933  -0.000000
    699         10.329746  -0.000000
    700         10.336414  -0.000000
    701         10.445428  -0.000000
    702         10.450339  -0.000000
    703         10.454249  -0.000000
    704         10.462322  -0.000000
 
  0.2000000E+00  0.1972964E-16  0.2500000E+00  0.1200000E+00
      1        -39.904876   1.000000
      2        -39.885994   1.000000
      3        -39.867137   1.000000
      4        -39.856171   1.000000
      5        -39.856171   1.000000
      6        -39.853101   1.000000
      7        -39.851180   1.000000
      8        -39.841139   1.000000
      9        -39.841139   1.000000
     10        -39.836574   1.000000
     11        -39.836574   1.000000
     12        -39.828009   1.000000
     13        -39.823419   1.000000
     14        -39.823316   1.000000
     15        -39.823316   1.000000
     16        -39.815569   1.000000
     17        -39.815006   1.000000
     18        -39.815006   1.000000
     19        -39.814810   1.000000
     20        -39.800272   1.000000
     21        -39.800272   1.000000
     22        -39.793973   1.000000
     23        -39.791452   1.000000
     24        -39.791452   1.000000
     25        -39.791156   1.000000
     26        -39.784644   1.000000
     27        -39.784644   1.000000
     28        -39.783014   1.000000
     29        -39.783014   1.000000
     30        -39.781372   1.000000
     31        -39.780381   1.000000
     32        -39.776420   1.000000
     33        -39.776420   1.000000
     34        -39.776035   1.000000
     35        -39.776035   1.000000
     36        -39.773533   1.000000
     37        -39.773533   1.000000
     38        -39.773429   1.000000
     39        -39.769981   1.000000
     40        -39.769981   1.000000
     41        -39.769691   1.000000
     42        -39.769691   1.000000
     43        -39.768923   1.000000
     44        -39.768394   1.000000
     45        -39.768394   1.000000
     46        -39.763574   1.000000
     47        -39.763574   1.000000
     48        -39.763036   1.000000
     49        -39.761959   1.000000
     50        -39.761383   1.000000
     51        -39.759106   1.000000
     52        -39.759106   1.000000
     53        -39.758832   1.000000
     54        -39.758832   1.000000
     55        -39.758705   1.000000
     56        -39.758705   1.000000
     57        -39.758197   1.000000
     58        -39.758197   1.000000
     59        -39.751489   1.000000
     60        -39.751489   1.000000
     61        -39.751366   1.000000
     62        -39.751366   1.000000
     63        -39.750263   1.000000
     64        -39.750263   1.000000
     65        -39.747476   1.000000
     66        -39.747145   1.000000
     67        -39.746730   1.000000
     68        -39.746029   1.000000
     69        -39.746029   1.000000
     70        -39.745966   1.000000
     71        -39.745966   1.000000
     72        -39.742867   1.000000
     73        -39.742867   1.000000
     74        -39.742466   1.000000
     75        -39.742466   1.000000
     76        -39.736835   1.000000
     77        -39.736835   1.000000
     78        -39.736788   1.000000
     79        -39.736788   1.000000
     80        -39.735441   1.000000
     81        -39.735066   1.000000
     82        -39.735066   1.000000
     83        -39.734825   1.000000
     84        -39.734825   1.000000
     85        -39.734768   1.000000
     86        -39.734768   1.000000
     87        -39.734530   1.000000
     88        -39.730341   1.000000
     89        -39.730341   1.000000
     90        -39.728736   1.000000
     91        -39.728736   1.000000
     92        -39.728487   1.000000
     93        -39.728394   1.000000
     94        -39.728394   1.000000
     95        -39.728359   1.000000
     96        -39.728359   1.000000
     97        -18.399320   1.000000
     98        -18.329400   1.000000
     99        -18.329400   1.000000
    100        -18.324987   1.000000
    101        -18.314892   1.000000
    102        -18.314892   1.000000
    103        -18.311481   1.000000
    104        -18.298949   1.000000
    105        -18.281330   1.000000
    106        -18.279573   1.000000
    107        -18.279573   1.000000
    108        -18.273561   1.000000
    109        -18.268982   1.000000
    110        -18.268982   1.000000
    111        -18.256999   1.000000
    112        -18.256999   1.000000
    113        -18.251060   1.000000
    114        -18.236152   1.000000
    115        -18.236152   1.000000
    116        -18.224217   1.000000
    117        -18.221814   1.000000
    118        -18.221814   1.000000
    119        -18.215965   1.000000
    120        -18.215965   1.000000
    121        -18.212395   1.000000
    122        -18.212395   1.000000
    123        -18.212113   1.000000
    124        -18.212113   1.000000
    125        -18.209431   1.000000
    126        -18.209157   1.000000
    127        -18.209157   1.000000
    128        -18.203076   1.000000
    129        -18.203076   1.000000
    130        -18.202732   1.000000
    131        -18.202732   1.000000
    132        -18.201352   1.000000
    133        -18.201352   1.000000
    134        -18.195173   1.000000
    135        -18.192903   1.000000
    136        -18.192903   1.000000
    137        -18.182871   1.000000
    138        -18.182871   1.000000
    139        -18.182060   1.000000
    140        -18.182060   1.000000
    141        -18.176408   1.000000
    142        -18.175527   1.000000
    143        -18.172671   1.000000
    144        -18.172671   1.000000
    145        -18.148360   1.000000
    146        -18.148360   1.000000
    147        -18.145468   1.000000
    148        -18.145468   1.000000
    149        -18.140305   1.000000
    150        -18.140305   1.000000
    151        -18.135724   1.000000
    152        -18.135724   1.000000
    153        -18.131710   1.000000
    154        -18.131710   1.000000
    155        -18.113269   1.000000
    156        -18.113269   1.000000
    157        -18.106575   1.000000
    158        -18.106575   1.000000
    159        -18.106345   1.000000
    160        -18.106345   1.000000
    161        -18.091507   1.000000
    162        -18.091507   1.000000
    163        -18.091488   1.000000
    164        -18.091000   1.000000
    165        -18.085545   1.000000
    166        -18.072489   1.000000
    167        -18.067073   1.000000
    168        -18.067073   1.000000
    169        -18.062116   1.000000
    170        -18.062116   1.000000
    171        -18.058982   1.000000
    172        -18.058982   1.000000
    173        -18.051615   1.000000
    174        -18.051615   1.000000
    175        -17.998611   1.000000
    176        -17.989008   1.000000
    177        -17.987705   1.000000
    178        -17.974797   1.000000
    179        -17.974797   1.000000
    180        -17.972067   1.000000
    181        -17.972067   1.000000
    182        -17.969517   1.000000
    183        -17.969517   1.000000
    184        -17.953462   1.000000
    185        -17.953462   1.000000
    186        -17.951223   1.000000
    187        -17.951223   1.000000
    188        -17.950765   1.000000
    189        -17.950765   1.000000
    190        -17.945632   1.000000
    191        -17.945632   1.000000
    192        -17.931553   1.000000
    193        -17.920631   1.000000
    194        -17.920631   1.000000
    195        -17.917842   1.000000
    196        -17.917842   1.000000
    197        -17.895835   1.000000
    198        -17.895835   1.000000
    199        -17.886947   1.000000
    200        -17.886947   1.000000
    201        -17.880505   1.000000
    202        -17.864190   1.000000
    203        -17.858012   1.000000
    204        -17.857948   1.000000
    205        -17.857948   1.000000
    206        -17.857727   1.000000
    207        -17.857727   1.000000
    208        -17.856166   1.000000
    209        -17.856166   1.000000
    210        -17.850102   1.000000
    211        -17.850102   1.000000
    212        -17.849815   1.000000
    213        -17.849815   1.000000
    214        -17.847796   1.000000
    215        -17.847796   1.000000
    216        -17.842287   1.000000
    217        -17.842287   1.000000
    218        -17.841141   1.000000
    219        -17.841141   1.000000
    220        -17.840065   1.000000
    221        -17.840065   1.000000
    222        -17.823664   1.000000
    223        -17.813824   1.000000
    224        -17.813824   1.000000
    225        -17.813138   1.000000
    226        -17.813138   1.000000
    227        -17.812546   1.000000
    228        -17.812546   1.000000
    229        -17.802620   1.000000
    230        -17.802620   1.000000
    231        -17.799756   1.000000
    232        -17.799756   1.000000
    233        -17.797799   1.000000
    234        -17.793611   1.000000
    235        -17.793611   1.000000
    236        -17.791532   1.000000
    237        -17.777579   1.000000
    238        -17.777579   1.000000
    239        -17.777005   1.000000
    240        -17.777005   1.000000
    241        -17.773416   1.000000
    242        -17.773416   1.000000
    243        -17.761056   1.000000
    244        -17.749851   1.000000
    245        -17.749851   1.000000
    246        -17.744058   1.000000
    247        -17.744058   1.000000
    248        -17.738294   1.000000
    249        -17.738294   1.000000
    250        -17.737518   1.000000
    251        -17.735063   1.000000
    252        -17.732941   1.000000
    253        -17.732941   1.000000
    254        -17.731460   1.000000
    255        -17.727796   1.000000
    256        -17.727796   1.000000
    257        -17.726720   1.000000
    258        -17.716948   1.000000
    259        -17.716948   1.000000
    260        -17.698869   1.000000
    261        -17.697671   1.000000
    262        -17.697671   1.000000
    263        -17.695923   1.000000
    264        -17.695923   1.000000
    265        -17.694487   1.000000
    266        -17.694487   1.000000
    267        -17.684779   1.000000
    268        -17.684779   1.000000
    269        -17.680629   1.000000
    270        -17.679892   1.000000
    271        -17.679892   1.000000
    272        -17.679744   1.000000
    273        -17.675742   1.000000
    274        -17.675742   1.000000
    275        -17.673295   1.000000
    276        -17.673295   1.000000
    277        -17.672470   1.000000
    278        -17.671428   1.000000
    279        -17.667270   1.000000
    280        -17.667270   1.000000
    281        -17.666823   1.000000
    282        -17.666823   1.000000
    283        -17.660990   1.000000
    284        -17.660990   1.000000
    285        -17.660372   1.000000
    286        -17.650900   1.000000
    287        -17.650900   1.000000
    288        -17.647043   1.000000
    289        -17.647043   1.000000
    290        -17.646322   1.000000
    291        -17.646322   1.000000
    292        -17.646268   1.000000
    293        -17.640654   1.000000
    294        -17.640654   1.000000
    295        -17.640366   1.000000
    296        -17.640366   1.000000
    297        -17.638057   1.000000
    298        -17.638057   1.000000
    299        -17.637081   1.000000
    300        -17.637081   1.000000
    301        -17.636360   1.000000
    302        -17.636029   1.000000
    303        -17.636029   1.000000
    304        -17.632865   1.000000
    305        -17.626910   1.000000
    306        -17.626910   1.000000
    307        -17.626409   1.000000
    308        -17.625305   1.000000
    309        -17.619476   1.000000
    310        -17.619476   1.000000
    311        -17.619317   1.000000
    312        -17.619119   1.000000
    313        -17.619119   1.000000
    314        -17.617245   1.000000
    315        -17.617245   1.000000
    316        -17.613602   1.000000
    317        -17.609656   1.000000
    318        -17.609656   1.000000
    319        -17.601905   1.000000
    320        -17.601905   1.000000
    321        -17.600730   1.000000
    322        -17.595789   1.000000
    323        -17.595789   1.000000
    324        -17.588555   1.000000
    325        -17.586831   1.000000
    326        -17.586831   1.000000
    327        -17.583945   1.000000
    328        -17.583945   1.000000
    329        -17.580181   1.000000
    330        -17.580181   1.000000
    331        -17.578693   1.000000
    332        -17.578693   1.000000
    333        -17.578511   1.000000
    334        -17.576095   1.000000
    335        -17.576095   1.000000
    336        -17.573955   1.000000
    337        -17.573564   1.000000
    338        -17.573564   1.000000
    339        -17.572679   1.000000
    340        -17.567246   1.000000
    341        -17.566344   1.000000
    342        -17.566033   1.000000
    343        -17.564854   1.000000
    344        -17.564854   1.000000
    345        -17.559570   1.000000
    346        -17.556235   1.000000
    347        -17.556235   1.000000
    348        -17.553562   1.000000
    349        -17.549232   1.000000
    350        -17.548511   1.000000
    351        -17.548511   1.000000
    352        -17.543779   1.000000
    353        -17.543779   1.000000
    354        -17.538578   1.000000
    355        -17.538578   1.000000
    356        -17.535484   1.000000
    357        -17.533005   1.000000
    358        -17.533005   1.000000
    359        -17.527788   1.000000
    360        -17.526932   1.000000
    361        -17.525654   1.000000
    362        -17.523264   1.000000
    363        -17.521198   1.000000
    364        -17.521198   1.000000
    365        -17.517901   1.000000
    366        -17.507866   1.000000
    367        -17.507866   1.000000
    368        -17.502577   1.000000
    369        -17.502577   1.000000
    370        -17.498354   1.000000
    371        -17.498354   1.000000
    372        -17.498304   1.000000
    373        -17.492676   1.000000
    374        -17.489000   1.000000
    375        -17.487474   1.000000
    376        -17.481520   1.000000
    377        -17.480091   1.000000
    378        -17.480091   1.000000
    379        -17.466689   1.000000
    380        -17.464056   1.000000
    381        -17.456183   1.000000
    382        -17.449838   1.000000
    383        -17.438958   1.000000
    384        -17.431477   1.000000
    385          3.416990   1.000000
    386          3.856515   1.000000
    387          4.367768   1.000000
    388          4.621100   1.000000
    389          4.648667   1.000000
    390          4.648667   1.000000
    391          4.730849   1.000000
    392          4.978395   1.000000
    393          4.978395   1.000000
    394          5.138245   1.000000
    395          5.138245   1.000000
    396          5.330999   1.000000
    397          5.381422   1.000000
    398          5.381422   1.000000
    399          5.388034   1.000000
    400          5.432447   1.000000
    401          5.515569   1.000000
    402          5.582337   1.000000
    403          5.582337   1.000000
    404          5.847075   1.000000
    405          5.847075   1.000000
    406          5.888301   1.000000
    407          5.898679   1.000000
    408          5.936227   1.000000
    409          5.969003   1.000000
    410          5.980382   1.000000
    411          5.982865   1.000000
    412          5.982865   1.000000
    413          6.006451   1.000000
    414          6.006451   1.000000
    415          6.176679   1.000000
    416          6.207439   1.000000
    417          6.282399   1.000000
    418          6.295212   1.000000
    419          6.295212   1.000000
    420          6.318572   1.000000
    421          6.318572   1.000000
    422          6.334257   1.000000
    423          6.334257   1.000000
    424          6.418203   1.000000
    425          6.418203   1.000000
    426          6.432148   1.000000
    427          6.432148   1.000000
    428          6.442714   1.000000
    429          6.467802   1.000000
    430          6.467802   1.000000
    431          6.480197   1.000000
    432          6.484589   1.000000
    433          6.484589   1.000000
    434          6.515944   1.000000
    435          6.545291   1.000000
    436          6.545291   1.000000
    437          6.545990   1.000000
    438          6.545990   1.000000
    439          6.575048   1.000000
    440          6.575048   1.000000
    441          6.616511   1.000000
    442          6.616511   1.000000
    443          6.707462   1.000000
    444          6.728395   1.000000
    445          6.728395   1.000000
    446          6.748438   1.000000
    447          6.772075   1.000000
    448          6.772075   1.000000
    449          6.849181   1.000000
    450          6.849181   1.000000
    451          6.859755   1.000000
    452          6.859755   1.000000
    453          6.894955   1.000000
    454          6.894955   1.000000
    455          6.895567   1.000000
    456          6.895567   1.000000
    457          6.912232   1.000000
    458          6.912232   1.000000
    459          6.917933   1.000000
    460          6.917933   1.000000
    461          6.923267   1.000000
    462          6.937092   1.000000
    463          7.010643   1.000000
    464          7.010643   1.000000
    465          7.011429   1.000000
    466          7.011429   1.000000
    467          7.020226   1.000000
    468          7.020226   1.000000
    469          7.039888   1.000000
    470          7.039888   1.000000
    471          7.057465   1.000000
    472          7.057465   1.000000
    473          7.057997   1.000000
    474          7.080001   1.000000
    475          7.080001   1.000000
    476          7.117040   1.000000
    477          7.117040   1.000000
    478          7.157260   1.000000
    479          7.157260   1.000000
    480          7.184091   1.000000
    481          7.184091   1.000000
    482          7.195480   1.000000
    483          7.195480   1.000000
    484          7.309016   1.000000
    485          7.309016   1.000000
    486          7.476047   1.000000
    487          7.476047   1.000000
    488          7.520471   1.000000
    489          7.520471   1.000000
    490          7.522371   1.000000
    491          7.534447   1.000000
    492          7.534447   1.000000
    493          7.579274   1.000000
    494          7.579274   1.000000
    495          7.590948   1.000000
    496          7.645164   1.000000
    497          7.660677   1.000000
    498          7.660677   1.000000
    499          7.680707   1.000000
    500          7.680707   1.000000
    501          7.726750   1.000000
    502          7.726750   1.000000
    503          7.739539   1.000000
    504          7.751072   1.000000
    505          7.751072   1.000000
    506          7.756218   1.000000
    507          7.756218   1.000000
    508          7.821580   1.000000
    509          7.821580   1.000000
    510          7.838015   1.000000
    511          7.838015   1.000000
    512          7.838568   1.000000
    513          7.838568   1.000000
    514          7.878941   1.000000
    515          7.890636   1.000000
    516          7.890636   1.000000
    517          7.918362   1.000000
    518          7.918362   1.000000
    519          7.959477   1.000000
    520          7.975292   1.000000
    521          7.975292   1.000000
    522          7.986883   1.000000
    523          7.986883   1.000000
    524          7.987124   1.000000
    525          7.987124   1.000000
    526          8.006961   1.000000
    527          8.006961   1.000000
    528          8.022764   1.000000
    529          8.051894   1.000000
    530          8.055196   1.000000
    531          8.055196   1.000000
    532          8.070517   1.000000
    533          8.070517   1.000000
    534          8.076241   1.000000
    535          8.076241   1.000000
    536          8.099543   1.000000
    537          8.129556   1.000000
    538          8.129557   1.000000
    539          8.169605   1.000000
    540          8.169605   1.000000
    541          8.196561   1.000001
    542          8.196561   1.000001
    543          8.341738   1.000064
    544          8.353396   1.000090
    545          8.353396   1.000090
    546          8.373488   1.000156
    547          8.373488   1.000156
    548          8.396116   1.000282
    549          8.396116   1.000282
    550          8.411068   1.000412
    551          8.421730   1.000535
    552          8.421730   1.000535
    553          8.432347   1.000690
    554          8.444321   1.000912
    555          8.444321   1.000912
    556          8.472643   1.001706
    557          8.472643   1.001706
    558          8.482636   1.002105
    559          8.482710   1.002108
    560          8.486208   1.002266
    561          8.486208   1.002266
    562          8.505631   1.003335
    563          8.505631   1.003335
    564          8.534797   1.005704
    565          8.534797   1.005704
    566          8.583580   1.012357
    567          8.583580   1.012357
    568          8.596000   1.014649
    569          8.609593   1.017412
    570          8.696147   1.034793
    571          8.696147   1.034793
    572          8.738537   1.031659
    573          8.783722   1.002967
    574          8.783722   1.002967
    575          8.835570   0.918442
    576          8.920515   0.643023
    577          8.920515   0.643023
    578          9.030774   0.203034
    579          9.030774   0.203034
    580          9.054592   0.130669
    581          9.054592   0.130669
    582          9.069979   0.091265
    583          9.069979   0.091265
    584          9.076118   0.077209
    585          9.091666   0.045846
    586          9.091666   0.045846
    587          9.115586   0.009044
    588          9.115586   0.009044
    589          9.137919  -0.013949
    590          9.137919  -0.013949
    591          9.144948  -0.019182
    592          9.144948  -0.019182
    593          9.161574  -0.028265
    594          9.161574  -0.028265
    595          9.163155  -0.028909
    596          9.163155  -0.028909
    597          9.173314  -0.032240
    598          9.173314  -0.032240
    599          9.173345  -0.032248
    600          9.184869  -0.034506
    601          9.184869  -0.034506
    602          9.203259  -0.035413
    603          9.203259  -0.035413
    604          9.213336  -0.034817
    605          9.213336  -0.034817
    606          9.221001  -0.033968
    607          9.267995  -0.024657
    608          9.304165  -0.016571
    609          9.304165  -0.016571
    610          9.315854  -0.014243
    611          9.377622  -0.005442
    612          9.377622  -0.005442
    613          9.377954  -0.005410
    614          9.451675  -0.001243
    615          9.451675  -0.001243
    616          9.493798  -0.000465
    617          9.493798  -0.000465
    618          9.500423  -0.000394
    619          9.500423  -0.000394
    620          9.506879  -0.000335
    621          9.528015  -0.000194
    622          9.528015  -0.000194
    623          9.561485  -0.000078
    624          9.567669  -0.000065
    625          9.570110  -0.000061
    626          9.579531  -0.000046
    627          9.579531  -0.000046
    628          9.581793  -0.000043
    629          9.581793  -0.000043
    630          9.600824  -0.000024
    631          9.601936  -0.000024
    632          9.640662  -0.000007
    633          9.640662  -0.000007
    634          9.652861  -0.000005
    635          9.652861  -0.000005
    636          9.660906  -0.000004
    637          9.691829  -0.000001
    638          9.692484  -0.000001
    639          9.695924  -0.000001
    640          9.695924  -0.000001
    641          9.709683  -0.000001
    642          9.745914  -0.000000
    643          9.793550  -0.000000
    644          9.833624  -0.000000
    645          9.845735  -0.000000
    646          9.884449  -0.000000
    647          9.884449  -0.000000
    648          9.887483  -0.000000
    649          9.894497  -0.000000
    650          9.894498  -0.000000
    651          9.906957  -0.000000
    652          9.912107  -0.000000
    653          9.912107  -0.000000
    654          9.943381  -0.000000
    655          9.945203  -0.000000
    656          9.947260  -0.000000
    657          9.947261  -0.000000
    658          9.964785  -0.000000
    659          9.964788  -0.000000
    660          9.997308  -0.000000
    661          9.997310  -0.000000
    662         10.000301  -0.000000
    663         10.000302  -0.000000
    664         10.022681  -0.000000
    665         10.029581  -0.000000
    666         10.029588  -0.000000
    667         10.031856  -0.000000
    668         10.047219  -0.000000
    669         10.047227  -0.000000
    670         10.059714  -0.000000
    671         10.071284  -0.000000
    672         10.094968  -0.000000
    673         10.170139  -0.000000
    674         10.193035  -0.000000
    675         10.194829  -0.000000
    676         10.214620  -0.000000
    677         10.221447  -0.000000
    678         10.222633  -0.000000
    679         10.222818  -0.000000
    680         10.230943  -0.000000
    681         10.231293  -0.000000
    682         10.240908  -0.000000
    683         10.241550  -0.000000
    684         10.267844  -0.000000
    685         10.269683  -0.000000
    686         10.276048  -0.000000
    687         10.287372  -0.000000
    688         10.290592  -0.000000
    689         10.296328  -0.000000
    690         10.299008  -0.000000
    691         10.308170  -0.000000
    692         10.313284  -0.000000
    693         10.329755  -0.000000
    694         10.338417  -0.000000
    695         10.343046  -0.000000
    696         10.407898  -0.000000
    697         10.408828  -0.000000
    698         10.415665  -0.000000
    699         10.431715  -0.000000
    700         10.437256  -0.000000
    701         10.444543  -0.000000
    702         10.454993  -0.000000
    703         10.470164  -0.000000
    704         10.492913  -0.000000
 
  0.4000000E+00  0.2397958E-16  0.2500000E+00  0.1200000E+00
      1        -39.896709   1.000000
      2        -39.883798   1.000000
      3        -39.878434   1.000000
      4        -39.866505   1.000000
      5        -39.860393   1.000000
      6        -39.860393   1.000000
      7        -39.846587   1.000000
      8        -39.845005   1.000000
      9        -39.845005   1.000000
     10        -39.836395   1.000000
     11        -39.822641   1.000000
     12        -39.822641   1.000000
     13        -39.818234   1.000000
     14        -39.818234   1.000000
     15        -39.810739   1.000000
     16        -39.810739   1.000000
     17        -39.809537   1.000000
     18        -39.808761   1.000000
     19        -39.807232   1.000000
     20        -39.807232   1.000000
     21        -39.801375   1.000000
     22        -39.798327   1.000000
     23        -39.796948   1.000000
     24        -39.796948   1.000000
     25        -39.792147   1.000000
     26        -39.790062   1.000000
     27        -39.790062   1.000000
     28        -39.787126   1.000000
     29        -39.787126   1.000000
     30        -39.783658   1.000000
     31        -39.780219   1.000000
     32        -39.779116   1.000000
     33        -39.779116   1.000000
     34        -39.777207   1.000000
     35        -39.776302   1.000000
     36        -39.776302   1.000000
     37        -39.776151   1.000000
     38        -39.776151   1.000000
     39        -39.770837   1.000000
     40        -39.769888   1.000000
     41        -39.769888   1.000000
     42        -39.769782   1.000000
     43        -39.769782   1.000000
     44        -39.768930   1.000000
     45        -39.766104   1.000000
     46        -39.766104   1.000000
     47        -39.760029   1.000000
     48        -39.760029   1.000000
     49        -39.759256   1.000000
     50        -39.758791   1.000000
     51        -39.758791   1.000000
     52        -39.758741   1.000000
     53        -39.758741   1.000000
     54        -39.758466   1.000000
     55        -39.758466   1.000000
     56        -39.758445   1.000000
     57        -39.754924   1.000000
     58        -39.754924   1.000000
     59        -39.753114   1.000000
     60        -39.751986   1.000000
     61        -39.751986   1.000000
     62        -39.751911   1.000000
     63        -39.746931   1.000000
     64        -39.746931   1.000000
     65        -39.746007   1.000000
     66        -39.746007   1.000000
     67        -39.745985   1.000000
     68        -39.745985   1.000000
     69        -39.745272   1.000000
     70        -39.745272   1.000000
     71        -39.744319   1.000000
     72        -39.744319   1.000000
     73        -39.741125   1.000000
     74        -39.741125   1.000000
     75        -39.741056   1.000000
     76        -39.740538   1.000000
     77        -39.740538   1.000000
     78        -39.737154   1.000000
     79        -39.736127   1.000000
     80        -39.736127   1.000000
     81        -39.734987   1.000000
     82        -39.734987   1.000000
     83        -39.734896   1.000000
     84        -39.734896   1.000000
     85        -39.733259   1.000000
     86        -39.733259   1.000000
     87        -39.733209   1.000000
     88        -39.733209   1.000000
     89        -39.730521   1.000000
     90        -39.730162   1.000000
     91        -39.730162   1.000000
     92        -39.728625   1.000000
     93        -39.728625   1.000000
     94        -39.728619   1.000000
     95        -39.728498   1.000000
     96        -39.728498   1.000000
     97        -18.378003   1.000000
     98        -18.343826   1.000000
     99        -18.305388   1.000000
    100        -18.305388   1.000000
    101        -18.289696   1.000000
    102        -18.289695   1.000000
    103        -18.288386   1.000000
    104        -18.280424   1.000000
    105        -18.280424   1.000000
    106        -18.278612   1.000000
    107        -18.270925   1.000000
    108        -18.270925   1.000000
    109        -18.267555   1.000000
    110        -18.257530   1.000000
    111        -18.257530   1.000000
    112        -18.251878   1.000000
    113        -18.251878   1.000000
    114        -18.247032   1.000000
    115        -18.237635   1.000000
    116        -18.234824   1.000000
    117        -18.232873   1.000000
    118        -18.231276   1.000000
    119        -18.231276   1.000000
    120        -18.227950   1.000000
    121        -18.227950   1.000000
    122        -18.223557   1.000000
    123        -18.223557   1.000000
    124        -18.215131   1.000000
    125        -18.215131   1.000000
    126        -18.210732   1.000000
    127        -18.200433   1.000000
    128        -18.200433   1.000000
    129        -18.199511   1.000000
    130        -18.199511   1.000000
    131        -18.198214   1.000000
    132        -18.198214   1.000000
    133        -18.196926   1.000000
    134        -18.196926   1.000000
    135        -18.192060   1.000000
    136        -18.192060   1.000000
    137        -18.189449   1.000000
    138        -18.189449   1.000000
    139        -18.179301   1.000000
    140        -18.179301   1.000000
    141        -18.174223   1.000000
    142        -18.174223   1.000000
    143        -18.172111   1.000000
    144        -18.169644   1.000000
    145        -18.163046   1.000000
    146        -18.163046   1.000000
    147        -18.150180   1.000000
    148        -18.150180   1.000000
    149        -18.142509   1.000000
    150        -18.142509   1.000000
    151        -18.140425   1.000000
    152        -18.140425   1.000000
    153        -18.139667   1.000000
    154        -18.139667   1.000000
    155        -18.135612   1.000000
    156        -18.119351   1.000000
    157        -18.119351   1.000000
    158        -18.097792   1.000000
    159        -18.097792   1.000000
    160        -18.097281   1.000000
    161        -18.097281   1.000000
    162        -18.076519   1.000000
    163        -18.072408   1.000000
    164        -18.072042   1.000000
    165        -18.072042   1.000000
    166        -18.071211   1.000000
    167        -18.059522   1.000000
    168        -18.059522   1.000000
    169        -18.056312   1.000000
    170        -18.055100   1.000000
    171        -18.055100   1.000000
    172        -18.054807   1.000000
    173        -18.029767   1.000000
    174        -18.029767   1.000000
    175        -18.022814   1.000000
    176        -18.022814   1.000000
    177        -18.013439   1.000000
    178        -18.004028   1.000000
    179        -18.004028   1.000000
    180        -17.996919   1.000000
    181        -17.996919   1.000000
    182        -17.994243   1.000000
    183        -17.994243   1.000000
    184        -17.975260   1.000000
    185        -17.975260   1.000000
    186        -17.969824   1.000000
    187        -17.969824   1.000000
    188        -17.965686   1.000000
    189        -17.962532   1.000000
    190        -17.962532   1.000000
    191        -17.957513   1.000000
    192        -17.957513   1.000000
    193        -17.952403   1.000000
    194        -17.952403   1.000000
    195        -17.951128   1.000000
    196        -17.951128   1.000000
    197        -17.907063   1.000000
    198        -17.907063   1.000000
    199        -17.890068   1.000000
    200        -17.890068   1.000000
    201        -17.882968   1.000000
    202        -17.879176   1.000000
    203        -17.879176   1.000000
    204        -17.874938   1.000000
    205        -17.874449   1.000000
    206        -17.872083   1.000000
    207        -17.872083   1.000000
    208        -17.856263   1.000000
    209        -17.856263   1.000000
    210        -17.855779   1.000000
    211        -17.855779   1.000000
    212        -17.855500   1.000000
    213        -17.855500   1.000000
    214        -17.840571   1.000000
    215        -17.824535   1.000000
    216        -17.824535   1.000000
    217        -17.822331   1.000000
    218        -17.822331   1.000000
    219        -17.821142   1.000000
    220        -17.821142   1.000000
    221        -17.814144   1.000000
    222        -17.814144   1.000000
    223        -17.807398   1.000000
    224        -17.807398   1.000000
    225        -17.794371   1.000000
    226        -17.794371   1.000000
    227        -17.782647   1.000000
    228        -17.782647   1.000000
    229        -17.767526   1.000000
    230        -17.767526   1.000000
    231        -17.766510   1.000000
    232        -17.766510   1.000000
    233        -17.766330   1.000000
    234        -17.766330   1.000000
    235        -17.760939   1.000000
    236        -17.760939   1.000000
    237        -17.757445   1.000000
    238        -17.757445   1.000000
    239        -17.754958   1.000000
    240        -17.754958   1.000000
    241        -17.754879   1.000000
    242        -17.754879   1.000000
    243        -17.747497   1.000000
    244        -17.747215   1.000000
    245        -17.747215   1.000000
    246        -17.747077   1.000000
    247        -17.747077   1.000000
    248        -17.741666   1.000000
    249        -17.741666   1.000000
    250        -17.739174   1.000000
    251        -17.733866   1.000000
    252        -17.731737   1.000000
    253        -17.731737   1.000000
    254        -17.726164   1.000000
    255        -17.722898   1.000000
    256        -17.722898   1.000000
    257        -17.718567   1.000000
    258        -17.715870   1.000000
    259        -17.715870   1.000000
    260        -17.713897   1.000000
    261        -17.713897   1.000000
    262        -17.710257   1.000000
    263        -17.710257   1.000000
    264        -17.706075   1.000000
    265        -17.706075   1.000000
    266        -17.702928   1.000000
    267        -17.701224   1.000000
    268        -17.698315   1.000000
    269        -17.683514   1.000000
    270        -17.683514   1.000000
    271        -17.681397   1.000000
    272        -17.681397   1.000000
    273        -17.680038   1.000000
    274        -17.680038   1.000000
    275        -17.673698   1.000000
    276        -17.673698   1.000000
    277        -17.673126   1.000000
    278        -17.673126   1.000000
    279        -17.668036   1.000000
    280        -17.663910   1.000000
    281        -17.661956   1.000000
    282        -17.661956   1.000000
    283        -17.654586   1.000000
    284        -17.654586   1.000000
    285        -17.649696   1.000000
    286        -17.643468   1.000000
    287        -17.643468   1.000000
    288        -17.641219   1.000000
    289        -17.637820   1.000000
    290        -17.637820   1.000000
    291        -17.636488   1.000000
    292        -17.636488   1.000000
    293        -17.635054   1.000000
    294        -17.634406   1.000000
    295        -17.629716   1.000000
    296        -17.629716   1.000000
    297        -17.628899   1.000000
    298        -17.628038   1.000000
    299        -17.628038   1.000000
    300        -17.627215   1.000000
    301        -17.621619   1.000000
    302        -17.621619   1.000000
    303        -17.619760   1.000000
    304        -17.619760   1.000000
    305        -17.617130   1.000000
    306        -17.617130   1.000000
    307        -17.616814   1.000000
    308        -17.616695   1.000000
    309        -17.616695   1.000000
    310        -17.613441   1.000000
    311        -17.611721   1.000000
    312        -17.611721   1.000000
    313        -17.609009   1.000000
    314        -17.607014   1.000000
    315        -17.602356   1.000000
    316        -17.596217   1.000000
    317        -17.596217   1.000000
    318        -17.595546   1.000000
    319        -17.595546   1.000000
    320        -17.592940   1.000000
    321        -17.591044   1.000000
    322        -17.591044   1.000000
    323        -17.590923   1.000000
    324        -17.590923   1.000000
    325        -17.590873   1.000000
    326        -17.589699   1.000000
    327        -17.588094   1.000000
    328        -17.588094   1.000000
    329        -17.586598   1.000000
    330        -17.586160   1.000000
    331        -17.583038   1.000000
    332        -17.582635   1.000000
    333        -17.582635   1.000000
    334        -17.579112   1.000000
    335        -17.579112   1.000000
    336        -17.579011   1.000000
    337        -17.579011   1.000000
    338        -17.576919   1.000000
    339        -17.576919   1.000000
    340        -17.576389   1.000000
    341        -17.576389   1.000000
    342        -17.576201   1.000000
    343        -17.576201   1.000000
    344        -17.564204   1.000000
    345        -17.563852   1.000000
    346        -17.563030   1.000000
    347        -17.563030   1.000000
    348        -17.560759   1.000000
    349        -17.560759   1.000000
    350        -17.557511   1.000000
    351        -17.557511   1.000000
    352        -17.557282   1.000000
    353        -17.555484   1.000000
    354        -17.549846   1.000000
    355        -17.547017   1.000000
    356        -17.547017   1.000000
    357        -17.543230   1.000000
    358        -17.540190   1.000000
    359        -17.540190   1.000000
    360        -17.532047   1.000000
    361        -17.532047   1.000000
    362        -17.530472   1.000000
    363        -17.527157   1.000000
    364        -17.520565   1.000000
    365        -17.520565   1.000000
    366        -17.518224   1.000000
    367        -17.514297   1.000000
    368        -17.511142   1.000000
    369        -17.508878   1.000000
    370        -17.508878   1.000000
    371        -17.507617   1.000000
    372        -17.501800   1.000000
    373        -17.500262   1.000000
    374        -17.500262   1.000000
    375        -17.491690   1.000000
    376        -17.489024   1.000000
    377        -17.489024   1.000000
    378        -17.477956   1.000000
    379        -17.470801   1.000000
    380        -17.470782   1.000000
    381        -17.457891   1.000000
    382        -17.454029   1.000000
    383        -17.449402   1.000000
    384        -17.438291   1.000000
    385          3.621777   1.000000
    386          3.947023   1.000000
    387          4.049198   1.000000
    388          4.350928   1.000000
    389          4.548795   1.000000
    390          4.548795   1.000000
    391          4.799506   1.000000
    392          4.896478   1.000000
    393          4.896478   1.000000
    394          5.069949   1.000000
    395          5.513099   1.000000
    396          5.513099   1.000000
    397          5.530531   1.000000
    398          5.530531   1.000000
    399          5.615641   1.000000
    400          5.689536   1.000000
    401          5.689536   1.000000
    402          5.752403   1.000000
    403          5.779781   1.000000
    404          5.885852   1.000000
    405          5.903969   1.000000
    406          5.951569   1.000000
    407          5.951569   1.000000
    408          5.989223   1.000000
    409          5.993015   1.000000
    410          6.047179   1.000000
    411          6.048286   1.000000
    412          6.048286   1.000000
    413          6.053351   1.000000
    414          6.053351   1.000000
    415          6.084515   1.000000
    416          6.111270   1.000000
    417          6.111270   1.000000
    418          6.149438   1.000000
    419          6.149438   1.000000
    420          6.168494   1.000000
    421          6.292260   1.000000
    422          6.292260   1.000000
    423          6.312914   1.000000
    424          6.312914   1.000000
    425          6.315341   1.000000
    426          6.315341   1.000000
    427          6.333631   1.000000
    428          6.366705   1.000000
    429          6.366705   1.000000
    430          6.379738   1.000000
    431          6.388044   1.000000
    432          6.388044   1.000000
    433          6.400224   1.000000
    434          6.447642   1.000000
    435          6.472417   1.000000
    436          6.472417   1.000000
    437          6.543322   1.000000
    438          6.543322   1.000000
    439          6.573711   1.000000
    440          6.573711   1.000000
    441          6.619810   1.000000
    442          6.623395   1.000000
    443          6.680267   1.000000
    444          6.680267   1.000000
    445          6.680582   1.000000
    446          6.680582   1.000000
    447          6.683063   1.000000
    448          6.683063   1.000000
    449          6.735334   1.000000
    450          6.735334   1.000000
    451          6.772854   1.000000
    452          6.794459   1.000000
    453          6.833509   1.000000
    454          6.833509   1.000000
    455          6.862113   1.000000
    456          6.862113   1.000000
    457          6.887201   1.000000
    458          6.887201   1.000000
    459          6.917168   1.000000
    460          6.917168   1.000000
    461          6.931921   1.000000
    462          6.931921   1.000000
    463          6.958471   1.000000
    464          6.958471   1.000000
    465          7.005220   1.000000
    466          7.005220   1.000000
    467          7.092280   1.000000
    468          7.092280   1.000000
    469          7.097040   1.000000
    470          7.097040   1.000000
    471          7.097985   1.000000
    472          7.097985   1.000000
    473          7.128882   1.000000
    474          7.128882   1.000000
    475          7.131284   1.000000
    476          7.147736   1.000000
    477          7.147736   1.000000
    478          7.203632   1.000000
    479          7.203632   1.000000
    480          7.303509   1.000000
    481          7.308253   1.000000
    482          7.308253   1.000000
    483          7.335579   1.000000
    484          7.335579   1.000000
    485          7.348930   1.000000
    486          7.348930   1.000000
    487          7.458155   1.000000
    488          7.458155   1.000000
    489          7.464757   1.000000
    490          7.493039   1.000000
    491          7.493039   1.000000
    492          7.520295   1.000000
    493          7.522708   1.000000
    494          7.522708   1.000000
    495          7.524625   1.000000
    496          7.524625   1.000000
    497          7.536835   1.000000
    498          7.536835   1.000000
    499          7.548500   1.000000
    500          7.548500   1.000000
    501          7.624667   1.000000
    502          7.624667   1.000000
    503          7.646541   1.000000
    504          7.646541   1.000000
    505          7.770726   1.000000
    506          7.811786   1.000000
    507          7.811786   1.000000
    508          7.819041   1.000000
    509          7.847283   1.000000
    510          7.847283   1.000000
    511          7.886919   1.000000
    512          7.886919   1.000000
    513          7.894187   1.000000
    514          7.894187   1.000000
    515          7.925961   1.000000
    516          7.925961   1.000000
    517          7.943465   1.000000
    518          7.943465   1.000000
    519          7.956716   1.000000
    520          7.956716   1.000000
    521          7.994578   1.000000
    522          7.994578   1.000000
    523          8.013123   1.000000
    524          8.013123   1.000000
    525          8.024592   1.000000
    526          8.024592   1.000000
    527          8.040781   1.000000
    528          8.040781   1.000000
    529          8.127771   1.000000
    530          8.138980   1.000000
    531          8.145654   1.000000
    532          8.145654   1.000000
    533          8.164973   1.000000
    534          8.164973   1.000000
    535          8.197623   1.000001
    536          8.197623   1.000001
    537          8.200988   1.000001
    538          8.200988   1.000001
    539          8.206518   1.000001
    540          8.206518   1.000001
    541          8.232124   1.000002
    542          8.232124   1.000002
    543          8.233892   1.000002
    544          8.290187   1.000014
    545          8.290187   1.000014
    546          8.328488   1.000044
    547          8.330943   1.000047
    548          8.363512   1.000119
    549          8.363512   1.000119
    550          8.372889   1.000153
    551          8.372889   1.000153
    552          8.376467   1.000169
    553          8.376467   1.000169
    554          8.386609   1.000221
    555          8.386609   1.000221
    556          8.387259   1.000224
    557          8.387259   1.000224
    558          8.413144   1.000434
    559          8.413144   1.000434
    560          8.414049   1.000443
    561          8.417117   1.000478
    562          8.439857   1.000823
    563          8.539018   1.006137
    564          8.539018   1.006137
    565          8.559387   1.008594
    566          8.559387   1.008594
    567          8.601878   1.015814
    568          8.780223   1.006485
    569          8.793171   0.992191
    570          8.793171   0.992191
    571          8.822707   0.945445
    572          8.908144   0.691861
    573          8.925282   0.623696
    574          8.953740   0.504785
    575          8.985704   0.371239
    576          8.985704   0.371239
    577          9.003743   0.299896
    578          9.003743   0.299895
    579          9.014979   0.257949
    580          9.029694   0.206624
    581          9.029694   0.206624
    582          9.074585   0.080630
    583          9.074585   0.080630
    584          9.088861   0.051059
    585          9.088861   0.051059
    586          9.111530   0.014351
    587          9.111530   0.014351
    588          9.112743   0.012725
    589          9.112743   0.012725
    590          9.150091  -0.022466
    591          9.150091  -0.022466
    592          9.169172  -0.031045
    593          9.169172  -0.031045
    594          9.175721  -0.032837
    595          9.175721  -0.032838
    596          9.237035  -0.031370
    597          9.237035  -0.031370
    598          9.248451  -0.029057
    599          9.255267  -0.027563
    600          9.255267  -0.027563
    601          9.257443  -0.027075
    602          9.257443  -0.027075
    603          9.292012  -0.019175
    604          9.292012  -0.019175
    605          9.303381  -0.016734
    606          9.348058  -0.008911
    607          9.349622  -0.008694
    608          9.349622  -0.008694
    609          9.374135  -0.005785
    610          9.374135  -0.005785
    611          9.374349  -0.005763
    612          9.374349  -0.005763
    613          9.395048  -0.003963
    614          9.395048  -0.003963
    615          9.406315  -0.003195
    616          9.447541  -0.001362
    617          9.447541  -0.001362
    618          9.451597  -0.001245
    619          9.451597  -0.001245
    620          9.491665  -0.000490
    621          9.492414  -0.000481
    622          9.492414  -0.000481
    623          9.499687  -0.000402
    624          9.537442  -0.000151
    625          9.537442  -0.000151
    626          9.549818  -0.000107
    627          9.563465  -0.000073
    628          9.577703  -0.000049
    629          9.577703  -0.000049
    630          9.630940  -0.000010
    631          9.646863  -0.000006
    632          9.716286  -0.000001
    633          9.716286  -0.000001
    634          9.730284  -0.000000
    635          9.730284  -0.000000
    636          9.743237  -0.000000
    637          9.743988  -0.000000
    638          9.743988  -0.000000
    639          9.748243  -0.000000
    640          9.748243  -0.000000
    641          9.758820  -0.000000
    642          9.763253  -0.000000
    643          9.763253  -0.000000
    644          9.775006  -0.000000
    645          9.798405  -0.000000
    646          9.798405  -0.000000
    647          9.802037  -0.000000
    648          9.802037  -0.000000
    649          9.831922  -0.000000
    650          9.837526  -0.000000
    651          9.839825  -0.000000
    652          9.859485  -0.000000
    653          9.872004  -0.000000
    654          9.897561  -0.000000
    655          9.897562  -0.000000
    656          9.902125  -0.000000
    657          9.902125  -0.000000
    658          9.931741  -0.000000
    659          9.931741  -0.000000
    660          9.956036  -0.000000
    661          9.965175  -0.000000
    662          9.993339  -0.000000
    663         10.002923  -0.000000
    664         10.011819  -0.000000
    665         10.016728  -0.000000
    666         10.016731  -0.000000
    667         10.039161  -0.000000
    668         10.043538  -0.000000
    669         10.046311  -0.000000
    670         10.058165  -0.000000
    671         10.092680  -0.000000
    672         10.092833  -0.000000
    673         10.092839  -0.000000
    674         10.092975  -0.000000
    675         10.092995  -0.000000
    676         10.120570  -0.000000
    677         10.120603  -0.000000
    678         10.132376  -0.000000
    679         10.135615  -0.000000
    680         10.151477  -0.000000
    681         10.164496  -0.000000
    682         10.170608  -0.000000
    683         10.170621  -0.000000
    684         10.202041  -0.000000
    685         10.212604  -0.000000
    686         10.212718  -0.000000
    687         10.266108  -0.000000
    688         10.277269  -0.000000
    689         10.278412  -0.000000
    690         10.279520  -0.000000
    691         10.302121  -0.000000
    692         10.302939  -0.000000
    693         10.321560  -0.000000
    694         10.334781  -0.000000
    695         10.335110  -0.000000
    696         10.340477  -0.000000
    697         10.342192  -0.000000
    698         10.348057  -0.000000
    699         10.375968  -0.000000
    700         10.425454  -0.000000
    701         10.428354  -0.000000
    702         10.454622  -0.000000
    703         10.461977  -0.000000
    704         10.471601  -0.000000
 
  0.2000000E+00  0.2000000E+00  0.2500000E+00  0.1200000E+00
      1        -39.899397   1.000000
      2        -39.880919   1.000000
      3        -39.874064   1.000000
      4        -39.874064   1.000000
      5        -39.857545   1.000000
      6        -39.857545   1.000000
      7        -39.848723   1.000000
      8        -39.841978   1.000000
      9        -39.841978   1.000000
     10        -39.828789   1.000000
     11        -39.828789   1.000000
     12        -39.828213   1.000000
     13        -39.828213   1.000000
     14        -39.816885   1.000000
     15        -39.816885   1.000000
     16        -39.811262   1.000000
     17        -39.808340   1.000000
     18        -39.805577   1.000000
     19        -39.805577   1.000000
     20        -39.804287   1.000000
     21        -39.804287   1.000000
     22        -39.797936   1.000000
     23        -39.795358   1.000000
     24        -39.795358   1.000000
     25        -39.790191   1.000000
     26        -39.790191   1.000000
     27        -39.785945   1.000000
     28        -39.785945   1.000000
     29        -39.784411   1.000000
     30        -39.784411   1.000000
     31        -39.781918   1.000000
     32        -39.781918   1.000000
     33        -39.779881   1.000000
     34        -39.778569   1.000000
     35        -39.776906   1.000000
     36        -39.776906   1.000000
     37        -39.776512   1.000000
     38        -39.776512   1.000000
     39        -39.771763   1.000000
     40        -39.767585   1.000000
     41        -39.767585   1.000000
     42        -39.766221   1.000000
     43        -39.766221   1.000000
     44        -39.766039   1.000000
     45        -39.765127   1.000000
     46        -39.765127   1.000000
     47        -39.763904   1.000000
     48        -39.763904   1.000000
     49        -39.763202   1.000000
     50        -39.763202   1.000000
     51        -39.760410   1.000000
     52        -39.760410   1.000000
     53        -39.759590   1.000000
     54        -39.758971   1.000000
     55        -39.756115   1.000000
     56        -39.752613   1.000000
     57        -39.752342   1.000000
     58        -39.752342   1.000000
     59        -39.752247   1.000000
     60        -39.752247   1.000000
     61        -39.751013   1.000000
     62        -39.751013   1.000000
     63        -39.750126   1.000000
     64        -39.749314   1.000000
     65        -39.749314   1.000000
     66        -39.748890   1.000000
     67        -39.748890   1.000000
     68        -39.745848   1.000000
     69        -39.744688   1.000000
     70        -39.743438   1.000000
     71        -39.743438   1.000000
     72        -39.742846   1.000000
     73        -39.742846   1.000000
     74        -39.740940   1.000000
     75        -39.740825   1.000000
     76        -39.738332   1.000000
     77        -39.738332   1.000000
     78        -39.736721   1.000000
     79        -39.736648   1.000000
     80        -39.736648   1.000000
     81        -39.735881   1.000000
     82        -39.735881   1.000000
     83        -39.734809   1.000000
     84        -39.734725   1.000000
     85        -39.734725   1.000000
     86        -39.734307   1.000000
     87        -39.731993   1.000000
     88        -39.731993   1.000000
     89        -39.730329   1.000000
     90        -39.730042   1.000000
     91        -39.730042   1.000000
     92        -39.729111   1.000000
     93        -39.728363   1.000000
     94        -39.728363   1.000000
     95        -39.728342   1.000000
     96        -39.728342   1.000000
     97        -18.385039   1.000000
     98        -18.317688   1.000000
     99        -18.317688   1.000000
    100        -18.316881   1.000000
    101        -18.304774   1.000000
    102        -18.304774   1.000000
    103        -18.300910   1.000000
    104        -18.291880   1.000000
    105        -18.291880   1.000000
    106        -18.272026   1.000000
    107        -18.269602   1.000000
    108        -18.253250   1.000000
    109        -18.253250   1.000000
    110        -18.252794   1.000000
    111        -18.252794   1.000000
    112        -18.245369   1.000000
    113        -18.237765   1.000000
    114        -18.237765   1.000000
    115        -18.232834   1.000000
    116        -18.232834   1.000000
    117        -18.229793   1.000000
    118        -18.229793   1.000000
    119        -18.228568   1.000000
    120        -18.228568   1.000000
    121        -18.228169   1.000000
    122        -18.228169   1.000000
    123        -18.222390   1.000000
    124        -18.222390   1.000000
    125        -18.218691   1.000000
    126        -18.218691   1.000000
    127        -18.217662   1.000000
    128        -18.217662   1.000000
    129        -18.203577   1.000000
    130        -18.203577   1.000000
    131        -18.202008   1.000000
    132        -18.199754   1.000000
    133        -18.199754   1.000000
    134        -18.191907   1.000000
    135        -18.191630   1.000000
    136        -18.191630   1.000000
    137        -18.187864   1.000000
    138        -18.185034   1.000000
    139        -18.177209   1.000000
    140        -18.177209   1.000000
    141        -18.174126   1.000000
    142        -18.172223   1.000000
    143        -18.172223   1.000000
    144        -18.156532   1.000000
    145        -18.156532   1.000000
    146        -18.150533   1.000000
    147        -18.150533   1.000000
    148        -18.144655   1.000000
    149        -18.139610   1.000000
    150        -18.138370   1.000000
    151        -18.135246   1.000000
    152        -18.135246   1.000000
    153        -18.131996   1.000000
    154        -18.131996   1.000000
    155        -18.129164   1.000000
    156        -18.128708   1.000000
    157        -18.128708   1.000000
    158        -18.125489   1.000000
    159        -18.110761   1.000000
    160        -18.110761   1.000000
    161        -18.083207   1.000000
    162        -18.083207   1.000000
    163        -18.081775   1.000000
    164        -18.072217   1.000000
    165        -18.067538   1.000000
    166        -18.067538   1.000000
    167        -18.054899   1.000000
    168        -18.054899   1.000000
    169        -18.054432   1.000000
    170        -18.045427   1.000000
    171        -18.045427   1.000000
    172        -18.037638   1.000000
    173        -18.034664   1.000000
    174        -18.034664   1.000000
    175        -18.034179   1.000000
    176        -18.034179   1.000000
    177        -18.022613   1.000000
    178        -18.022613   1.000000
    179        -18.013204   1.000000
    180        -18.012602   1.000000
    181        -17.999818   1.000000
    182        -17.999818   1.000000
    183        -17.980030   1.000000
    184        -17.980030   1.000000
    185        -17.973691   1.000000
    186        -17.961710   1.000000
    187        -17.961031   1.000000
    188        -17.953182   1.000000
    189        -17.943677   1.000000
    190        -17.943677   1.000000
    191        -17.935314   1.000000
    192        -17.935314   1.000000
    193        -17.928993   1.000000
    194        -17.928993   1.000000
    195        -17.915550   1.000000
    196        -17.915550   1.000000
    197        -17.905662   1.000000
    198        -17.905662   1.000000
    199        -17.901856   1.000000
    200        -17.901856   1.000000
    201        -17.900857   1.000000
    202        -17.887898   1.000000
    203        -17.887898   1.000000
    204        -17.875583   1.000000
    205        -17.875583   1.000000
    206        -17.872572   1.000000
    207        -17.872572   1.000000
    208        -17.870696   1.000000
    209        -17.867471   1.000000
    210        -17.867471   1.000000
    211        -17.861655   1.000000
    212        -17.861655   1.000000
    213        -17.856397   1.000000
    214        -17.840728   1.000000
    215        -17.836049   1.000000
    216        -17.834570   1.000000
    217        -17.833672   1.000000
    218        -17.833672   1.000000
    219        -17.821373   1.000000
    220        -17.821373   1.000000
    221        -17.812892   1.000000
    222        -17.812892   1.000000
    223        -17.799564   1.000000
    224        -17.799564   1.000000
    225        -17.799361   1.000000
    226        -17.791020   1.000000
    227        -17.791020   1.000000
    228        -17.786200   1.000000
    229        -17.778238   1.000000
    230        -17.777917   1.000000
    231        -17.777917   1.000000
    232        -17.774903   1.000000
    233        -17.774903   1.000000
    234        -17.774499   1.000000
    235        -17.763842   1.000000
    236        -17.763842   1.000000
    237        -17.762554   1.000000
    238        -17.752275   1.000000
    239        -17.752275   1.000000
    240        -17.751784   1.000000
    241        -17.751784   1.000000
    242        -17.751689   1.000000
    243        -17.747848   1.000000
    244        -17.747848   1.000000
    245        -17.744064   1.000000
    246        -17.744064   1.000000
    247        -17.743553   1.000000
    248        -17.742585   1.000000
    249        -17.741759   1.000000
    250        -17.741759   1.000000
    251        -17.741749   1.000000
    252        -17.732396   1.000000
    253        -17.732396   1.000000
    254        -17.719617   1.000000
    255        -17.719617   1.000000
    256        -17.717933   1.000000
    257        -17.717933   1.000000
    258        -17.716533   1.000000
    259        -17.716533   1.000000
    260        -17.716003   1.000000
    261        -17.716003   1.000000
    262        -17.715519   1.000000
    263        -17.707423   1.000000
    264        -17.705889   1.000000
    265        -17.705889   1.000000
    266        -17.695116   1.000000
    267        -17.695116   1.000000
    268        -17.687239   1.000000
    269        -17.678431   1.000000
    270        -17.678431   1.000000
    271        -17.673232   1.000000
    272        -17.672788   1.000000
    273        -17.672788   1.000000
    274        -17.671984   1.000000
    275        -17.671984   1.000000
    276        -17.666202   1.000000
    277        -17.666202   1.000000
    278        -17.665976   1.000000
    279        -17.665976   1.000000
    280        -17.659106   1.000000
    281        -17.659106   1.000000
    282        -17.658921   1.000000
    283        -17.658921   1.000000
    284        -17.656161   1.000000
    285        -17.655099   1.000000
    286        -17.655099   1.000000
    287        -17.650708   1.000000
    288        -17.650708   1.000000
    289        -17.649040   1.000000
    290        -17.649040   1.000000
    291        -17.647852   1.000000
    292        -17.647852   1.000000
    293        -17.644846   1.000000
    294        -17.641127   1.000000
    295        -17.641127   1.000000
    296        -17.635048   1.000000
    297        -17.635048   1.000000
    298        -17.632322   1.000000
    299        -17.632322   1.000000
    300        -17.630490   1.000000
    301        -17.630490   1.000000
    302        -17.628715   1.000000
    303        -17.622694   1.000000
    304        -17.622273   1.000000
    305        -17.622273   1.000000
    306        -17.621640   1.000000
    307        -17.615535   1.000000
    308        -17.612379   1.000000
    309        -17.612379   1.000000
    310        -17.609624   1.000000
    311        -17.605980   1.000000
    312        -17.605980   1.000000
    313        -17.605242   1.000000
    314        -17.605242   1.000000
    315        -17.603142   1.000000
    316        -17.603142   1.000000
    317        -17.599703   1.000000
    318        -17.599703   1.000000
    319        -17.598902   1.000000
    320        -17.597845   1.000000
    321        -17.592379   1.000000
    322        -17.588298   1.000000
    323        -17.587979   1.000000
    324        -17.587979   1.000000
    325        -17.587787   1.000000
    326        -17.587787   1.000000
    327        -17.586506   1.000000
    328        -17.585779   1.000000
    329        -17.585779   1.000000
    330        -17.584203   1.000000
    331        -17.583825   1.000000
    332        -17.583825   1.000000
    333        -17.583009   1.000000
    334        -17.583009   1.000000
    335        -17.581135   1.000000
    336        -17.581135   1.000000
    337        -17.580394   1.000000
    338        -17.580372   1.000000
    339        -17.577040   1.000000
    340        -17.575165   1.000000
    341        -17.575165   1.000000
    342        -17.574238   1.000000
    343        -17.574238   1.000000
    344        -17.567126   1.000000
    345        -17.567126   1.000000
    346        -17.564222   1.000000
    347        -17.564222   1.000000
    348        -17.559891   1.000000
    349        -17.557401   1.000000
    350        -17.554102   1.000000
    351        -17.554102   1.000000
    352        -17.551349   1.000000
    353        -17.548927   1.000000
    354        -17.548927   1.000000
    355        -17.542577   1.000000
    356        -17.542577   1.000000
    357        -17.539236   1.000000
    358        -17.539236   1.000000
    359        -17.529030   1.000000
    360        -17.529030   1.000000
    361        -17.528862   1.000000
    362        -17.524104   1.000000
    363        -17.524104   1.000000
    364        -17.522556   1.000000
    365        -17.522556   1.000000
    366        -17.516059   1.000000
    367        -17.516059   1.000000
    368        -17.511250   1.000000
    369        -17.511250   1.000000
    370        -17.510720   1.000000
    371        -17.510720   1.000000
    372        -17.506609   1.000000
    373        -17.494102   1.000000
    374        -17.489288   1.000000
    375        -17.484685   1.000000
    376        -17.484685   1.000000
    377        -17.482881   1.000000
    378        -17.482881   1.000000
    379        -17.470159   1.000000
    380        -17.463001   1.000000
    381        -17.463001   1.000000
    382        -17.456387   1.000000
    383        -17.449556   1.000000
    384        -17.437214   1.000000
    385          3.554387   1.000000
    386          3.985987   1.000000
    387          4.194625   1.000000
    388          4.194625   1.000000
    389          4.577265   1.000000
    390          4.577265   1.000000
    391          4.741476   1.000000
    392          5.024210   1.000000
    393          5.024210   1.000000
    394          5.265338   1.000000
    395          5.265338   1.000000
    396          5.305494   1.000000
    397          5.305494   1.000000
    398          5.556422   1.000000
    399          5.602579   1.000000
    400          5.602579   1.000000
    401          5.712108   1.000000
    402          5.712108   1.000000
    403          5.829946   1.000000
    404          5.829946   1.000000
    405          5.957657   1.000000
    406          5.973300   1.000000
    407          5.973300   1.000000
    408          6.000992   1.000000
    409          6.000992   1.000000
    410          6.020818   1.000000
    411          6.027400   1.000000
    412          6.027400   1.000000
    413          6.073278   1.000000
    414          6.073278   1.000000
    415          6.088122   1.000000
    416          6.107644   1.000000
    417          6.109479   1.000000
    418          6.138174   1.000000
    419          6.191508   1.000000
    420          6.191508   1.000000
    421          6.263990   1.000000
    422          6.263990   1.000000
    423          6.339857   1.000000
    424          6.339857   1.000000
    425          6.352356   1.000000
    426          6.352356   1.000000
    427          6.356613   1.000000
    428          6.367735   1.000000
    429          6.367735   1.000000
    430          6.427160   1.000000
    431          6.459661   1.000000
    432          6.466742   1.000000
    433          6.466742   1.000000
    434          6.512865   1.000000
    435          6.512865   1.000000
    436          6.566967   1.000000
    437          6.566967   1.000000
    438          6.592612   1.000000
    439          6.592612   1.000000
    440          6.596358   1.000000
    441          6.596358   1.000000
    442          6.615247   1.000000
    443          6.615247   1.000000
    444          6.623223   1.000000
    445          6.623223   1.000000
    446          6.625691   1.000000
    447          6.645826   1.000000
    448          6.645826   1.000000
    449          6.680278   1.000000
    450          6.680278   1.000000
    451          6.703854   1.000000
    452          6.731491   1.000000
    453          6.765892   1.000000
    454          6.765892   1.000000
    455          6.903577   1.000000
    456          6.903757   1.000000
    457          6.903757   1.000000
    458          6.924483   1.000000
    459          6.924483   1.000000
    460          6.928203   1.000000
    461          6.928203   1.000000
    462          7.034099   1.000000
    463          7.034099   1.000000
    464          7.038964   1.000000
    465          7.091438   1.000000
    466          7.091438   1.000000
    467          7.094508   1.000000
    468          7.100020   1.000000
    469          7.111470   1.000000
    470          7.111470   1.000000
    471          7.131329   1.000000
    472          7.131329   1.000000
    473          7.142875   1.000000
    474          7.142875   1.000000
    475          7.168363   1.000000
    476          7.173056   1.000000
    477          7.173056   1.000000
    478          7.176844   1.000000
    479          7.176844   1.000000
    480          7.213093   1.000000
    481          7.213093   1.000000
    482          7.249915   1.000000
    483          7.265813   1.000000
    484          7.265813   1.000000
    485          7.343196   1.000000
    486          7.350720   1.000000
    487          7.390906   1.000000
    488          7.424317   1.000000
    489          7.424317   1.000000
    490          7.450757   1.000000
    491          7.450757   1.000000
    492          7.467093   1.000000
    493          7.467093   1.000000
    494          7.562982   1.000000
    495          7.562982   1.000000
    496          7.575864   1.000000
    497          7.575864   1.000000
    498          7.621475   1.000000
    499          7.621475   1.000000
    500          7.628295   1.000000
    501          7.698881   1.000000
    502          7.720359   1.000000
    503          7.744873   1.000000
    504          7.760599   1.000000
    505          7.770451   1.000000
    506          7.770451   1.000000
    507          7.800328   1.000000
    508          7.804945   1.000000
    509          7.845067   1.000000
    510          7.859914   1.000000
    511          7.859914   1.000000
    512          7.872422   1.000000
    513          7.885930   1.000000
    514          7.886826   1.000000
    515          7.886826   1.000000
    516          7.892289   1.000000
    517          7.901538   1.000000
    518          7.928748   1.000000
    519          7.928748   1.000000
    520          7.957689   1.000000
    521          7.957689   1.000000
    522          7.959760   1.000000
    523          7.959760   1.000000
    524          8.000436   1.000000
    525          8.064225   1.000000
    526          8.064225   1.000000
    527          8.066993   1.000000
    528          8.066993   1.000000
    529          8.080971   1.000000
    530          8.080971   1.000000
    531          8.117786   1.000000
    532          8.117786   1.000000
    533          8.121324   1.000000
    534          8.121324   1.000000
    535          8.169975   1.000000
    536          8.169975   1.000000
    537          8.178299   1.000000
    538          8.181926   1.000000
    539          8.181926   1.000000
    540          8.201453   1.000001
    541          8.203930   1.000001
    542          8.213929   1.000001
    543          8.213929   1.000001
    544          8.276819   1.000009
    545          8.276819   1.000009
    546          8.310238   1.000025
    547          8.310238   1.000025
    548          8.365160   1.000124
    549          8.365160   1.000124
    550          8.371414   1.000147
    551          8.371414   1.000147
    552          8.402694   1.000334
    553          8.409184   1.000393
    554          8.409184   1.000393
    555          8.418377   1.000493
    556          8.418377   1.000493
    557          8.420116   1.000515
    558          8.420116   1.000515
    559          8.430666   1.000663
    560          8.430666   1.000663
    561          8.502902   1.003163
    562          8.502902   1.003163
    563          8.632555   1.022531
    564          8.632555   1.022531
    565          8.668986   1.030648
    566          8.668986   1.030648
    567          8.671935   1.031223
    568          8.693658   1.034548
    569          8.693658   1.034548
    570          8.696849   1.034856
    571          8.696849   1.034856
    572          8.810409   0.967422
    573          8.819643   0.951266
    574          8.819643   0.951266
    575          8.926791   0.617527
    576          8.969021   0.440291
    577          8.988386   0.360374
    578          8.992977   0.341963
    579          8.993032   0.341741
    580          8.993032   0.341741
    581          8.995311   0.332704
    582          9.035551   0.187467
    583          9.035551   0.187467
    584          9.093713   0.042164
    585          9.093713   0.042164
    586          9.102308   0.027812
    587          9.102425   0.027629
    588          9.118209   0.005805
    589          9.151424  -0.023245
    590          9.151424  -0.023245
    591          9.202479  -0.035431
    592          9.212149  -0.034920
    593          9.212149  -0.034920
    594          9.245625  -0.029655
    595          9.245625  -0.029655
    596          9.247640  -0.029230
    597          9.247640  -0.029230
    598          9.251147  -0.028474
    599          9.251147  -0.028474
    600          9.257252  -0.027118
    601          9.274301  -0.023198
    602          9.274301  -0.023198
    603          9.317668  -0.013900
    604          9.319696  -0.013521
    605          9.329009  -0.011866
    606          9.329009  -0.011866
    607          9.335586  -0.010780
    608          9.368611  -0.006363
    609          9.368951  -0.006326
    610          9.368951  -0.006326
    611          9.377729  -0.005431
    612          9.377729  -0.005431
    613          9.382021  -0.005032
    614          9.441720  -0.001546
    615          9.441720  -0.001546
    616          9.442190  -0.001530
    617          9.442190  -0.001530
    618          9.492407  -0.000481
    619          9.492407  -0.000481
    620          9.494639  -0.000455
    621          9.524300  -0.000214
    622          9.525058  -0.000210
    623          9.541491  -0.000135
    624          9.541491  -0.000135
    625          9.550024  -0.000107
    626          9.550024  -0.000107
    627          9.553092  -0.000098
    628          9.553092  -0.000098
    629          9.572738  -0.000056
    630          9.573804  -0.000054
    631          9.573804  -0.000054
    632          9.617008  -0.000015
    633          9.617008  -0.000015
    634          9.655102  -0.000004
    635          9.673094  -0.000002
    636          9.673094  -0.000002
    637          9.675100  -0.000002
    638          9.675100  -0.000002
    639          9.723687  -0.000000
    640          9.723687  -0.000000
    641          9.744522  -0.000000
    642          9.781800  -0.000000
    643          9.781973  -0.000000
    644          9.781973  -0.000000
    645          9.792803  -0.000000
    646          9.795788  -0.000000
    647          9.839876  -0.000000
    648          9.839876  -0.000000
    649          9.850823  -0.000000
    650          9.869281  -0.000000
    651          9.869281  -0.000000
    652          9.872968  -0.000000
    653          9.872968  -0.000000
    654          9.878160  -0.000000
    655          9.878160  -0.000000
    656          9.879454  -0.000000
    657          9.879454  -0.000000
    658          9.879830  -0.000000
    659          9.879830  -0.000000
    660          9.916785  -0.000000
    661          9.957658  -0.000000
    662          9.987988  -0.000000
    663         10.033718  -0.000000
    664         10.033723  -0.000000
    665         10.052485  -0.000000
    666         10.052493  -0.000000
    667         10.061080  -0.000000
    668         10.061093  -0.000000
    669         10.088476  -0.000000
    670         10.088493  -0.000000
    671         10.121835  -0.000000
    672         10.140771  -0.000000
    673         10.157402  -0.000000
    674         10.157428  -0.000000
    675         10.178278  -0.000000
    676         10.178433  -0.000000
    677         10.181356  -0.000000
    678         10.183454  -0.000000
    679         10.183626  -0.000000
    680         10.186703  -0.000000
    681         10.186801  -0.000000
    682         10.208618  -0.000000
    683         10.213049  -0.000000
    684         10.213308  -0.000000
    685         10.225567  -0.000000
    686         10.225766  -0.000000
    687         10.225910  -0.000000
    688         10.226501  -0.000000
    689         10.228186  -0.000000
    690         10.228652  -0.000000
    691         10.274901  -0.000000
    692         10.318166  -0.000000
    693         10.335774  -0.000000
    694         10.347966  -0.000000
    695         10.348553  -0.000000
    696         10.370591  -0.000000
    697         10.372135  -0.000000
    698         10.407978  -0.000000
    699         10.413666  -0.000000
    700         10.414412  -0.000000
    701         10.437266  -0.000000
    702         10.457563  -0.000000
    703         10.467971  -0.000000
    704         10.494399  -0.000000
 
  0.4000000E+00  0.2000000E+00  0.2500000E+00  0.1200000E+00
      1        -39.888858   1.000000
      2        -39.888858   1.000000
      3        -39.876428   1.000000
      4        -39.871170   1.000000
      5        -39.871170   1.000000
      6        -39.859719   1.000000
      7        -39.843829   1.000000
      8        -39.840368   1.000000
      9        -39.840368   1.000000
     10        -39.830630   1.000000
     11        -39.829894   1.000000
     12        -39.825632   1.000000
     13        -39.825632   1.000000
     14        -39.813421   1.000000
     15        -39.813421   1.000000
     16        -39.805669   1.000000
     17        -39.804552   1.000000
     18        -39.804552   1.000000
     19        -39.803979   1.000000
     20        -39.803979   1.000000
     21        -39.798832   1.000000
     22        -39.798832   1.000000
     23        -39.796814   1.000000
     24        -39.794076   1.000000
     25        -39.794076   1.000000
     26        -39.792219   1.000000
     27        -39.792219   1.000000
     28        -39.789529   1.000000
     29        -39.789529   1.000000
     30        -39.787774   1.000000
     31        -39.787774   1.000000
     32        -39.779823   1.000000
     33        -39.779823   1.000000
     34        -39.777542   1.000000
     35        -39.776887   1.000000
     36        -39.776887   1.000000
     37        -39.773389   1.000000
     38        -39.773389   1.000000
     39        -39.773298   1.000000
     40        -39.773298   1.000000
     41        -39.767986   1.000000
     42        -39.767986   1.000000
     43        -39.767633   1.000000
     44        -39.767633   1.000000
     45        -39.767321   1.000000
     46        -39.766043   1.000000
     47        -39.766043   1.000000
     48        -39.762826   1.000000
     49        -39.762826   1.000000
     50        -39.760590   1.000000
     51        -39.756995   1.000000
     52        -39.756995   1.000000
     53        -39.756634   1.000000
     54        -39.755165   1.000000
     55        -39.755165   1.000000
     56        -39.754720   1.000000
     57        -39.754720   1.000000
     58        -39.753889   1.000000
     59        -39.753889   1.000000
     60        -39.753065   1.000000
     61        -39.750216   1.000000
     62        -39.750112   1.000000
     63        -39.750112   1.000000
     64        -39.749799   1.000000
     65        -39.746441   1.000000
     66        -39.746261   1.000000
     67        -39.746261   1.000000
     68        -39.745276   1.000000
     69        -39.743603   1.000000
     70        -39.743603   1.000000
     71        -39.743305   1.000000
     72        -39.741947   1.000000
     73        -39.741059   1.000000
     74        -39.739726   1.000000
     75        -39.739726   1.000000
     76        -39.739146   1.000000
     77        -39.738885   1.000000
     78        -39.738524   1.000000
     79        -39.738524   1.000000
     80        -39.738063   1.000000
     81        -39.736311   1.000000
     82        -39.736311   1.000000
     83        -39.735157   1.000000
     84        -39.734711   1.000000
     85        -39.734711   1.000000
     86        -39.733887   1.000000
     87        -39.733887   1.000000
     88        -39.731259   1.000000
     89        -39.729731   1.000000
     90        -39.729731   1.000000
     91        -39.729580   1.000000
     92        -39.729580   1.000000
     93        -39.729156   1.000000
     94        -39.729156   1.000000
     95        -39.728335   1.000000
     96        -39.728335   1.000000
     97        -18.357278   1.000000
     98        -18.357278   1.000000
     99        -18.324057   1.000000
    100        -18.289445   1.000000
    101        -18.289445   1.000000
    102        -18.273002   1.000000
    103        -18.273002   1.000000
    104        -18.270697   1.000000
    105        -18.270697   1.000000
    106        -18.259890   1.000000
    107        -18.259890   1.000000
    108        -18.259829   1.000000
    109        -18.259829   1.000000
    110        -18.259505   1.000000
    111        -18.254803   1.000000
    112        -18.254803   1.000000
    113        -18.253719   1.000000
    114        -18.253719   1.000000
    115        -18.246503   1.000000
    116        -18.246503   1.000000
    117        -18.235933   1.000000
    118        -18.235930   1.000000
    119        -18.234598   1.000000
    120        -18.226002   1.000000
    121        -18.226002   1.000000
    122        -18.223768   1.000000
    123        -18.223768   1.000000
    124        -18.223506   1.000000
    125        -18.222359   1.000000
    126        -18.222359   1.000000
    127        -18.217424   1.000000
    128        -18.217424   1.000000
    129        -18.201834   1.000000
    130        -18.201834   1.000000
    131        -18.198811   1.000000
    132        -18.193517   1.000000
    133        -18.192920   1.000000
    134        -18.192920   1.000000
    135        -18.190805   1.000000
    136        -18.190805   1.000000
    137        -18.188448   1.000000
    138        -18.184661   1.000000
    139        -18.184661   1.000000
    140        -18.183918   1.000000
    141        -18.182890   1.000000
    142        -18.182890   1.000000
    143        -18.167240   1.000000
    144        -18.167240   1.000000
    145        -18.156105   1.000000
    146        -18.156105   1.000000
    147        -18.156038   1.000000
    148        -18.156038   1.000000
    149        -18.153982   1.000000
    150        -18.153982   1.000000
    151        -18.140286   1.000000
    152        -18.133837   1.000000
    153        -18.130432   1.000000
    154        -18.130432   1.000000
    155        -18.121549   1.000000
    156        -18.121099   1.000000
    157        -18.107717   1.000000
    158        -18.105893   1.000000
    159        -18.105893   1.000000
    160        -18.080632   1.000000
    161        -18.077214   1.000000
    162        -18.077214   1.000000
    163        -18.077117   1.000000
    164        -18.077117   1.000000
    165        -18.074090   1.000000
    166        -18.074090   1.000000
    167        -18.060484   1.000000
    168        -18.060484   1.000000
    169        -18.055357   1.000000
    170        -18.054326   1.000000
    171        -18.054326   1.000000
    172        -18.052419   1.000000
    173        -18.052419   1.000000
    174        -18.050738   1.000000
    175        -18.050738   1.000000
    176        -18.035981   1.000000
    177        -18.011849   1.000000
    178        -18.003023   1.000000
    179        -17.997504   1.000000
    180        -17.997504   1.000000
    181        -17.997204   1.000000
    182        -17.996658   1.000000
    183        -17.996658   1.000000
    184        -17.996540   1.000000
    185        -17.987377   1.000000
    186        -17.987376   1.000000
    187        -17.969248   1.000000
    188        -17.969248   1.000000
    189        -17.952859   1.000000
    190        -17.952859   1.000000
    191        -17.950801   1.000000
    192        -17.950801   1.000000
    193        -17.950753   1.000000
    194        -17.950561   1.000000
    195        -17.917752   1.000000
    196        -17.914412   1.000000
    197        -17.914412   1.000000
    198        -17.904346   1.000000
    199        -17.901884   1.000000
    200        -17.901884   1.000000
    201        -17.898544   1.000000
    202        -17.896809   1.000000
    203        -17.879791   1.000000
    204        -17.879791   1.000000
    205        -17.875726   1.000000
    206        -17.875726   1.000000
    207        -17.874825   1.000000
    208        -17.874825   1.000000
    209        -17.866151   1.000000
    210        -17.860125   1.000000
    211        -17.860125   1.000000
    212        -17.856407   1.000000
    213        -17.850498   1.000000
    214        -17.847454   1.000000
    215        -17.837807   1.000000
    216        -17.837807   1.000000
    217        -17.834709   1.000000
    218        -17.834709   1.000000
    219        -17.832179   1.000000
    220        -17.832179   1.000000
    221        -17.828183   1.000000
    222        -17.818881   1.000000
    223        -17.806169   1.000000
    224        -17.800195   1.000000
    225        -17.777556   1.000000
    226        -17.777556   1.000000
    227        -17.772873   1.000000
    228        -17.772873   1.000000
    229        -17.768587   1.000000
    230        -17.768587   1.000000
    231        -17.767916   1.000000
    232        -17.765260   1.000000
    233        -17.759037   1.000000
    234        -17.759037   1.000000
    235        -17.748667   1.000000
    236        -17.748667   1.000000
    237        -17.747737   1.000000
    238        -17.747737   1.000000
    239        -17.746779   1.000000
    240        -17.746779   1.000000
    241        -17.744916   1.000000
    242        -17.744916   1.000000
    243        -17.744537   1.000000
    244        -17.744537   1.000000
    245        -17.737391   1.000000
    246        -17.733985   1.000000
    247        -17.733903   1.000000
    248        -17.733903   1.000000
    249        -17.732484   1.000000
    250        -17.732484   1.000000
    251        -17.731783   1.000000
    252        -17.728315   1.000000
    253        -17.720579   1.000000
    254        -17.720579   1.000000
    255        -17.717824   1.000000
    256        -17.717824   1.000000
    257        -17.709225   1.000000
    258        -17.709225   1.000000
    259        -17.708218   1.000000
    260        -17.707999   1.000000
    261        -17.707999   1.000000
    262        -17.707964   1.000000
    263        -17.707964   1.000000
    264        -17.701375   1.000000
    265        -17.701375   1.000000
    266        -17.700159   1.000000
    267        -17.700159   1.000000
    268        -17.698553   1.000000
    269        -17.698553   1.000000
    270        -17.693995   1.000000
    271        -17.693367   1.000000
    272        -17.679117   1.000000
    273        -17.677729   1.000000
    274        -17.674805   1.000000
    275        -17.673103   1.000000
    276        -17.673103   1.000000
    277        -17.672729   1.000000
    278        -17.672729   1.000000
    279        -17.670116   1.000000
    280        -17.668717   1.000000
    281        -17.668717   1.000000
    282        -17.661714   1.000000
    283        -17.654416   1.000000
    284        -17.647921   1.000000
    285        -17.647921   1.000000
    286        -17.642402   1.000000
    287        -17.642402   1.000000
    288        -17.639999   1.000000
    289        -17.639999   1.000000
    290        -17.639955   1.000000
    291        -17.639955   1.000000
    292        -17.639904   1.000000
    293        -17.639904   1.000000
    294        -17.637544   1.000000
    295        -17.637544   1.000000
    296        -17.636328   1.000000
    297        -17.633467   1.000000
    298        -17.633467   1.000000
    299        -17.629780   1.000000
    300        -17.625571   1.000000
    301        -17.625571   1.000000
    302        -17.619247   1.000000
    303        -17.612709   1.000000
    304        -17.612709   1.000000
    305        -17.610258   1.000000
    306        -17.610258   1.000000
    307        -17.609032   1.000000
    308        -17.609032   1.000000
    309        -17.608492   1.000000
    310        -17.607358   1.000000
    311        -17.607358   1.000000
    312        -17.606767   1.000000
    313        -17.606767   1.000000
    314        -17.605669   1.000000
    315        -17.600974   1.000000
    316        -17.600974   1.000000
    317        -17.600520   1.000000
    318        -17.600520   1.000000
    319        -17.597270   1.000000
    320        -17.596488   1.000000
    321        -17.596488   1.000000
    322        -17.594980   1.000000
    323        -17.594980   1.000000
    324        -17.592039   1.000000
    325        -17.591814   1.000000
    326        -17.591814   1.000000
    327        -17.590917   1.000000
    328        -17.590917   1.000000
    329        -17.589615   1.000000
    330        -17.585265   1.000000
    331        -17.585265   1.000000
    332        -17.581852   1.000000
    333        -17.581330   1.000000
    334        -17.581330   1.000000
    335        -17.579748   1.000000
    336        -17.579748   1.000000
    337        -17.578385   1.000000
    338        -17.573562   1.000000
    339        -17.573562   1.000000
    340        -17.571943   1.000000
    341        -17.571943   1.000000
    342        -17.566921   1.000000
    343        -17.566921   1.000000
    344        -17.566700   1.000000
    345        -17.558106   1.000000
    346        -17.558106   1.000000
    347        -17.556844   1.000000
    348        -17.556844   1.000000
    349        -17.555149   1.000000
    350        -17.555149   1.000000
    351        -17.554763   1.000000
    352        -17.554763   1.000000
    353        -17.551426   1.000000
    354        -17.551426   1.000000
    355        -17.549151   1.000000
    356        -17.549151   1.000000
    357        -17.546804   1.000000
    358        -17.546804   1.000000
    359        -17.545704   1.000000
    360        -17.542438   1.000000
    361        -17.541025   1.000000
    362        -17.541025   1.000000
    363        -17.531351   1.000000
    364        -17.531351   1.000000
    365        -17.530066   1.000000
    366        -17.530066   1.000000
    367        -17.526960   1.000000
    368        -17.524325   1.000000
    369        -17.522902   1.000000
    370        -17.522133   1.000000
    371        -17.503737   1.000000
    372        -17.503737   1.000000
    373        -17.501778   1.000000
    374        -17.490070   1.000000
    375        -17.490070   1.000000
    376        -17.488915   1.000000
    377        -17.478486   1.000000
    378        -17.468811   1.000000
    379        -17.468811   1.000000
    380        -17.467254   1.000000
    381        -17.463684   1.000000
    382        -17.463684   1.000000
    383        -17.448367   1.000000
    384        -17.448367   1.000000
    385          3.819878   1.000000
    386          3.819878   1.000000
    387          4.136181   1.000000
    388          4.233938   1.000000
    389          4.233938   1.000000
    390          4.525280   1.000000
    391          4.967101   1.000000
    392          4.967101   1.000000
    393          4.986602   1.000000
    394          5.223516   1.000000
    395          5.281198   1.000000
    396          5.472551   1.000000
    397          5.472551   1.000000
    398          5.688173   1.000000
    399          5.688173   1.000000
    400          5.785330   1.000000
    401          5.785330   1.000000
    402          5.827346   1.000000
    403          5.906228   1.000000
    404          5.906228   1.000000
    405          5.945990   1.000000
    406          5.945990   1.000000
    407          5.966969   1.000000
    408          5.966969   1.000000
    409          5.969167   1.000000
    410          5.969167   1.000000
    411          6.037683   1.000000
    412          6.043397   1.000000
    413          6.043397   1.000000
    414          6.089630   1.000000
    415          6.089630   1.000000
    416          6.101300   1.000000
    417          6.101300   1.000000
    418          6.159137   1.000000
    419          6.159137   1.000000
    420          6.170631   1.000000
    421          6.170631   1.000000
    422          6.245571   1.000000
    423          6.245571   1.000000
    424          6.269494   1.000000
    425          6.269494   1.000000
    426          6.308335   1.000000
    427          6.308335   1.000000
    428          6.344329   1.000000
    429          6.344329   1.000000
    430          6.352219   1.000000
    431          6.352219   1.000000
    432          6.409625   1.000000
    433          6.409625   1.000000
    434          6.505766   1.000000
    435          6.505766   1.000000
    436          6.535405   1.000000
    437          6.548195   1.000000
    438          6.548195   1.000000
    439          6.554375   1.000000
    440          6.554429   1.000000
    441          6.587776   1.000000
    442          6.587776   1.000000
    443          6.611781   1.000000
    444          6.621883   1.000000
    445          6.657334   1.000000
    446          6.657334   1.000000
    447          6.682329   1.000000
    448          6.682329   1.000000
    449          6.743287   1.000000
    450          6.743287   1.000000
    451          6.750135   1.000000
    452          6.758909   1.000000
    453          6.758909   1.000000
    454          6.817073   1.000000
    455          6.817073   1.000000
    456          6.822596   1.000000
    457          6.822596   1.000000
    458          6.880041   1.000000
    459          6.880041   1.000000
    460          6.894681   1.000000
    461          6.949856   1.000000
    462          6.949856   1.000000
    463          6.951319   1.000000
    464          6.967376   1.000000
    465          6.967376   1.000000
    466          6.995307   1.000000
    467          6.995308   1.000000
    468          7.082785   1.000000
    469          7.136639   1.000000
    470          7.136639   1.000000
    471          7.153658   1.000000
    472          7.153658   1.000000
    473          7.163024   1.000000
    474          7.195280   1.000000
    475          7.201168   1.000000
    476          7.201168   1.000000
    477          7.210816   1.000000
    478          7.231143   1.000000
    479          7.231143   1.000000
    480          7.250793   1.000000
    481          7.274842   1.000000
    482          7.276979   1.000000
    483          7.276979   1.000000
    484          7.279870   1.000000
    485          7.390776   1.000000
    486          7.390776   1.000000
    487          7.435013   1.000000
    488          7.435013   1.000000
    489          7.462707   1.000000
    490          7.471247   1.000000
    491          7.471247   1.000000
    492          7.491702   1.000000
    493          7.491702   1.000000
    494          7.506656   1.000000
    495          7.553899   1.000000
    496          7.615098   1.000000
    497          7.615098   1.000000
    498          7.615813   1.000000
    499          7.616378   1.000000
    500          7.616378   1.000000
    501          7.624675   1.000000
    502          7.638301   1.000000
    503          7.719715   1.000000
    504          7.719715   1.000000
    505          7.734383   1.000000
    506          7.751652   1.000000
    507          7.794931   1.000000
    508          7.808104   1.000000
    509          7.808104   1.000000
    510          7.830457   1.000000
    511          7.834591   1.000000
    512          7.834591   1.000000
    513          7.839607   1.000000
    514          7.876359   1.000000
    515          7.876359   1.000000
    516          7.879998   1.000000
    517          7.886122   1.000000
    518          7.886123   1.000000
    519          7.940916   1.000000
    520          7.956004   1.000000
    521          7.956004   1.000000
    522          7.959908   1.000000
    523          7.980018   1.000000
    524          7.986499   1.000000
    525          7.986499   1.000000
    526          8.019056   1.000000
    527          8.019056   1.000000
    528          8.126698   1.000000
    529          8.127822   1.000000
    530          8.130992   1.000000
    531          8.130992   1.000000
    532          8.198128   1.000001
    533          8.198128   1.000001
    534          8.210267   1.000001
    535          8.210267   1.000001
    536          8.214469   1.000001
    537          8.224602   1.000002
    538          8.246833   1.000003
    539          8.246833   1.000003
    540          8.255047   1.000004
    541          8.255047   1.000004
    542          8.261795   1.000005
    543          8.261795   1.000005
    544          8.271310   1.000007
    545          8.271310   1.000007
    546          8.289733   1.000013
    547          8.311973   1.000027
    548          8.311973   1.000027
    549          8.324914   1.000039
    550          8.324914   1.000039
    551          8.334871   1.000053
    552          8.334871   1.000053
    553          8.336939   1.000056
    554          8.336939   1.000056
    555          8.356758   1.000098
    556          8.356758   1.000098
    557          8.388465   1.000232
    558          8.388465   1.000232
    559          8.408359   1.000385
    560          8.426050   1.000594
    561          8.426050   1.000594
    562          8.459057   1.001271
    563          8.560187   1.008703
    564          8.560187   1.008703
    565          8.673750   1.031565
    566          8.697244   1.034891
    567          8.711009   1.035453
    568          8.715667   1.035326
    569          8.841359   0.904925
    570          8.846289   0.892751
    571          8.846289   0.892751
    572          8.912543   0.674735
    573          8.914364   0.667565
    574          8.948191   0.528250
    575          8.958923   0.482861
    576          8.958923   0.482860
    577          9.000507   0.312363
    578          9.019646   0.241200
    579          9.019646   0.241200
    580          9.026342   0.217925
    581          9.029588   0.206979
    582          9.029588   0.206979
    583          9.052100   0.137608
    584          9.066896   0.098682
    585          9.066896   0.098682
    586          9.104715   0.024109
    587          9.104715   0.024109
    588          9.113053   0.012315
    589          9.113053   0.012315
    590          9.131633  -0.008492
    591          9.157342  -0.026362
    592          9.217812  -0.034358
    593          9.217812  -0.034358
    594          9.232882  -0.032130
    595          9.250569  -0.028600
    596          9.255997  -0.027400
    597          9.255997  -0.027400
    598          9.271124  -0.023933
    599          9.271125  -0.023933
    600          9.301213  -0.017188
    601          9.301213  -0.017188
    602          9.301814  -0.017061
    603          9.301814  -0.017061
    604          9.303548  -0.016699
    605          9.312801  -0.014833
    606          9.383811  -0.004873
    607          9.393149  -0.004106
    608          9.393149  -0.004106
    609          9.400989  -0.003541
    610          9.400989  -0.003541
    611          9.410484  -0.002945
    612          9.410484  -0.002945
    613          9.415141  -0.002685
    614          9.415141  -0.002685
    615          9.418728  -0.002498
    616          9.418728  -0.002498
    617          9.456593  -0.001114
    618          9.456593  -0.001114
    619          9.468545  -0.000849
    620          9.506812  -0.000336
    621          9.528692  -0.000191
    622          9.528692  -0.000191
    623          9.555385  -0.000092
    624          9.587159  -0.000037
    625          9.587159  -0.000037
    626          9.592729  -0.000031
    627          9.592729  -0.000031
    628          9.594700  -0.000029
    629          9.594700  -0.000029
    630          9.620255  -0.000013
    631          9.664987  -0.000003
    632          9.664987  -0.000003
    633          9.666815  -0.000003
    634          9.666815  -0.000003
    635          9.669272  -0.000003
    636          9.671322  -0.000002
    637          9.678968  -0.000002
    638          9.678968  -0.000002
    639          9.708033  -0.000001
    640          9.708033  -0.000001
    641          9.759964  -0.000000
    642          9.759964  -0.000000
    643          9.775395  -0.000000
    644          9.775395  -0.000000
    645          9.803019  -0.000000
    646          9.849200  -0.000000
    647          9.849201  -0.000000
    648          9.858626  -0.000000
    649          9.858626  -0.000000
    650          9.863898  -0.000000
    651          9.863898  -0.000000
    652          9.884836  -0.000000
    653          9.884836  -0.000000
    654          9.893710  -0.000000
    655          9.893710  -0.000000
    656          9.897128  -0.000000
    657          9.897129  -0.000000
    658          9.943380  -0.000000
    659          9.943380  -0.000000
    660          9.970208  -0.000000
    661          9.979341  -0.000000
    662          9.979342  -0.000000
    663          9.989515  -0.000000
    664          9.989517  -0.000000
    665         10.008181  -0.000000
    666         10.008183  -0.000000
    667         10.034906  -0.000000
    668         10.034911  -0.000000
    669         10.039426  -0.000000
    670         10.039429  -0.000000
    671         10.049584  -0.000000
    672         10.059951  -0.000000
    673         10.059958  -0.000000
    674         10.068875  -0.000000
    675         10.068896  -0.000000
    676         10.076228  -0.000000
    677         10.111522  -0.000000
    678         10.111574  -0.000000
    679         10.156141  -0.000000
    680         10.156535  -0.000000
    681         10.160000  -0.000000
    682         10.160032  -0.000000
    683         10.169989  -0.000000
    684         10.170407  -0.000000
    685         10.170780  -0.000000
    686         10.183567  -0.000000
    687         10.183629  -0.000000
    688         10.183870  -0.000000
    689         10.184177  -0.000000
    690         10.204990  -0.000000
    691         10.225682  -0.000000
    692         10.226039  -0.000000
    693         10.230112  -0.000000
    694         10.260871  -0.000000
    695         10.261870  -0.000000
    696         10.304132  -0.000000
    697         10.305228  -0.000000
    698         10.329017  -0.000000
    699         10.332956  -0.000000
    700         10.417330  -0.000000
    701         10.455848  -0.000000
    702         10.463930  -0.000000
    703         10.487065  -0.000000
    704         10.504644  -0.000000
 
  0.0000000E+00  0.0000000E+00  0.5000000E+00  0.1000000E-01
      1        -39.900314   1.000000
      2        -39.900314   1.000000
      3        -39.842513   1.000000
      4        -39.842513   1.000000
      5        -39.842513   1.000000
      6        -39.842513   1.000000
      7        -39.842513   1.000000
      8        -39.842513   1.000000
      9        -39.842513   1.000000
     10        -39.842513   1.000000
     11        -39.842513   1.000000
     12        -39.842513   1.000000
     13        -39.842513   1.000000
     14        -39.842513   1.000000
     15        -39.836014   1.000000
     16        -39.836014   1.000000
     17        -39.794413   1.000000
     18        -39.794413   1.000000
     19        -39.794413   1.000000
     20        -39.794413   1.000000
     21        -39.794413   1.000000
     22        -39.794413   1.000000
     23        -39.794413   1.000000
     24        -39.794413   1.000000
     25        -39.794413   1.000000
     26        -39.794413   1.000000
     27        -39.794413   1.000000
     28        -39.794413   1.000000
     29        -39.773976   1.000000
     30        -39.773976   1.000000
     31        -39.773976   1.000000
     32        -39.773976   1.000000
     33        -39.773976   1.000000
     34        -39.773976   1.000000
     35        -39.773976   1.000000
     36        -39.773976   1.000000
     37        -39.773976   1.000000
     38        -39.773976   1.000000
     39        -39.773976   1.000000
     40        -39.773976   1.000000
     41        -39.773542   1.000000
     42        -39.773542   1.000000
     43        -39.773542   1.000000
     44        -39.773542   1.000000
     45        -39.773542   1.000000
     46        -39.773542   1.000000
     47        -39.770786   1.000000
     48        -39.770786   1.000000
     49        -39.752399   1.000000
     50        -39.752399   1.000000
     51        -39.752399   1.000000
     52        -39.752399   1.000000
     53        -39.752399   1.000000
     54        -39.752399   1.000000
     55        -39.752399   1.000000
     56        -39.752399   1.000000
     57        -39.752399   1.000000
     58        -39.752399   1.000000
     59        -39.752399   1.000000
     60        -39.752399   1.000000
     61        -39.752374   1.000000
     62        -39.752374   1.000000
     63        -39.752374   1.000000
     64        -39.752374   1.000000
     65        -39.752374   1.000000
     66        -39.752374   1.000000
     67        -39.745839   1.000000
     68        -39.745839   1.000000
     69        -39.745839   1.000000
     70        -39.745839   1.000000
     71        -39.745839   1.000000
     72        -39.745839   1.000000
     73        -39.745839   1.000000
     74        -39.745839   1.000000
     75        -39.745839   1.000000
     76        -39.745839   1.000000
     77        -39.745839   1.000000
     78        -39.745839   1.000000
     79        -39.731223   1.000000
     80        -39.731223   1.000000
     81        -39.731223   1.000000
     82        -39.731223   1.000000
     83        -39.731223   1.000000
     84        -39.731223   1.000000
     85        -39.730842   1.000000
     86        -39.730842   1.000000
     87        -39.730842   1.000000
     88        -39.730842   1.000000
     89        -39.730842   1.000000
     90        -39.730842   1.000000
     91        -39.730842   1.000000
     92        -39.730842   1.000000
     93        -39.730842   1.000000
     94        -39.730842   1.000000
     95        -39.730842   1.000000
     96        -39.730842   1.000000
     97        -18.360306   1.000000
     98        -18.360306   1.000000
     99        -18.320430   1.000000
    100        -18.320430   1.000000
    101        -18.320430   1.000000
    102        -18.320430   1.000000
    103        -18.320430   1.000000
    104        -18.320430   1.000000
    105        -18.296347   1.000000
    106        -18.296347   1.000000
    107        -18.296347   1.000000
    108        -18.296347   1.000000
    109        -18.296347   1.000000
    110        -18.296347   1.000000
    111        -18.232477   1.000000
    112        -18.232477   1.000000
    113        -18.232477   1.000000
    114        -18.232477   1.000000
    115        -18.232477   1.000000
    116        -18.232477   1.000000
    117        -18.232477   1.000000
    118        -18.232477   1.000000
    119        -18.232477   1.000000
    120        -18.232477   1.000000
    121        -18.232477   1.000000
    122        -18.232477   1.000000
    123        -18.213303   1.000000
    124        -18.213303   1.000000
    125        -18.213303   1.000000
    126        -18.213303   1.000000
    127        -18.213303   1.000000
    128        -18.213303   1.000000
    129        -18.213303   1.000000
    130        -18.213303   1.000000
    131        -18.213303   1.000000
    132        -18.213303   1.000000
    133        -18.213303   1.000000
    134        -18.213303   1.000000
    135        -18.140772   1.000000
    136        -18.140772   1.000000
    137        -18.140772   1.000000
    138        -18.140772   1.000000
    139        -18.140772   1.000000
    140        -18.140772   1.000000
    141        -18.140772   1.000000
    142        -18.140772   1.000000
    143        -18.140772   1.000000
    144        -18.140772   1.000000
    145        -18.140772   1.000000
    146        -18.140772   1.000000
    147        -18.138969   1.000000
    148        -18.138969   1.000000
    149        -18.138969   1.000000
    150        -18.138969   1.000000
    151        -18.138969   1.000000
    152        -18.138969   1.000000
    153        -18.118804   1.000000
    154        -18.118804   1.000000
    155        -18.118804   1.000000
    156        -18.118804   1.000000
    157        -18.118804   1.000000
    158        -18.118804   1.000000
    159        -18.118804   1.000000
    160        -18.118804   1.000000
    161        -18.118804   1.000000
    162        -18.118804   1.000000
    163        -18.118804   1.000000
    164        -18.118804   1.000000
    165        -18.068736   1.000000
    166        -18.068736   1.000000
    167        -18.068736   1.000000
    168        -18.068736   1.000000
    169        -18.068736   1.000000
    170        -18.068736   1.000000
    171        -18.068736   1.000000
    172        -18.068736   1.000000
    173        -18.068736   1.000000
    174        -18.068736   1.000000
    175        -18.068736   1.000000
    176        -18.068736   1.000000
    177        -17.946933   1.000000
    178        -17.946933   1.000000
    179        -17.918114   1.000000
    180        -17.918114   1.000000
    181        -17.918114   1.000000
    182        -17.918114   1.000000
    183        -17.918114   1.000000
    184        -17.918114   1.000000
    185        -17.881417   1.000000
    186        -17.881417   1.000000
    187        -17.881417   1.000000
    188        -17.881417   1.000000
    189        -17.881417   1.000000
    190        -17.881417   1.000000
    191        -17.881417   1.000000
    192        -17.881417   1.000000
    193        -17.881417   1.000000
    194        -17.881417   1.000000
    195        -17.881417   1.000000
    196        -17.881417   1.000000
    197        -17.874675   1.000000
    198        -17.874675   1.000000
    199        -17.874675   1.000000
    200        -17.874675   1.000000
    201        -17.874675   1.000000
    202        -17.874675   1.000000
    203        -17.874675   1.000000
    204        -17.874675   1.000000
    205        -17.874675   1.000000
    206        -17.874675   1.000000
    207        -17.874675   1.000000
    208        -17.874675   1.000000
    209        -17.874287   1.000000
    210        -17.874287   1.000000
    211        -17.874287   1.000000
    212        -17.874287   1.000000
    213        -17.874287   1.000000
    214        -17.874287   1.000000
    215        -17.874287   1.000000
    216        -17.874287   1.000000
    217        -17.874287   1.000000
    218        -17.874287   1.000000
    219        -17.874287   1.000000
    220        -17.874287   1.000000
    221        -17.845945   1.000000
    222        -17.845945   1.000000
    223        -17.845945   1.000000
    224        -17.845945   1.000000
    225        -17.845945   1.000000
    226        -17.845945   1.000000
    227        -17.845945   1.000000
    228        -17.845945   1.000000
    229        -17.845945   1.000000
    230        -17.845945   1.000000
    231        -17.845945   1.000000
    232        -17.845945   1.000000
    233        -17.810395   1.000000
    234        -17.810395   1.000000
    235        -17.810395   1.000000
    236        -17.810395   1.000000
    237        -17.810395   1.000000
    238        -17.810395   1.000000
    239        -17.810395   1.000000
    240        -17.810395   1.000000
    241        -17.810395   1.000000
    242        -17.810395   1.000000
    243        -17.810395   1.000000
    244        -17.810395   1.000000
    245        -17.754216   1.000000
    246        -17.754216   1.000000
    247        -17.754216   1.000000
    248        -17.754216   1.000000
    249        -17.754216   1.000000
    250        -17.754216   1.000000
    251        -17.697226   1.000000
    252        -17.697226   1.000000
    253        -17.697226   1.000000
    254        -17.697226   1.000000
    255        -17.697226   1.000000
    256        -17.697226   1.000000
    257        -17.697226   1.000000
    258        -17.697226   1.000000
    259        -17.697226   1.000000
    260        -17.697226   1.000000
    261        -17.697226   1.000000
    262        -17.697226   1.000000
    263        -17.677635   1.000000
    264        -17.677635   1.000000
    265        -17.677635   1.000000
    266        -17.677635   1.000000
    267        -17.677635   1.000000
    268        -17.677635   1.000000
    269        -17.659750   1.000000
    270        -17.659750   1.000000
    271        -17.659750   1.000000
    272        -17.659750   1.000000
    273        -17.659750   1.000000
    274        -17.659750   1.000000
    275        -17.659750   1.000000
    276        -17.659750   1.000000
    277        -17.659750   1.000000
    278        -17.659750   1.000000
    279        -17.659750   1.000000
    280        -17.659750   1.000000
    281        -17.658493   1.000000
    282        -17.658493   1.000000
    283        -17.658493   1.000000
    284        -17.658493   1.000000
    285        -17.658493   1.000000
    286        -17.658493   1.000000
    287        -17.658493   1.000000
    288        -17.658493   1.000000
    289        -17.658493   1.000000
    290        -17.658493   1.000000
    291        -17.658493   1.000000
    292        -17.658493   1.000000
    293        -17.656063   1.000000
    294        -17.656063   1.000000
    295        -17.656063   1.000000
    296        -17.656063   1.000000
    297        -17.656063   1.000000
    298        -17.656063   1.000000
    299        -17.653422   1.000000
    300        -17.653422   1.000000
    301        -17.653422   1.000000
    302        -17.653422   1.000000
    303        -17.653422   1.000000
    304        -17.653422   1.000000
    305        -17.626288   1.000000
    306        -17.626288   1.000000
    307        -17.626288   1.000000
    308        -17.626288   1.000000
    309        -17.626288   1.000000
    310        -17.626288   1.000000
    311        -17.626288   1.000000
    312        -17.626288   1.000000
    313        -17.626288   1.000000
    314        -17.626288   1.000000
    315        -17.626288   1.000000
    316        -17.626288   1.000000
    317        -17.601374   1.000000
    318        -17.601374   1.000000
    319        -17.601374   1.000000
    320        -17.601374   1.000000
    321        -17.601374   1.000000
    322        -17.601374   1.000000
    323        -17.601374   1.000000
    324        -17.601374   1.000000
    325        -17.601374   1.000000
    326        -17.601374   1.000000
    327        -17.601374   1.000000
    328        -17.601374   1.000000
    329        -17.575343   1.000000
    330        -17.575343   1.000000
    331        -17.575343   1.000000
    332        -17.575343   1.000000
    333        -17.575343   1.000000
    334        -17.575343   1.000000
    335        -17.575343   1.000000
    336        -17.575343   1.000000
    337        -17.575343   1.000000
    338        -17.575343   1.000000
    339        -17.575343   1.000000
    340        -17.575343   1.000000
    341        -17.554944   1.000000
    342        -17.554944   1.000000
    343        -17.554944   1.000000
    344        -17.554944   1.000000
    345        -17.550396   1.000000
    346        -17.550396   1.000000
    347        -17.550396   1.000000
    348        -17.550396   1.000000
    349        -17.550396   1.000000
    350        -17.550396   1.000000
    351        -17.527570   1.000000
    352        -17.527570   1.000000
    353        -17.527570   1.000000
    354        -17.527570   1.000000
    355        -17.527570   1.000000
    356        -17.527570   1.000000
    357        -17.527570   1.000000
    358        -17.527570   1.000000
    359        -17.527570   1.000000
    360        -17.527570   1.000000
    361        -17.527570   1.000000
    362        -17.527570   1.000000
    363        -17.508312   1.000000
    364        -17.508312   1.000000
    365        -17.495807   1.000000
    366        -17.495807   1.000000
    367        -17.495807   1.000000
    368        -17.495807   1.000000
    369        -17.490781   1.000000
    370        -17.490781   1.000000
    371        -17.490781   1.000000
    372        -17.490781   1.000000
    373        -17.490781   1.000000
    374        -17.490781   1.000000
    375        -17.490781   1.000000
    376        -17.490781   1.000000
    377        -17.490781   1.000000
    378        -17.490781   1.000000
    379        -17.490781   1.000000
    380        -17.490781   1.000000
    381        -17.436121   1.000000
    382        -17.436121   1.000000
    383        -17.436121   1.000000
    384        -17.436121   1.000000
    385          3.517689   1.000000
    386          3.517689   1.000000
    387          4.958776   1.000000
    388          4.958776   1.000000
    389          4.958776   1.000000
    390          4.958776   1.000000
    391          4.958776   1.000000
    392          4.958776   1.000000
    393          4.958776   1.000000
    394          4.958776   1.000000
    395          4.958776   1.000000
    396          4.958776   1.000000
    397          4.958776   1.000000
    398          4.958776   1.000000
    399          4.984712   1.000000
    400          4.984712   1.000000
    401          5.892410   1.000000
    402          5.892410   1.000000
    403          6.027798   1.000000
    404          6.027798   1.000000
    405          6.027798   1.000000
    406          6.027798   1.000000
    407          6.027798   1.000000
    408          6.027798   1.000000
    409          6.027798   1.000000
    410          6.027798   1.000000
    411          6.027798   1.000000
    412          6.027798   1.000000
    413          6.027798   1.000000
    414          6.027798   1.000000
    415          6.065583   1.000000
    416          6.065583   1.000000
    417          6.065583   1.000000
    418          6.065583   1.000000
    419          6.065583   1.000000
    420          6.065583   1.000000
    421          6.087351   1.000000
    422          6.087351   1.000000
    423          6.087351   1.000000
    424          6.087351   1.000000
    425          6.087351   1.000000
    426          6.087351   1.000000
    427          6.453380   1.000000
    428          6.453380   1.000000
    429          6.453380   1.000000
    430          6.453380   1.000000
    431          6.453380   1.000000
    432          6.453380   1.000000
    433          6.814170   1.000000
    434          6.814170   1.000000
    435          6.814170   1.000000
    436          6.814170   1.000000
    437          6.814170   1.000000
    438          6.814170   1.000000
    439          6.814170   1.000000
    440          6.814170   1.000000
    441          6.814170   1.000000
    442          6.814170   1.000000
    443          6.814170   1.000000
    444          6.814170   1.000000
    445          6.829857   1.000000
    446          6.829857   1.000000
    447          6.829857   1.000000
    448          6.829857   1.000000
    449          6.829857   1.000000
    450          6.829857   1.000000
    451          6.829857   1.000000
    452          6.829857   1.000000
    453          6.829857   1.000000
    454          6.829857   1.000000
    455          6.829857   1.000000
    456          6.829857   1.000000
    457          6.974805   1.000000
    458          6.974805   1.000000
    459          6.974805   1.000000
    460          6.974805   1.000000
    461          6.974805   1.000000
    462          6.974805   1.000000
    463          6.974805   1.000000
    464          6.974805   1.000000
    465          6.974805   1.000000
    466          6.974805   1.000000
    467          6.974805   1.000000
    468          6.974805   1.000000
    469          6.984495   1.000000
    470          6.984495   1.000000
    471          6.984495   1.000000
    472          6.984495   1.000000
    473          6.984495   1.000000
    474          6.984495   1.000000
    475          6.984495   1.000000
    476          6.984495   1.000000
    477          6.984495   1.000000
    478          6.984495   1.000000
    479          6.984495   1.000000
    480          6.984495   1.000000
    481          7.419543   1.000000
    482          7.419543   1.000000
    483          7.419543   1.000000
    484          7.419543   1.000000
    485          7.419543   1.000000
    486          7.419543   1.000000
    487          7.623121   1.000000
    488          7.623121   1.000000
    489          7.623121   1.000000
    490          7.623121   1.000000
    491          7.623121   1.000000
    492          7.623121   1.000000
    493          7.623121   1.000000
    494          7.623121   1.000000
    495          7.623121   1.000000
    496          7.623121   1.000000
    497          7.623121   1.000000
    498          7.623121   1.000000
    499          7.825383   1.000000
    500          7.825383   1.000000
    501          7.825383   1.000000
    502          7.825383   1.000000
    503          7.825383   1.000000
    504          7.825383   1.000000
    505          7.825383   1.000000
    506          7.825383   1.000000
    507          7.825383   1.000000
    508          7.825383   1.000000
    509          7.825383   1.000000
    510          7.825383   1.000000
    511          7.887206   1.000000
    512          7.887206   1.000000
    513          7.887206   1.000000
    514          7.887206   1.000000
    515          7.887206   1.000000
    516          7.887206   1.000000
    517          7.893152   1.000000
    518          7.893152   1.000000
    519          7.893152   1.000000
    520          7.893152   1.000000
    521          7.893152   1.000000
    522          7.893152   1.000000
    523          7.893152   1.000000
    524          7.893152   1.000000
    525          7.893152   1.000000
    526          7.893152   1.000000
    527          7.893152   1.000000
    528          7.893152   1.000000
    529          8.126299   1.000000
    530          8.126299   1.000000
    531          8.126299   1.000000
    532          8.126299   1.000000
    533          8.126299   1.000000
    534          8.126299   1.000000
    535          8.204460   1.000001
    536          8.204460   1.000001
    537          8.204460   1.000001
    538          8.204460   1.000001
    539          8.204461   1.000001
    540          8.204461   1.000001
    541          8.204461   1.000001
    542          8.204461   1.000001
    543          8.204461   1.000001
    544          8.204461   1.000001
    545          8.204461   1.000001
    546          8.204461   1.000001
    547          8.296522   1.000017
    548          8.296522   1.000017
    549          8.296522   1.000017
    550          8.296522   1.000017
    551          8.296522   1.000017
    552          8.296522   1.000017
    553          8.296522   1.000017
    554          8.296522   1.000017
    555          8.296522   1.000017
    556          8.296522   1.000017
    557          8.296522   1.000017
    558          8.296522   1.000017
    559          8.496402   1.002783
    560          8.496402   1.002783
    561          8.496402   1.002783
    562          8.496402   1.002783
    563          8.496402   1.002783
    564          8.496402   1.002783
    565          8.496402   1.002783
    566          8.496402   1.002783
    567          8.496402   1.002783
    568          8.496402   1.002783
    569          8.496402   1.002783
    570          8.496402   1.002783
    571          8.874329   0.812092
    572          8.874329   0.812092
    573          8.874329   0.812092
    574          8.874329   0.812092
    575          8.874329   0.812092
    576          8.874329   0.812092
    577          8.874329   0.812092
    578          8.874329   0.812092
    579          8.874330   0.812092
    580          8.874330   0.812092
    581          8.874330   0.812092
    582          8.874330   0.812092
    583          8.969054   0.440154
    584          8.969054   0.440154
    585          9.158946  -0.027115
    586          9.158946  -0.027115
    587          9.158946  -0.027115
    588          9.158946  -0.027115
    589          9.158946  -0.027115
    590          9.158946  -0.027115
    591          9.158946  -0.027115
    592          9.158946  -0.027115
    593          9.158946  -0.027115
    594          9.158946  -0.027115
    595          9.158946  -0.027115
    596          9.158946  -0.027115
    597          9.375423  -0.005656
    598          9.375423  -0.005656
    599          9.375423  -0.005656
    600          9.375423  -0.005656
    601          9.375423  -0.005656
    602          9.375423  -0.005656
    603          9.375423  -0.005656
    604          9.375423  -0.005656
    605          9.375423  -0.005656
    606          9.375423  -0.005656
    607          9.375423  -0.005656
    608          9.375423  -0.005656
    609          9.423517  -0.002266
    610          9.423517  -0.002266
    611          9.423517  -0.002266
    612          9.423517  -0.002266
    613          9.423517  -0.002266
    614          9.423517  -0.002266
    615          9.423517  -0.002266
    616          9.423517  -0.002266
    617          9.423517  -0.002266
    618          9.423517  -0.002266
    619          9.423517  -0.002266
    620          9.423517  -0.002266
    621          9.472557  -0.000773
    622          9.472557  -0.000773
    623          9.472557  -0.000773
    624          9.472557  -0.000773
    625          9.472557  -0.000773
    626          9.472557  -0.000773
    627          9.472557  -0.000773
    628          9.472557  -0.000773
    629          9.472557  -0.000773
    630          9.472557  -0.000773
    631          9.472557  -0.000773
    632          9.472557  -0.000773
    633          9.669677  -0.000003
    634          9.669677  -0.000003
    635          9.685057  -0.000002
    636          9.685057  -0.000002
    637          9.685057  -0.000002
    638          9.685057  -0.000002
    639          9.685057  -0.000002
    640          9.685057  -0.000002
    641          9.701481  -0.000001
    642          9.701481  -0.000001
    643          9.701481  -0.000001
    644          9.701481  -0.000001
    645          9.715921  -0.000001
    646          9.715921  -0.000001
    647          9.715921  -0.000001
    648          9.715921  -0.000001
    649          9.748602  -0.000000
    650          9.748602  -0.000000
    651         10.146184  -0.000000
    652         10.146184  -0.000000
    653         10.146184  -0.000000
    654         10.146185  -0.000000
    655         10.146185  -0.000000
    656         10.146185  -0.000000
    657         10.146187  -0.000000
    658         10.146188  -0.000000
    659         10.146198  -0.000000
    660         10.146271  -0.000000
    661         10.146352  -0.000000
    662         10.146511  -0.000000
    663         10.179603  -0.000000
    664         10.179604  -0.000000
    665         10.179604  -0.000000
    666         10.179605  -0.000000
    667         10.179608  -0.000000
    668         10.179609  -0.000000
    669         10.179612  -0.000000
    670         10.179615  -0.000000
    671         10.179628  -0.000000
    672         10.179781  -0.000000
    673         10.179903  -0.000000
    674         10.180198  -0.000000
    675         10.185036  -0.000000
    676         10.185037  -0.000000
    677         10.185038  -0.000000
    678         10.185039  -0.000000
    679         10.185040  -0.000000
    680         10.185042  -0.000000
    681         10.185044  -0.000000
    682         10.185048  -0.000000
    683         10.185053  -0.000000
    684         10.185140  -0.000000
    685         10.185289  -0.000000
    686         10.186382  -0.000000
    687         10.198439  -0.000000
    688         10.198441  -0.000000
    689         10.198452  -0.000000
    690         10.198469  -0.000000
    691         10.198578  -0.000000
    692         10.199270  -0.000000
    693         10.312114  -0.000000
    694         10.312115  -0.000000
    695         10.312121  -0.000000
    696         10.312283  -0.000000
    697         10.312593  -0.000000
    698         10.314884  -0.000000
    699         10.323103  -0.000000
    700         10.323879  -0.000000
    701         10.325444  -0.000000
    702         10.327234  -0.000000
    703         10.550200  -0.000000
    704         10.550697  -0.000000
 
  0.2000000E+00  0.1972964E-16  0.5000000E+00  0.6000000E-01
      1        -39.897596   1.000000
      2        -39.897596   1.000000
      3        -39.860988   1.000000
      4        -39.860988   1.000000
      5        -39.850375   1.000000
      6        -39.850375   1.000000
      7        -39.850375   1.000000
      8        -39.850375   1.000000
      9        -39.833994   1.000000
     10        -39.833994   1.000000
     11        -39.831458   1.000000
     12        -39.831458   1.000000
     13        -39.831458   1.000000
     14        -39.831458   1.000000
     15        -39.823204   1.000000
     16        -39.823204   1.000000
     17        -39.807315   1.000000
     18        -39.807315   1.000000
     19        -39.799847   1.000000
     20        -39.799847   1.000000
     21        -39.799847   1.000000
     22        -39.799847   1.000000
     23        -39.788194   1.000000
     24        -39.788194   1.000000
     25        -39.788194   1.000000
     26        -39.788194   1.000000
     27        -39.786919   1.000000
     28        -39.786919   1.000000
     29        -39.786919   1.000000
     30        -39.786919   1.000000
     31        -39.781465   1.000000
     32        -39.781465   1.000000
     33        -39.777697   1.000000
     34        -39.777697   1.000000
     35        -39.773938   1.000000
     36        -39.773938   1.000000
     37        -39.773938   1.000000
     38        -39.773938   1.000000
     39        -39.773584   1.000000
     40        -39.773584   1.000000
     41        -39.773584   1.000000
     42        -39.773584   1.000000
     43        -39.769459   1.000000
     44        -39.769459   1.000000
     45        -39.761852   1.000000
     46        -39.761852   1.000000
     47        -39.761852   1.000000
     48        -39.761852   1.000000
     49        -39.759941   1.000000
     50        -39.759941   1.000000
     51        -39.759941   1.000000
     52        -39.759941   1.000000
     53        -39.754438   1.000000
     54        -39.754438   1.000000
     55        -39.753035   1.000000
     56        -39.753035   1.000000
     57        -39.752394   1.000000
     58        -39.752394   1.000000
     59        -39.752394   1.000000
     60        -39.752394   1.000000
     61        -39.752364   1.000000
     62        -39.752364   1.000000
     63        -39.752364   1.000000
     64        -39.752364   1.000000
     65        -39.748790   1.000000
     66        -39.748790   1.000000
     67        -39.748790   1.000000
     68        -39.748790   1.000000
     69        -39.746915   1.000000
     70        -39.746915   1.000000
     71        -39.746915   1.000000
     72        -39.746915   1.000000
     73        -39.741994   1.000000
     74        -39.741994   1.000000
     75        -39.741994   1.000000
     76        -39.741994   1.000000
     77        -39.739398   1.000000
     78        -39.739398   1.000000
     79        -39.732050   1.000000
     80        -39.732050   1.000000
     81        -39.732050   1.000000
     82        -39.732050   1.000000
     83        -39.731629   1.000000
     84        -39.731629   1.000000
     85        -39.731629   1.000000
     86        -39.731629   1.000000
     87        -39.731183   1.000000
     88        -39.731183   1.000000
     89        -39.731183   1.000000
     90        -39.731183   1.000000
     91        -39.731177   1.000000
     92        -39.731177   1.000000
     93        -39.730879   1.000000
     94        -39.730879   1.000000
     95        -39.730879   1.000000
     96        -39.730879   1.000000
     97        -18.353990   1.000000
     98        -18.353990   1.000000
     99        -18.312146   1.000000
    100        -18.312146   1.000000
    101        -18.312146   1.000000
    102        -18.312146   1.000000
    103        -18.306879   1.000000
    104        -18.306879   1.000000
    105        -18.287498   1.000000
    106        -18.287498   1.000000
    107        -18.287498   1.000000
    108        -18.287498   1.000000
    109        -18.283453   1.000000
    110        -18.283453   1.000000
    111        -18.270254   1.000000
    112        -18.270254   1.000000
    113        -18.247368   1.000000
    114        -18.247368   1.000000
    115        -18.247368   1.000000
    116        -18.247368   1.000000
    117        -18.226414   1.000000
    118        -18.226414   1.000000
    119        -18.226414   1.000000
    120        -18.226414   1.000000
    121        -18.218944   1.000000
    122        -18.218944   1.000000
    123        -18.218944   1.000000
    124        -18.218944   1.000000
    125        -18.213339   1.000000
    126        -18.213339   1.000000
    127        -18.213339   1.000000
    128        -18.213339   1.000000
    129        -18.206191   1.000000
    130        -18.206191   1.000000
    131        -18.198698   1.000000
    132        -18.198698   1.000000
    133        -18.198698   1.000000
    134        -18.198698   1.000000
    135        -18.177036   1.000000
    136        -18.177036   1.000000
    137        -18.177036   1.000000
    138        -18.177036   1.000000
    139        -18.159280   1.000000
    140        -18.159280   1.000000
    141        -18.159280   1.000000
    142        -18.159280   1.000000
    143        -18.151744   1.000000
    144        -18.151744   1.000000
    145        -18.151743   1.000000
    146        -18.151743   1.000000
    147        -18.138374   1.000000
    148        -18.138374   1.000000
    149        -18.131507   1.000000
    150        -18.131507   1.000000
    151        -18.131507   1.000000
    152        -18.131507   1.000000
    153        -18.125390   1.000000
    154        -18.125390   1.000000
    155        -18.105600   1.000000
    156        -18.105600   1.000000
    157        -18.105600   1.000000
    158        -18.105600   1.000000
    159        -18.104022   1.000000
    160        -18.104022   1.000000
    161        -18.104022   1.000000
    162        -18.104022   1.000000
    163        -18.096870   1.000000
    164        -18.096870   1.000000
    165        -18.096870   1.000000
    166        -18.096870   1.000000
    167        -18.081113   1.000000
    168        -18.081113   1.000000
    169        -18.081113   1.000000
    170        -18.081113   1.000000
    171        -18.041157   1.000000
    172        -18.041157   1.000000
    173        -18.041157   1.000000
    174        -18.041157   1.000000
    175        -18.012548   1.000000
    176        -18.012548   1.000000
    177        -17.967783   1.000000
    178        -17.967783   1.000000
    179        -17.949158   1.000000
    180        -17.949158   1.000000
    181        -17.937191   1.000000
    182        -17.937191   1.000000
    183        -17.937191   1.000000
    184        -17.937191   1.000000
    185        -17.928774   1.000000
    186        -17.928774   1.000000
    187        -17.928721   1.000000
    188        -17.928721   1.000000
    189        -17.928721   1.000000
    190        -17.928721   1.000000
    191        -17.920287   1.000000
    192        -17.920287   1.000000
    193        -17.920287   1.000000
    194        -17.920287   1.000000
    195        -17.910041   1.000000
    196        -17.910041   1.000000
    197        -17.910041   1.000000
    198        -17.910041   1.000000
    199        -17.903146   1.000000
    200        -17.903146   1.000000
    201        -17.903146   1.000000
    202        -17.903146   1.000000
    203        -17.897904   1.000000
    204        -17.897904   1.000000
    205        -17.890256   1.000000
    206        -17.890256   1.000000
    207        -17.890256   1.000000
    208        -17.890256   1.000000
    209        -17.860799   1.000000
    210        -17.860799   1.000000
    211        -17.860799   1.000000
    212        -17.860799   1.000000
    213        -17.838361   1.000000
    214        -17.838361   1.000000
    215        -17.838361   1.000000
    216        -17.838361   1.000000
    217        -17.835819   1.000000
    218        -17.835819   1.000000
    219        -17.835819   1.000000
    220        -17.835819   1.000000
    221        -17.834802   1.000000
    222        -17.834802   1.000000
    223        -17.834802   1.000000
    224        -17.834802   1.000000
    225        -17.830061   1.000000
    226        -17.830061   1.000000
    227        -17.830061   1.000000
    228        -17.830061   1.000000
    229        -17.812655   1.000000
    230        -17.812655   1.000000
    231        -17.812655   1.000000
    232        -17.812655   1.000000
    233        -17.793053   1.000000
    234        -17.793053   1.000000
    235        -17.793053   1.000000
    236        -17.793053   1.000000
    237        -17.784243   1.000000
    238        -17.784243   1.000000
    239        -17.774170   1.000000
    240        -17.774170   1.000000
    241        -17.774170   1.000000
    242        -17.774170   1.000000
    243        -17.760194   1.000000
    244        -17.760194   1.000000
    245        -17.760194   1.000000
    246        -17.760194   1.000000
    247        -17.749654   1.000000
    248        -17.749654   1.000000
    249        -17.737056   1.000000
    250        -17.737056   1.000000
    251        -17.737056   1.000000
    252        -17.737056   1.000000
    253        -17.714866   1.000000
    254        -17.714866   1.000000
    255        -17.703164   1.000000
    256        -17.703164   1.000000
    257        -17.703164   1.000000
    258        -17.703164   1.000000
    259        -17.688696   1.000000
    260        -17.688696   1.000000
    261        -17.688550   1.000000
    262        -17.688550   1.000000
    263        -17.688550   1.000000
    264        -17.688550   1.000000
    265        -17.678948   1.000000
    266        -17.678948   1.000000
    267        -17.678948   1.000000
    268        -17.678948   1.000000
    269        -17.678336   1.000000
    270        -17.678336   1.000000
    271        -17.675044   1.000000
    272        -17.675044   1.000000
    273        -17.674068   1.000000
    274        -17.674068   1.000000
    275        -17.674068   1.000000
    276        -17.674068   1.000000
    277        -17.657545   1.000000
    278        -17.657545   1.000000
    279        -17.657545   1.000000
    280        -17.657545   1.000000
    281        -17.657024   1.000000
    282        -17.657024   1.000000
    283        -17.657024   1.000000
    284        -17.657024   1.000000
    285        -17.650306   1.000000
    286        -17.650306   1.000000
    287        -17.650306   1.000000
    288        -17.650306   1.000000
    289        -17.650142   1.000000
    290        -17.650142   1.000000
    291        -17.650142   1.000000
    292        -17.650142   1.000000
    293        -17.649630   1.000000
    294        -17.649630   1.000000
    295        -17.645317   1.000000
    296        -17.645317   1.000000
    297        -17.645100   1.000000
    298        -17.645100   1.000000
    299        -17.645100   1.000000
    300        -17.645100   1.000000
    301        -17.637045   1.000000
    302        -17.637045   1.000000
    303        -17.637045   1.000000
    304        -17.637045   1.000000
    305        -17.629467   1.000000
    306        -17.629467   1.000000
    307        -17.627590   1.000000
    308        -17.627590   1.000000
    309        -17.622026   1.000000
    310        -17.622026   1.000000
    311        -17.622026   1.000000
    312        -17.622026   1.000000
    313        -17.604960   1.000000
    314        -17.604960   1.000000
    315        -17.604960   1.000000
    316        -17.604960   1.000000
    317        -17.603277   1.000000
    318        -17.603277   1.000000
    319        -17.603277   1.000000
    320        -17.603277   1.000000
    321        -17.599619   1.000000
    322        -17.599619   1.000000
    323        -17.597861   1.000000
    324        -17.597861   1.000000
    325        -17.597861   1.000000
    326        -17.597861   1.000000
    327        -17.594989   1.000000
    328        -17.594989   1.000000
    329        -17.594989   1.000000
    330        -17.594989   1.000000
    331        -17.589498   1.000000
    332        -17.589498   1.000000
    333        -17.589498   1.000000
    334        -17.589498   1.000000
    335        -17.571289   1.000000
    336        -17.571289   1.000000
    337        -17.566074   1.000000
    338        -17.566074   1.000000
    339        -17.566074   1.000000
    340        -17.566074   1.000000
    341        -17.560300   1.000000
    342        -17.560300   1.000000
    343        -17.558785   1.000000
    344        -17.558785   1.000000
    345        -17.558785   1.000000
    346        -17.558785   1.000000
    347        -17.555755   1.000000
    348        -17.555755   1.000000
    349        -17.550922   1.000000
    350        -17.550922   1.000000
    351        -17.547419   1.000000
    352        -17.547419   1.000000
    353        -17.543069   1.000000
    354        -17.543069   1.000000
    355        -17.543069   1.000000
    356        -17.543069   1.000000
    357        -17.519379   1.000000
    358        -17.519379   1.000000
    359        -17.516127   1.000000
    360        -17.516127   1.000000
    361        -17.516127   1.000000
    362        -17.516127   1.000000
    363        -17.508880   1.000000
    364        -17.508880   1.000000
    365        -17.507984   1.000000
    366        -17.507984   1.000000
    367        -17.507083   1.000000
    368        -17.507083   1.000000
    369        -17.507083   1.000000
    370        -17.507083   1.000000
    371        -17.503436   1.000000
    372        -17.503436   1.000000
    373        -17.499737   1.000000
    374        -17.499737   1.000000
    375        -17.488550   1.000000
    376        -17.488550   1.000000
    377        -17.488550   1.000000
    378        -17.488550   1.000000
    379        -17.473108   1.000000
    380        -17.473108   1.000000
    381        -17.444884   1.000000
    382        -17.444884   1.000000
    383        -17.438572   1.000000
    384        -17.438572   1.000000
    385          3.586007   1.000000
    386          3.586007   1.000000
    387          4.506528   1.000000
    388          4.506528   1.000000
    389          4.774455   1.000000
    390          4.774455   1.000000
    391          4.774455   1.000000
    392          4.774455   1.000000
    393          5.046758   1.000000
    394          5.046758   1.000000
    395          5.230088   1.000000
    396          5.230088   1.000000
    397          5.230088   1.000000
    398          5.230088   1.000000
    399          5.399096   1.000000
    400          5.399096   1.000000
    401          5.782146   1.000000
    402          5.782146   1.000000
    403          5.952142   1.000000
    404          5.952142   1.000000
    405          5.952142   1.000000
    406          5.952142   1.000000
    407          5.959574   1.000000
    408          5.959574   1.000000
    409          6.045436   1.000000
    410          6.045436   1.000000
    411          6.102944   1.000000
    412          6.102944   1.000000
    413          6.103582   1.000000
    414          6.103582   1.000000
    415          6.103582   1.000000
    416          6.103582   1.000000
    417          6.138987   1.000000
    418          6.138987   1.000000
    419          6.138987   1.000000
    420          6.138987   1.000000
    421          6.145744   1.000000
    422          6.145744   1.000000
    423          6.145744   1.000000
    424          6.145744   1.000000
    425          6.157504   1.000000
    426          6.157504   1.000000
    427          6.418175   1.000000
    428          6.418175   1.000000
    429          6.418175   1.000000
    430          6.418175   1.000000
    431          6.500755   1.000000
    432          6.500755   1.000000
    433          6.521627   1.000000
    434          6.521627   1.000000
    435          6.521627   1.000000
    436          6.521627   1.000000
    437          6.633183   1.000000
    438          6.633183   1.000000
    439          6.633183   1.000000
    440          6.633183   1.000000
    441          6.648694   1.000000
    442          6.648694   1.000000
    443          6.648694   1.000000
    444          6.648694   1.000000
    445          6.714515   1.000000
    446          6.714515   1.000000
    447          6.714515   1.000000
    448          6.714515   1.000000
    449          6.758481   1.000000
    450          6.758481   1.000000
    451          6.880601   1.000000
    452          6.880601   1.000000
    453          6.880601   1.000000
    454          6.880601   1.000000
    455          6.941259   1.000000
    456          6.941259   1.000000
    457          6.941259   1.000000
    458          6.941259   1.000000
    459          6.956774   1.000000
    460          6.956774   1.000000
    461          6.956774   1.000000
    462          6.956774   1.000000
    463          6.971583   1.000000
    464          6.971583   1.000000
    465          7.059632   1.000000
    466          7.059632   1.000000
    467          7.059632   1.000000
    468          7.059632   1.000000
    469          7.098339   1.000000
    470          7.098339   1.000000
    471          7.098339   1.000000
    472          7.098339   1.000000
    473          7.152247   1.000000
    474          7.152247   1.000000
    475          7.152247   1.000000
    476          7.152247   1.000000
    477          7.212348   1.000000
    478          7.212348   1.000000
    479          7.212348   1.000000
    480          7.212348   1.000000
    481          7.389969   1.000000
    482          7.389969   1.000000
    483          7.389969   1.000000
    484          7.389969   1.000000
    485          7.396599   1.000000
    486          7.396599   1.000000
    487          7.429011   1.000000
    488          7.429011   1.000000
    489          7.429011   1.000000
    490          7.429011   1.000000
    491          7.530065   1.000000
    492          7.530065   1.000000
    493          7.556036   1.000000
    494          7.556036   1.000000
    495          7.556036   1.000000
    496          7.556036   1.000000
    497          7.573803   1.000000
    498          7.573803   1.000000
    499          7.573803   1.000000
    500          7.573803   1.000000
    501          7.638673   1.000000
    502          7.638673   1.000000
    503          7.638673   1.000000
    504          7.638673   1.000000
    505          7.899564   1.000000
    506          7.899564   1.000000
    507          7.899564   1.000000
    508          7.899564   1.000000
    509          7.908283   1.000000
    510          7.908283   1.000000
    511          7.922619   1.000000
    512          7.922619   1.000000
    513          7.922620   1.000000
    514          7.922620   1.000000
    515          7.956012   1.000000
    516          7.956012   1.000000
    517          7.956012   1.000000
    518          7.956012   1.000000
    519          7.981549   1.000000
    520          7.981549   1.000000
    521          7.981549   1.000000
    522          7.981549   1.000000
    523          8.032194   1.000000
    524          8.032194   1.000000
    525          8.032194   1.000000
    526          8.032194   1.000000
    527          8.121414   1.000000
    528          8.121414   1.000000
    529          8.121414   1.000000
    530          8.121414   1.000000
    531          8.125067   1.000000
    532          8.125067   1.000000
    533          8.152512   1.000000
    534          8.152512   1.000000
    535          8.170015   1.000000
    536          8.170015   1.000000
    537          8.170015   1.000000
    538          8.170015   1.000000
    539          8.198023   1.000001
    540          8.198023   1.000001
    541          8.198023   1.000001
    542          8.198023   1.000001
    543          8.219727   1.000001
    544          8.219727   1.000001
    545          8.253088   1.000004
    546          8.253088   1.000004
    547          8.253088   1.000004
    548          8.253088   1.000004
    549          8.266723   1.000006
    550          8.266723   1.000006
    551          8.266723   1.000006
    552          8.266723   1.000006
    553          8.305450   1.000022
    554          8.305450   1.000022
    555          8.305450   1.000022
    556          8.305450   1.000022
    557          8.328880   1.000044
    558          8.328880   1.000044
    559          8.412113   1.000423
    560          8.412113   1.000423
    561          8.412113   1.000423
    562          8.412113   1.000423
    563          8.442479   1.000874
    564          8.442479   1.000874
    565          8.501049   1.003050
    566          8.501049   1.003050
    567          8.501049   1.003050
    568          8.501049   1.003050
    569          8.660956   1.028985
    570          8.660956   1.028985
    571          8.873234   0.815594
    572          8.873234   0.815594
    573          8.873234   0.815593
    574          8.873234   0.815593
    575          8.898844   0.727070
    576          8.898844   0.727070
    577          8.940099   0.562320
    578          8.940099   0.562320
    579          8.940099   0.562320
    580          8.940099   0.562320
    581          8.996541   0.327855
    582          8.996541   0.327855
    583          8.996541   0.327855
    584          8.996541   0.327855
    585          9.134291  -0.010891
    586          9.134291  -0.010891
    587          9.134291  -0.010891
    588          9.134291  -0.010891
    589          9.173536  -0.032298
    590          9.173536  -0.032298
    591          9.173536  -0.032298
    592          9.173536  -0.032298
    593          9.190610  -0.035110
    594          9.190610  -0.035110
    595          9.190610  -0.035110
    596          9.190610  -0.035110
    597          9.321497  -0.013191
    598          9.321497  -0.013191
    599          9.321497  -0.013191
    600          9.321497  -0.013191
    601          9.338737  -0.010284
    602          9.338737  -0.010284
    603          9.338737  -0.010284
    604          9.338737  -0.010284
    605          9.346211  -0.009172
    606          9.346211  -0.009172
    607          9.346211  -0.009172
    608          9.346211  -0.009172
    609          9.364508  -0.006821
    610          9.364508  -0.006821
    611          9.364508  -0.006821
    612          9.364508  -0.006821
    613          9.400511  -0.003574
    614          9.400511  -0.003574
    615          9.421693  -0.002352
    616          9.421693  -0.002352
    617          9.494224  -0.000460
    618          9.494224  -0.000460
    619          9.497754  -0.000421
    620          9.497754  -0.000421
    621          9.512802  -0.000288
    622          9.512802  -0.000288
    623          9.512802  -0.000288
    624          9.512802  -0.000288
    625          9.536662  -0.000154
    626          9.536662  -0.000154
    627          9.537996  -0.000149
    628          9.537996  -0.000149
    629          9.537996  -0.000149
    630          9.537996  -0.000149
    631          9.583491  -0.000041
    632          9.583491  -0.000041
    633          9.583491  -0.000041
    634          9.583491  -0.000041
    635          9.620674  -0.000013
    636          9.620674  -0.000013
    637          9.702463  -0.000001
    638          9.702463  -0.000001
    639          9.705338  -0.000001
    640          9.705338  -0.000001
    641          9.705338  -0.000001
    642          9.705338  -0.000001
    643          9.709575  -0.000001
    644          9.709575  -0.000001
    645          9.757159  -0.000000
    646          9.757160  -0.000000
    647          9.766975  -0.000000
    648          9.766975  -0.000000
    649          9.835891  -0.000000
    650          9.835892  -0.000000
    651          9.973224  -0.000000
    652          9.973230  -0.000000
    653          9.973235  -0.000000
    654          9.973245  -0.000000
    655         10.021978  -0.000000
    656         10.021983  -0.000000
    657         10.021991  -0.000000
    658         10.022021  -0.000000
    659         10.039428  -0.000000
    660         10.039446  -0.000000
    661         10.057748  -0.000000
    662         10.057755  -0.000000
    663         10.057793  -0.000000
    664         10.057823  -0.000000
    665         10.132634  -0.000000
    666         10.132727  -0.000000
    667         10.140657  -0.000000
    668         10.140888  -0.000000
    669         10.172460  -0.000000
    670         10.172612  -0.000000
    671         10.185410  -0.000000
    672         10.185545  -0.000000
    673         10.185986  -0.000000
    674         10.186146  -0.000000
    675         10.224228  -0.000000
    676         10.224313  -0.000000
    677         10.224488  -0.000000
    678         10.224647  -0.000000
    679         10.244612  -0.000000
    680         10.245097  -0.000000
    681         10.245612  -0.000000
    682         10.246407  -0.000000
    683         10.255294  -0.000000
    684         10.256171  -0.000000
    685         10.262910  -0.000000
    686         10.263798  -0.000000
    687         10.271035  -0.000000
    688         10.271870  -0.000000
    689         10.273216  -0.000000
    690         10.273949  -0.000000
    691         10.283685  -0.000000
    692         10.283851  -0.000000
    693         10.284503  -0.000000
    694         10.285686  -0.000000
    695         10.296429  -0.000000
    696         10.298701  -0.000000
    697         10.300781  -0.000000
    698         10.305152  -0.000000
    699         10.347404  -0.000000
    700         10.356345  -0.000000
    701         10.393674  -0.000000
    702         10.403578  -0.000000
    703         10.428789  -0.000000
    704         10.439653  -0.000000
 
  0.4000000E+00  0.2397958E-16  0.5000000E+00  0.6000000E-01
      1        -39.889666   1.000000
      2        -39.889666   1.000000
      3        -39.877133   1.000000
      4        -39.877133   1.000000
      5        -39.854460   1.000000
      6        -39.854460   1.000000
      7        -39.854460   1.000000
      8        -39.854460   1.000000
      9        -39.828107   1.000000
     10        -39.828107   1.000000
     11        -39.818915   1.000000
     12        -39.818915   1.000000
     13        -39.818048   1.000000
     14        -39.818048   1.000000
     15        -39.818048   1.000000
     16        -39.818048   1.000000
     17        -39.804733   1.000000
     18        -39.804733   1.000000
     19        -39.803264   1.000000
     20        -39.803264   1.000000
     21        -39.803264   1.000000
     22        -39.803264   1.000000
     23        -39.802701   1.000000
     24        -39.802701   1.000000
     25        -39.802701   1.000000
     26        -39.802701   1.000000
     27        -39.788871   1.000000
     28        -39.788871   1.000000
     29        -39.778092   1.000000
     30        -39.778092   1.000000
     31        -39.778092   1.000000
     32        -39.778092   1.000000
     33        -39.773828   1.000000
     34        -39.773828   1.000000
     35        -39.773828   1.000000
     36        -39.773828   1.000000
     37        -39.773696   1.000000
     38        -39.773696   1.000000
     39        -39.773696   1.000000
     40        -39.773696   1.000000
     41        -39.769748   1.000000
     42        -39.769748   1.000000
     43        -39.768795   1.000000
     44        -39.768795   1.000000
     45        -39.768795   1.000000
     46        -39.768795   1.000000
     47        -39.765696   1.000000
     48        -39.765696   1.000000
     49        -39.760426   1.000000
     50        -39.760426   1.000000
     51        -39.759963   1.000000
     52        -39.759963   1.000000
     53        -39.753786   1.000000
     54        -39.753786   1.000000
     55        -39.753786   1.000000
     56        -39.753786   1.000000
     57        -39.752381   1.000000
     58        -39.752381   1.000000
     59        -39.752381   1.000000
     60        -39.752381   1.000000
     61        -39.752372   1.000000
     62        -39.752372   1.000000
     63        -39.752372   1.000000
     64        -39.752372   1.000000
     65        -39.750387   1.000000
     66        -39.750387   1.000000
     67        -39.750387   1.000000
     68        -39.750387   1.000000
     69        -39.744026   1.000000
     70        -39.744026   1.000000
     71        -39.744026   1.000000
     72        -39.744026   1.000000
     73        -39.737865   1.000000
     74        -39.737865   1.000000
     75        -39.737865   1.000000
     76        -39.737865   1.000000
     77        -39.734589   1.000000
     78        -39.734589   1.000000
     79        -39.734363   1.000000
     80        -39.734363   1.000000
     81        -39.734363   1.000000
     82        -39.734363   1.000000
     83        -39.734176   1.000000
     84        -39.734176   1.000000
     85        -39.734176   1.000000
     86        -39.734176   1.000000
     87        -39.731912   1.000000
     88        -39.731912   1.000000
     89        -39.731083   1.000000
     90        -39.731083   1.000000
     91        -39.731083   1.000000
     92        -39.731083   1.000000
     93        -39.730968   1.000000
     94        -39.730968   1.000000
     95        -39.730968   1.000000
     96        -39.730968   1.000000
     97        -18.335555   1.000000
     98        -18.335555   1.000000
     99        -18.306605   1.000000
    100        -18.306605   1.000000
    101        -18.289047   1.000000
    102        -18.289047   1.000000
    103        -18.289047   1.000000
    104        -18.289047   1.000000
    105        -18.267938   1.000000
    106        -18.267938   1.000000
    107        -18.262013   1.000000
    108        -18.262013   1.000000
    109        -18.262013   1.000000
    110        -18.262013   1.000000
    111        -18.256825   1.000000
    112        -18.256825   1.000000
    113        -18.256825   1.000000
    114        -18.256825   1.000000
    115        -18.255440   1.000000
    116        -18.255440   1.000000
    117        -18.255440   1.000000
    118        -18.255440   1.000000
    119        -18.249462   1.000000
    120        -18.249462   1.000000
    121        -18.223187   1.000000
    122        -18.223187   1.000000
    123        -18.223187   1.000000
    124        -18.223187   1.000000
    125        -18.219624   1.000000
    126        -18.219624   1.000000
    127        -18.219624   1.000000
    128        -18.219624   1.000000
    129        -18.212945   1.000000
    130        -18.212945   1.000000
    131        -18.208819   1.000000
    132        -18.208819   1.000000
    133        -18.193541   1.000000
    134        -18.193541   1.000000
    135        -18.193541   1.000000
    136        -18.193541   1.000000
    137        -18.175880   1.000000
    138        -18.175880   1.000000
    139        -18.175880   1.000000
    140        -18.175880   1.000000
    141        -18.173984   1.000000
    142        -18.173984   1.000000
    143        -18.173984   1.000000
    144        -18.173984   1.000000
    145        -18.165004   1.000000
    146        -18.165004   1.000000
    147        -18.165004   1.000000
    148        -18.165004   1.000000
    149        -18.141017   1.000000
    150        -18.141017   1.000000
    151        -18.141017   1.000000
    152        -18.141017   1.000000
    153        -18.112466   1.000000
    154        -18.112466   1.000000
    155        -18.112466   1.000000
    156        -18.112466   1.000000
    157        -18.094075   1.000000
    158        -18.094075   1.000000
    159        -18.094074   1.000000
    160        -18.094074   1.000000
    161        -18.086996   1.000000
    162        -18.086996   1.000000
    163        -18.069895   1.000000
    164        -18.069895   1.000000
    165        -18.069895   1.000000
    166        -18.069895   1.000000
    167        -18.032500   1.000000
    168        -18.032500   1.000000
    169        -18.031331   1.000000
    170        -18.031331   1.000000
    171        -18.031331   1.000000
    172        -18.031331   1.000000
    173        -18.026097   1.000000
    174        -18.026097   1.000000
    175        -18.026097   1.000000
    176        -18.026097   1.000000
    177        -17.991952   1.000000
    178        -17.991952   1.000000
    179        -17.991952   1.000000
    180        -17.991952   1.000000
    181        -17.978087   1.000000
    182        -17.978087   1.000000
    183        -17.978087   1.000000
    184        -17.978087   1.000000
    185        -17.976352   1.000000
    186        -17.976352   1.000000
    187        -17.957393   1.000000
    188        -17.957393   1.000000
    189        -17.950877   1.000000
    190        -17.950877   1.000000
    191        -17.949899   1.000000
    192        -17.949899   1.000000
    193        -17.926732   1.000000
    194        -17.926732   1.000000
    195        -17.926732   1.000000
    196        -17.926732   1.000000
    197        -17.925448   1.000000
    198        -17.925448   1.000000
    199        -17.925448   1.000000
    200        -17.925448   1.000000
    201        -17.916055   1.000000
    202        -17.916055   1.000000
    203        -17.916055   1.000000
    204        -17.916055   1.000000
    205        -17.914913   1.000000
    206        -17.914913   1.000000
    207        -17.914913   1.000000
    208        -17.914913   1.000000
    209        -17.901238   1.000000
    210        -17.901238   1.000000
    211        -17.901238   1.000000
    212        -17.901238   1.000000
    213        -17.803078   1.000000
    214        -17.803078   1.000000
    215        -17.803078   1.000000
    216        -17.803078   1.000000
    217        -17.802271   1.000000
    218        -17.802271   1.000000
    219        -17.802271   1.000000
    220        -17.802271   1.000000
    221        -17.794361   1.000000
    222        -17.794361   1.000000
    223        -17.794361   1.000000
    224        -17.794361   1.000000
    225        -17.791360   1.000000
    226        -17.791360   1.000000
    227        -17.791360   1.000000
    228        -17.791360   1.000000
    229        -17.777286   1.000000
    230        -17.777286   1.000000
    231        -17.777286   1.000000
    232        -17.777286   1.000000
    233        -17.769770   1.000000
    234        -17.769770   1.000000
    235        -17.769770   1.000000
    236        -17.769770   1.000000
    237        -17.768635   1.000000
    238        -17.768635   1.000000
    239        -17.768635   1.000000
    240        -17.768635   1.000000
    241        -17.757275   1.000000
    242        -17.757275   1.000000
    243        -17.757275   1.000000
    244        -17.757275   1.000000
    245        -17.745374   1.000000
    246        -17.745374   1.000000
    247        -17.745374   1.000000
    248        -17.745374   1.000000
    249        -17.741363   1.000000
    250        -17.741363   1.000000
    251        -17.741363   1.000000
    252        -17.741363   1.000000
    253        -17.736351   1.000000
    254        -17.736351   1.000000
    255        -17.715434   1.000000
    256        -17.715434   1.000000
    257        -17.711860   1.000000
    258        -17.711860   1.000000
    259        -17.711860   1.000000
    260        -17.711860   1.000000
    261        -17.699931   1.000000
    262        -17.699931   1.000000
    263        -17.699931   1.000000
    264        -17.699931   1.000000
    265        -17.692660   1.000000
    266        -17.692660   1.000000
    267        -17.679939   1.000000
    268        -17.679939   1.000000
    269        -17.679791   1.000000
    270        -17.679791   1.000000
    271        -17.679096   1.000000
    272        -17.679096   1.000000
    273        -17.679096   1.000000
    274        -17.679096   1.000000
    275        -17.672438   1.000000
    276        -17.672438   1.000000
    277        -17.672438   1.000000
    278        -17.672438   1.000000
    279        -17.662248   1.000000
    280        -17.662248   1.000000
    281        -17.662248   1.000000
    282        -17.662248   1.000000
    283        -17.644567   1.000000
    284        -17.644567   1.000000
    285        -17.644567   1.000000
    286        -17.644567   1.000000
    287        -17.638614   1.000000
    288        -17.638614   1.000000
    289        -17.633861   1.000000
    290        -17.633861   1.000000
    291        -17.633861   1.000000
    292        -17.633861   1.000000
    293        -17.626297   1.000000
    294        -17.626297   1.000000
    295        -17.621403   1.000000
    296        -17.621403   1.000000
    297        -17.620219   1.000000
    298        -17.620219   1.000000
    299        -17.620219   1.000000
    300        -17.620219   1.000000
    301        -17.619086   1.000000
    302        -17.619086   1.000000
    303        -17.618846   1.000000
    304        -17.618846   1.000000
    305        -17.609279   1.000000
    306        -17.609279   1.000000
    307        -17.609279   1.000000
    308        -17.609279   1.000000
    309        -17.606346   1.000000
    310        -17.606346   1.000000
    311        -17.606346   1.000000
    312        -17.606346   1.000000
    313        -17.606239   1.000000
    314        -17.606239   1.000000
    315        -17.606239   1.000000
    316        -17.606239   1.000000
    317        -17.603076   1.000000
    318        -17.603076   1.000000
    319        -17.603076   1.000000
    320        -17.603076   1.000000
    321        -17.601682   1.000000
    322        -17.601682   1.000000
    323        -17.601682   1.000000
    324        -17.601682   1.000000
    325        -17.598973   1.000000
    326        -17.598973   1.000000
    327        -17.595784   1.000000
    328        -17.595784   1.000000
    329        -17.595784   1.000000
    330        -17.595784   1.000000
    331        -17.587185   1.000000
    332        -17.587185   1.000000
    333        -17.586277   1.000000
    334        -17.586277   1.000000
    335        -17.580844   1.000000
    336        -17.580844   1.000000
    337        -17.580844   1.000000
    338        -17.580844   1.000000
    339        -17.575641   1.000000
    340        -17.575641   1.000000
    341        -17.566309   1.000000
    342        -17.566309   1.000000
    343        -17.566309   1.000000
    344        -17.566309   1.000000
    345        -17.565074   1.000000
    346        -17.565074   1.000000
    347        -17.565074   1.000000
    348        -17.565074   1.000000
    349        -17.562560   1.000000
    350        -17.562560   1.000000
    351        -17.562560   1.000000
    352        -17.562560   1.000000
    353        -17.557845   1.000000
    354        -17.557845   1.000000
    355        -17.541280   1.000000
    356        -17.541280   1.000000
    357        -17.538808   1.000000
    358        -17.538808   1.000000
    359        -17.534765   1.000000
    360        -17.534765   1.000000
    361        -17.534765   1.000000
    362        -17.534765   1.000000
    363        -17.528771   1.000000
    364        -17.528771   1.000000
    365        -17.525484   1.000000
    366        -17.525484   1.000000
    367        -17.511114   1.000000
    368        -17.511114   1.000000
    369        -17.506502   1.000000
    370        -17.506502   1.000000
    371        -17.506502   1.000000
    372        -17.506502   1.000000
    373        -17.496253   1.000000
    374        -17.496253   1.000000
    375        -17.496253   1.000000
    376        -17.496253   1.000000
    377        -17.482742   1.000000
    378        -17.482742   1.000000
    379        -17.463444   1.000000
    380        -17.463444   1.000000
    381        -17.457663   1.000000
    382        -17.457663   1.000000
    383        -17.445866   1.000000
    384        -17.445866   1.000000
    385          3.785874   1.000000
    386          3.785874   1.000000
    387          4.101804   1.000000
    388          4.101804   1.000000
    389          4.681532   1.000000
    390          4.681532   1.000000
    391          4.681532   1.000000
    392          4.681532   1.000000
    393          5.223969   1.000000
    394          5.223969   1.000000
    395          5.487435   1.000000
    396          5.487435   1.000000
    397          5.578368   1.000000
    398          5.578368   1.000000
    399          5.578368   1.000000
    400          5.578368   1.000000
    401          5.751987   1.000000
    402          5.751987   1.000000
    403          5.916514   1.000000
    404          5.916514   1.000000
    405          5.916514   1.000000
    406          5.916514   1.000000
    407          5.960764   1.000000
    408          5.960764   1.000000
    409          5.984711   1.000000
    410          5.984711   1.000000
    411          5.984711   1.000000
    412          5.984711   1.000000
    413          6.141644   1.000000
    414          6.141644   1.000000
    415          6.152469   1.000000
    416          6.152469   1.000000
    417          6.176551   1.000000
    418          6.176551   1.000000
    419          6.217287   1.000000
    420          6.217287   1.000000
    421          6.217287   1.000000
    422          6.217287   1.000000
    423          6.285710   1.000000
    424          6.285710   1.000000
    425          6.285710   1.000000
    426          6.285710   1.000000
    427          6.299379   1.000000
    428          6.299379   1.000000
    429          6.299379   1.000000
    430          6.299379   1.000000
    431          6.400324   1.000000
    432          6.400324   1.000000
    433          6.400324   1.000000
    434          6.400324   1.000000
    435          6.441205   1.000000
    436          6.441205   1.000000
    437          6.472947   1.000000
    438          6.472947   1.000000
    439          6.472947   1.000000
    440          6.472947   1.000000
    441          6.499003   1.000000
    442          6.499003   1.000000
    443          6.499003   1.000000
    444          6.499003   1.000000
    445          6.631296   1.000000
    446          6.631296   1.000000
    447          6.715563   1.000000
    448          6.715563   1.000000
    449          6.715563   1.000000
    450          6.715563   1.000000
    451          6.812637   1.000000
    452          6.812637   1.000000
    453          6.839307   1.000000
    454          6.839307   1.000000
    455          6.839307   1.000000
    456          6.839307   1.000000
    457          6.936755   1.000000
    458          6.936755   1.000000
    459          6.936755   1.000000
    460          6.936755   1.000000
    461          7.003549   1.000000
    462          7.003549   1.000000
    463          7.003549   1.000000
    464          7.003549   1.000000
    465          7.048034   1.000000
    466          7.048034   1.000000
    467          7.048034   1.000000
    468          7.048034   1.000000
    469          7.196081   1.000000
    470          7.196081   1.000000
    471          7.196081   1.000000
    472          7.196081   1.000000
    473          7.244221   1.000000
    474          7.244221   1.000000
    475          7.244221   1.000000
    476          7.244221   1.000000
    477          7.355193   1.000000
    478          7.355193   1.000000
    479          7.366316   1.000000
    480          7.366316   1.000000
    481          7.366316   1.000000
    482          7.366316   1.000000
    483          7.375677   1.000000
    484          7.375677   1.000000
    485          7.398455   1.000000
    486          7.398455   1.000000
    487          7.398455   1.000000
    488          7.398455   1.000000
    489          7.431563   1.000000
    490          7.431563   1.000000
    491          7.431563   1.000000
    492          7.431563   1.000000
    493          7.450375   1.000000
    494          7.450375   1.000000
    495          7.450375   1.000000
    496          7.450375   1.000000
    497          7.465287   1.000000
    498          7.465287   1.000000
    499          7.465287   1.000000
    500          7.465287   1.000000
    501          7.527376   1.000000
    502          7.527376   1.000000
    503          7.527376   1.000000
    504          7.527376   1.000000
    505          7.855126   1.000000
    506          7.855126   1.000000
    507          7.855126   1.000000
    508          7.855126   1.000000
    509          7.966549   1.000000
    510          7.966549   1.000000
    511          8.021465   1.000000
    512          8.021465   1.000000
    513          8.021465   1.000000
    514          8.021465   1.000000
    515          8.046300   1.000000
    516          8.046300   1.000000
    517          8.073474   1.000000
    518          8.073474   1.000000
    519          8.073474   1.000000
    520          8.073474   1.000000
    521          8.103028   1.000000
    522          8.103028   1.000000
    523          8.103028   1.000000
    524          8.103028   1.000000
    525          8.103082   1.000000
    526          8.103082   1.000000
    527          8.103082   1.000000
    528          8.103082   1.000000
    529          8.108690   1.000000
    530          8.108690   1.000000
    531          8.108690   1.000000
    532          8.108690   1.000000
    533          8.112120   1.000000
    534          8.112120   1.000000
    535          8.112120   1.000000
    536          8.112120   1.000000
    537          8.156389   1.000000
    538          8.156389   1.000000
    539          8.156389   1.000000
    540          8.156389   1.000000
    541          8.177939   1.000000
    542          8.177939   1.000000
    543          8.177939   1.000000
    544          8.177939   1.000000
    545          8.232167   1.000002
    546          8.232167   1.000002
    547          8.236041   1.000002
    548          8.236041   1.000002
    549          8.236041   1.000002
    550          8.236041   1.000002
    551          8.267964   1.000007
    552          8.267964   1.000007
    553          8.267964   1.000007
    554          8.267964   1.000007
    555          8.285929   1.000012
    556          8.285929   1.000012
    557          8.285929   1.000012
    558          8.285929   1.000012
    559          8.348885   1.000079
    560          8.348885   1.000079
    561          8.470143   1.001618
    562          8.470143   1.001618
    563          8.470143   1.001618
    564          8.470143   1.001618
    565          8.514584   1.003954
    566          8.514584   1.003954
    567          8.665787   1.030001
    568          8.665787   1.030001
    569          8.724665   1.034534
    570          8.724665   1.034534
    571          8.877396   0.802146
    572          8.877396   0.802146
    573          8.877396   0.802146
    574          8.877396   0.802146
    575          8.948606   0.526497
    576          8.948606   0.526497
    577          9.078198   0.072661
    578          9.078198   0.072661
    579          9.078198   0.072661
    580          9.078198   0.072661
    581          9.082843   0.062901
    582          9.082843   0.062901
    583          9.082843   0.062901
    584          9.082843   0.062901
    585          9.115944   0.008593
    586          9.115944   0.008593
    587          9.237212  -0.031336
    588          9.237212  -0.031336
    589          9.237212  -0.031336
    590          9.237212  -0.031336
    591          9.246575  -0.029455
    592          9.246575  -0.029455
    593          9.246575  -0.029455
    594          9.246575  -0.029455
    595          9.253721  -0.027907
    596          9.253721  -0.027907
    597          9.253721  -0.027907
    598          9.253721  -0.027907
    599          9.266000  -0.025118
    600          9.266000  -0.025118
    601          9.296683  -0.018154
    602          9.296683  -0.018154
    603          9.296683  -0.018154
    604          9.296683  -0.018154
    605          9.306176  -0.016157
    606          9.306176  -0.016157
    607          9.306176  -0.016157
    608          9.306176  -0.016157
    609          9.308959  -0.015593
    610          9.308959  -0.015593
    611          9.308959  -0.015593
    612          9.308959  -0.015593
    613          9.344862  -0.009366
    614          9.344862  -0.009366
    615          9.344862  -0.009366
    616          9.344862  -0.009366
    617          9.402701  -0.003427
    618          9.402701  -0.003427
    619          9.402701  -0.003427
    620          9.402701  -0.003427
    621          9.538541  -0.000146
    622          9.538541  -0.000146
    623          9.624431  -0.000012
    624          9.624431  -0.000012
    625          9.624431  -0.000012
    626          9.624431  -0.000012
    627          9.626175  -0.000011
    628          9.626175  -0.000011
    629          9.645453  -0.000006
    630          9.645453  -0.000006
    631          9.737272  -0.000000
    632          9.737272  -0.000000
    633          9.737272  -0.000000
    634          9.737272  -0.000000
    635          9.781528  -0.000000
    636          9.781528  -0.000000
    637          9.793767  -0.000000
    638          9.793767  -0.000000
    639          9.811880  -0.000000
    640          9.811880  -0.000000
    641          9.811880  -0.000000
    642          9.811880  -0.000000
    643          9.814509  -0.000000
    644          9.814509  -0.000000
    645          9.877308  -0.000000
    646          9.877309  -0.000000
    647          9.877309  -0.000000
    648          9.877309  -0.000000
    649          9.878215  -0.000000
    650          9.878215  -0.000000
    651          9.895476  -0.000000
    652          9.895476  -0.000000
    653          9.905931  -0.000000
    654          9.905931  -0.000000
    655          9.905931  -0.000000
    656          9.905933  -0.000000
    657          9.915012  -0.000000
    658          9.915013  -0.000000
    659          9.915579  -0.000000
    660          9.915580  -0.000000
    661          9.926641  -0.000000
    662          9.926641  -0.000000
    663          9.926642  -0.000000
    664          9.926644  -0.000000
    665          9.929919  -0.000000
    666          9.929919  -0.000000
    667          9.937132  -0.000000
    668          9.937132  -0.000000
    669          9.937132  -0.000000
    670          9.937133  -0.000000
    671         10.006505  -0.000000
    672         10.006505  -0.000000
    673         10.006505  -0.000000
    674         10.006506  -0.000000
    675         10.108307  -0.000000
    676         10.108308  -0.000000
    677         10.108313  -0.000000
    678         10.108355  -0.000000
    679         10.129632  -0.000000
    680         10.129669  -0.000000
    681         10.145439  -0.000000
    682         10.145470  -0.000000
    683         10.146682  -0.000000
    684         10.146739  -0.000000
    685         10.160021  -0.000000
    686         10.160037  -0.000000
    687         10.190974  -0.000000
    688         10.191030  -0.000000
    689         10.218686  -0.000000
    690         10.218950  -0.000000
    691         10.302150  -0.000000
    692         10.303127  -0.000000
    693         10.341373  -0.000000
    694         10.342074  -0.000000
    695         10.342587  -0.000000
    696         10.344662  -0.000000
    697         10.351421  -0.000000
    698         10.353067  -0.000000
    699         10.355170  -0.000000
    700         10.357380  -0.000000
    701         10.374353  -0.000000
    702         10.375718  -0.000000
    703         10.378537  -0.000000
    704         10.407843  -0.000000
 
  0.2000000E+00  0.2000000E+00  0.5000000E+00  0.6000000E-01
      1        -39.892269   1.000000
      2        -39.892269   1.000000
      3        -39.867692   1.000000
      4        -39.867692   1.000000
      5        -39.867692   1.000000
      6        -39.867692   1.000000
      7        -39.836670   1.000000
      8        -39.836670   1.000000
      9        -39.836670   1.000000
     10        -39.836670   1.000000
     11        -39.830037   1.000000
     12        -39.830037   1.000000
     13        -39.812519   1.000000
     14        -39.812519   1.000000
     15        -39.812519   1.000000
     16        -39.812519   1.000000
     17        -39.812101   1.000000
     18        -39.812101   1.000000
     19        -39.812101   1.000000
     20        -39.812101   1.000000
     21        -39.804331   1.000000
     22        -39.804331   1.000000
     23        -39.790417   1.000000
     24        -39.790417   1.000000
     25        -39.790417   1.000000
     26        -39.790417   1.000000
     27        -39.786996   1.000000
     28        -39.786996   1.000000
     29        -39.786996   1.000000
     30        -39.786996   1.000000
     31        -39.781516   1.000000
     32        -39.781516   1.000000
     33        -39.781516   1.000000
     34        -39.781516   1.000000
     35        -39.774587   1.000000
     36        -39.774587   1.000000
     37        -39.774587   1.000000
     38        -39.774587   1.000000
     39        -39.769558   1.000000
     40        -39.769558   1.000000
     41        -39.769435   1.000000
     42        -39.769435   1.000000
     43        -39.766921   1.000000
     44        -39.766921   1.000000
     45        -39.763305   1.000000
     46        -39.763305   1.000000
     47        -39.763305   1.000000
     48        -39.763305   1.000000
     49        -39.759301   1.000000
     50        -39.759301   1.000000
     51        -39.759301   1.000000
     52        -39.759301   1.000000
     53        -39.756397   1.000000
     54        -39.756397   1.000000
     55        -39.756397   1.000000
     56        -39.756397   1.000000
     57        -39.755843   1.000000
     58        -39.755843   1.000000
     59        -39.755843   1.000000
     60        -39.755843   1.000000
     61        -39.751654   1.000000
     62        -39.751654   1.000000
     63        -39.750395   1.000000
     64        -39.750395   1.000000
     65        -39.747546   1.000000
     66        -39.747546   1.000000
     67        -39.747546   1.000000
     68        -39.747546   1.000000
     69        -39.743745   1.000000
     70        -39.743745   1.000000
     71        -39.743745   1.000000
     72        -39.743745   1.000000
     73        -39.743383   1.000000
     74        -39.743383   1.000000
     75        -39.736414   1.000000
     76        -39.736414   1.000000
     77        -39.736414   1.000000
     78        -39.736414   1.000000
     79        -39.735236   1.000000
     80        -39.735236   1.000000
     81        -39.734380   1.000000
     82        -39.734380   1.000000
     83        -39.731851   1.000000
     84        -39.731851   1.000000
     85        -39.731851   1.000000
     86        -39.731851   1.000000
     87        -39.731548   1.000000
     88        -39.731548   1.000000
     89        -39.731548   1.000000
     90        -39.731548   1.000000
     91        -39.731313   1.000000
     92        -39.731313   1.000000
     93        -39.731269   1.000000
     94        -39.731269   1.000000
     95        -39.731269   1.000000
     96        -39.731269   1.000000
     97        -18.341612   1.000000
     98        -18.341612   1.000000
     99        -18.300929   1.000000
    100        -18.300929   1.000000
    101        -18.286264   1.000000
    102        -18.286264   1.000000
    103        -18.286264   1.000000
    104        -18.286264   1.000000
    105        -18.285059   1.000000
    106        -18.285059   1.000000
    107        -18.285059   1.000000
    108        -18.285059   1.000000
    109        -18.274118   1.000000
    110        -18.274118   1.000000
    111        -18.263198   1.000000
    112        -18.263198   1.000000
    113        -18.263198   1.000000
    114        -18.263198   1.000000
    115        -18.243580   1.000000
    116        -18.243580   1.000000
    117        -18.243580   1.000000
    118        -18.243580   1.000000
    119        -18.221440   1.000000
    120        -18.221440   1.000000
    121        -18.221440   1.000000
    122        -18.221440   1.000000
    123        -18.219351   1.000000
    124        -18.219351   1.000000
    125        -18.219351   1.000000
    126        -18.219351   1.000000
    127        -18.205156   1.000000
    128        -18.205156   1.000000
    129        -18.201301   1.000000
    130        -18.201301   1.000000
    131        -18.201301   1.000000
    132        -18.201301   1.000000
    133        -18.200868   1.000000
    134        -18.200868   1.000000
    135        -18.200868   1.000000
    136        -18.200868   1.000000
    137        -18.191448   1.000000
    138        -18.191448   1.000000
    139        -18.191448   1.000000
    140        -18.191448   1.000000
    141        -18.173708   1.000000
    142        -18.173708   1.000000
    143        -18.173708   1.000000
    144        -18.173708   1.000000
    145        -18.167859   1.000000
    146        -18.167859   1.000000
    147        -18.162370   1.000000
    148        -18.162370   1.000000
    149        -18.125101   1.000000
    150        -18.125101   1.000000
    151        -18.122420   1.000000
    152        -18.122420   1.000000
    153        -18.106584   1.000000
    154        -18.106584   1.000000
    155        -18.106584   1.000000
    156        -18.106584   1.000000
    157        -18.094393   1.000000
    158        -18.094393   1.000000
    159        -18.088005   1.000000
    160        -18.088005   1.000000
    161        -18.088005   1.000000
    162        -18.088005   1.000000
    163        -18.078672   1.000000
    164        -18.078672   1.000000
    165        -18.078672   1.000000
    166        -18.078672   1.000000
    167        -18.074885   1.000000
    168        -18.074885   1.000000
    169        -18.074885   1.000000
    170        -18.074885   1.000000
    171        -18.027422   1.000000
    172        -18.027422   1.000000
    173        -18.004765   1.000000
    174        -18.004765   1.000000
    175        -18.004765   1.000000
    176        -18.004765   1.000000
    177        -17.995107   1.000000
    178        -17.995107   1.000000
    179        -17.995107   1.000000
    180        -17.995107   1.000000
    181        -17.993804   1.000000
    182        -17.993804   1.000000
    183        -17.954365   1.000000
    184        -17.954365   1.000000
    185        -17.942533   1.000000
    186        -17.942533   1.000000
    187        -17.942533   1.000000
    188        -17.942533   1.000000
    189        -17.938236   1.000000
    190        -17.938236   1.000000
    191        -17.937527   1.000000
    192        -17.937527   1.000000
    193        -17.937527   1.000000
    194        -17.937527   1.000000
    195        -17.929314   1.000000
    196        -17.929314   1.000000
    197        -17.929314   1.000000
    198        -17.929314   1.000000
    199        -17.925295   1.000000
    200        -17.925295   1.000000
    201        -17.925295   1.000000
    202        -17.925295   1.000000
    203        -17.918681   1.000000
    204        -17.918681   1.000000
    205        -17.904216   1.000000
    206        -17.904216   1.000000
    207        -17.890270   1.000000
    208        -17.890270   1.000000
    209        -17.890270   1.000000
    210        -17.890270   1.000000
    211        -17.855094   1.000000
    212        -17.855094   1.000000
    213        -17.855094   1.000000
    214        -17.855094   1.000000
    215        -17.839943   1.000000
    216        -17.839943   1.000000
    217        -17.839943   1.000000
    218        -17.839943   1.000000
    219        -17.822086   1.000000
    220        -17.822086   1.000000
    221        -17.814952   1.000000
    222        -17.814952   1.000000
    223        -17.814952   1.000000
    224        -17.814952   1.000000
    225        -17.791069   1.000000
    226        -17.791069   1.000000
    227        -17.791069   1.000000
    228        -17.791069   1.000000
    229        -17.778307   1.000000
    230        -17.778307   1.000000
    231        -17.769970   1.000000
    232        -17.769970   1.000000
    233        -17.769970   1.000000
    234        -17.769970   1.000000
    235        -17.762462   1.000000
    236        -17.762462   1.000000
    237        -17.761776   1.000000
    238        -17.761776   1.000000
    239        -17.752110   1.000000
    240        -17.752110   1.000000
    241        -17.752110   1.000000
    242        -17.752110   1.000000
    243        -17.750311   1.000000
    244        -17.750311   1.000000
    245        -17.749003   1.000000
    246        -17.749003   1.000000
    247        -17.739926   1.000000
    248        -17.739926   1.000000
    249        -17.739926   1.000000
    250        -17.739926   1.000000
    251        -17.723097   1.000000
    252        -17.723097   1.000000
    253        -17.723097   1.000000
    254        -17.723097   1.000000
    255        -17.709802   1.000000
    256        -17.709802   1.000000
    257        -17.709802   1.000000
    258        -17.709802   1.000000
    259        -17.699942   1.000000
    260        -17.699942   1.000000
    261        -17.699942   1.000000
    262        -17.699942   1.000000
    263        -17.692096   1.000000
    264        -17.692096   1.000000
    265        -17.687723   1.000000
    266        -17.687723   1.000000
    267        -17.687723   1.000000
    268        -17.687723   1.000000
    269        -17.687048   1.000000
    270        -17.687048   1.000000
    271        -17.687048   1.000000
    272        -17.687048   1.000000
    273        -17.675730   1.000000
    274        -17.675730   1.000000
    275        -17.675730   1.000000
    276        -17.675730   1.000000
    277        -17.674886   1.000000
    278        -17.674886   1.000000
    279        -17.673038   1.000000
    280        -17.673038   1.000000
    281        -17.673038   1.000000
    282        -17.673038   1.000000
    283        -17.642980   1.000000
    284        -17.642980   1.000000
    285        -17.642980   1.000000
    286        -17.642980   1.000000
    287        -17.638581   1.000000
    288        -17.638581   1.000000
    289        -17.638581   1.000000
    290        -17.638581   1.000000
    291        -17.637031   1.000000
    292        -17.637031   1.000000
    293        -17.637031   1.000000
    294        -17.637031   1.000000
    295        -17.633571   1.000000
    296        -17.633571   1.000000
    297        -17.633571   1.000000
    298        -17.633571   1.000000
    299        -17.620640   1.000000
    300        -17.620640   1.000000
    301        -17.613427   1.000000
    302        -17.613427   1.000000
    303        -17.613427   1.000000
    304        -17.613427   1.000000
    305        -17.610916   1.000000
    306        -17.610916   1.000000
    307        -17.610916   1.000000
    308        -17.610916   1.000000
    309        -17.610015   1.000000
    310        -17.610015   1.000000
    311        -17.610015   1.000000
    312        -17.610015   1.000000
    313        -17.609102   1.000000
    314        -17.609102   1.000000
    315        -17.609102   1.000000
    316        -17.609102   1.000000
    317        -17.608402   1.000000
    318        -17.608402   1.000000
    319        -17.604238   1.000000
    320        -17.604238   1.000000
    321        -17.601424   1.000000
    322        -17.601424   1.000000
    323        -17.601424   1.000000
    324        -17.601424   1.000000
    325        -17.601397   1.000000
    326        -17.601397   1.000000
    327        -17.594162   1.000000
    328        -17.594162   1.000000
    329        -17.587947   1.000000
    330        -17.587947   1.000000
    331        -17.587947   1.000000
    332        -17.587947   1.000000
    333        -17.584549   1.000000
    334        -17.584549   1.000000
    335        -17.584200   1.000000
    336        -17.584200   1.000000
    337        -17.584200   1.000000
    338        -17.584200   1.000000
    339        -17.574513   1.000000
    340        -17.574513   1.000000
    341        -17.573641   1.000000
    342        -17.573641   1.000000
    343        -17.573641   1.000000
    344        -17.573641   1.000000
    345        -17.567563   1.000000
    346        -17.567563   1.000000
    347        -17.552620   1.000000
    348        -17.552620   1.000000
    349        -17.552620   1.000000
    350        -17.552620   1.000000
    351        -17.542796   1.000000
    352        -17.542796   1.000000
    353        -17.542796   1.000000
    354        -17.542796   1.000000
    355        -17.542311   1.000000
    356        -17.542311   1.000000
    357        -17.534849   1.000000
    358        -17.534849   1.000000
    359        -17.534849   1.000000
    360        -17.534849   1.000000
    361        -17.530561   1.000000
    362        -17.530561   1.000000
    363        -17.525203   1.000000
    364        -17.525203   1.000000
    365        -17.525203   1.000000
    366        -17.525203   1.000000
    367        -17.514981   1.000000
    368        -17.514981   1.000000
    369        -17.514981   1.000000
    370        -17.514981   1.000000
    371        -17.507564   1.000000
    372        -17.507564   1.000000
    373        -17.493178   1.000000
    374        -17.493178   1.000000
    375        -17.493178   1.000000
    376        -17.493178   1.000000
    377        -17.471236   1.000000
    378        -17.471236   1.000000
    379        -17.471236   1.000000
    380        -17.471236   1.000000
    381        -17.457188   1.000000
    382        -17.457188   1.000000
    383        -17.444623   1.000000
    384        -17.444623   1.000000
    385          3.720183   1.000000
    386          3.720183   1.000000
    387          4.341013   1.000000
    388          4.341013   1.000000
    389          4.341013   1.000000
    390          4.341013   1.000000
    391          5.131152   1.000000
    392          5.131152   1.000000
    393          5.131152   1.000000
    394          5.131152   1.000000
    395          5.166569   1.000000
    396          5.166569   1.000000
    397          5.639212   1.000000
    398          5.639212   1.000000
    399          5.639212   1.000000
    400          5.639212   1.000000
    401          5.672866   1.000000
    402          5.672866   1.000000
    403          5.672866   1.000000
    404          5.672866   1.000000
    405          6.005915   1.000000
    406          6.005915   1.000000
    407          6.061448   1.000000
    408          6.061448   1.000000
    409          6.061448   1.000000
    410          6.061448   1.000000
    411          6.089934   1.000000
    412          6.089934   1.000000
    413          6.159525   1.000000
    414          6.159525   1.000000
    415          6.159525   1.000000
    416          6.159525   1.000000
    417          6.166773   1.000000
    418          6.166773   1.000000
    419          6.166773   1.000000
    420          6.166773   1.000000
    421          6.217806   1.000000
    422          6.217806   1.000000
    423          6.217806   1.000000
    424          6.217806   1.000000
    425          6.227579   1.000000
    426          6.227579   1.000000
    427          6.273569   1.000000
    428          6.273569   1.000000
    429          6.290223   1.000000
    430          6.290223   1.000000
    431          6.290223   1.000000
    432          6.290223   1.000000
    433          6.503402   1.000000
    434          6.503402   1.000000
    435          6.503402   1.000000
    436          6.503402   1.000000
    437          6.535890   1.000000
    438          6.535890   1.000000
    439          6.611084   1.000000
    440          6.611084   1.000000
    441          6.611084   1.000000
    442          6.611084   1.000000
    443          6.637506   1.000000
    444          6.637506   1.000000
    445          6.637506   1.000000
    446          6.637506   1.000000
    447          6.648572   1.000000
    448          6.648572   1.000000
    449          6.648572   1.000000
    450          6.648572   1.000000
    451          6.673695   1.000000
    452          6.673695   1.000000
    453          6.748330   1.000000
    454          6.748330   1.000000
    455          6.748330   1.000000
    456          6.748330   1.000000
    457          6.958179   1.000000
    458          6.958179   1.000000
    459          6.958179   1.000000
    460          6.958179   1.000000
    461          6.962072   1.000000
    462          6.962072   1.000000
    463          7.113618   1.000000
    464          7.113618   1.000000
    465          7.113618   1.000000
    466          7.113618   1.000000
    467          7.188084   1.000000
    468          7.188084   1.000000
    469          7.188084   1.000000
    470          7.188084   1.000000
    471          7.210434   1.000000
    472          7.210434   1.000000
    473          7.241872   1.000000
    474          7.241872   1.000000
    475          7.256018   1.000000
    476          7.256018   1.000000
    477          7.256018   1.000000
    478          7.256018   1.000000
    479          7.286331   1.000000
    480          7.286331   1.000000
    481          7.286331   1.000000
    482          7.286331   1.000000
    483          7.377924   1.000000
    484          7.377924   1.000000
    485          7.378890   1.000000
    486          7.378890   1.000000
    487          7.378890   1.000000
    488          7.378890   1.000000
    489          7.413507   1.000000
    490          7.413507   1.000000
    491          7.413507   1.000000
    492          7.413507   1.000000
    493          7.417581   1.000000
    494          7.417581   1.000000
    495          7.417581   1.000000
    496          7.417581   1.000000
    497          7.480664   1.000000
    498          7.480664   1.000000
    499          7.719259   1.000000
    500          7.719259   1.000000
    501          7.719259   1.000000
    502          7.719259   1.000000
    503          7.737068   1.000000
    504          7.737068   1.000000
    505          7.744755   1.000000
    506          7.744755   1.000000
    507          7.755608   1.000000
    508          7.755608   1.000000
    509          7.783566   1.000000
    510          7.783566   1.000000
    511          7.961957   1.000000
    512          7.961957   1.000000
    513          7.961957   1.000000
    514          7.961957   1.000000
    515          7.975469   1.000000
    516          7.975469   1.000000
    517          7.991610   1.000000
    518          7.991610   1.000000
    519          7.991610   1.000000
    520          7.991610   1.000000
    521          8.003459   1.000000
    522          8.003459   1.000000
    523          8.078713   1.000000
    524          8.078713   1.000000
    525          8.105457   1.000000
    526          8.105457   1.000000
    527          8.105457   1.000000
    528          8.105457   1.000000
    529          8.153430   1.000000
    530          8.153430   1.000000
    531          8.153430   1.000000
    532          8.153430   1.000000
    533          8.176220   1.000000
    534          8.176220   1.000000
    535          8.176220   1.000000
    536          8.176220   1.000000
    537          8.202901   1.000001
    538          8.202901   1.000001
    539          8.202901   1.000001
    540          8.202901   1.000001
    541          8.209578   1.000001
    542          8.209578   1.000001
    543          8.209578   1.000001
    544          8.209578   1.000001
    545          8.224031   1.000002
    546          8.224031   1.000002
    547          8.224031   1.000002
    548          8.224031   1.000002
    549          8.278049   1.000009
    550          8.278049   1.000009
    551          8.278049   1.000009
    552          8.278049   1.000009
    553          8.284831   1.000012
    554          8.284831   1.000012
    555          8.374836   1.000161
    556          8.374836   1.000161
    557          8.374836   1.000161
    558          8.374836   1.000161
    559          8.394009   1.000267
    560          8.394009   1.000267
    561          8.394009   1.000267
    562          8.394009   1.000267
    563          8.397679   1.000294
    564          8.397679   1.000294
    565          8.397679   1.000294
    566          8.397679   1.000294
    567          8.742447   1.030431
    568          8.742447   1.030431
    569          8.742447   1.030431
    570          8.742447   1.030431
    571          8.777792   1.008786
    572          8.777792   1.008786
    573          8.878296   0.799188
    574          8.878296   0.799188
    575          8.938454   0.569210
    576          8.938454   0.569210
    577          9.022089   0.232602
    578          9.022089   0.232602
    579          9.022089   0.232602
    580          9.022089   0.232602
    581          9.119694   0.004038
    582          9.119694   0.004038
    583          9.123980  -0.000799
    584          9.123980  -0.000799
    585          9.123980  -0.000799
    586          9.123980  -0.000799
    587          9.172795  -0.032102
    588          9.172795  -0.032102
    589          9.198929  -0.035455
    590          9.198929  -0.035455
    591          9.198929  -0.035455
    592          9.198929  -0.035455
    593          9.226800  -0.033140
    594          9.226800  -0.033140
    595          9.226800  -0.033140
    596          9.226800  -0.033140
    597          9.230430  -0.032553
    598          9.230430  -0.032553
    599          9.251737  -0.028344
    600          9.251737  -0.028344
    601          9.260075  -0.026478
    602          9.260075  -0.026478
    603          9.260075  -0.026478
    604          9.260075  -0.026478
    605          9.342531  -0.009708
    606          9.342531  -0.009708
    607          9.373416  -0.005858
    608          9.373416  -0.005858
    609          9.420084  -0.002431
    610          9.420084  -0.002431
    611          9.420084  -0.002431
    612          9.420084  -0.002431
    613          9.432815  -0.001868
    614          9.432815  -0.001868
    615          9.432815  -0.001868
    616          9.432815  -0.001868
    617          9.444090  -0.001468
    618          9.444090  -0.001468
    619          9.444090  -0.001468
    620          9.444090  -0.001468
    621          9.520900  -0.000234
    622          9.520900  -0.000234
    623          9.520900  -0.000234
    624          9.520900  -0.000234
    625          9.536257  -0.000156
    626          9.536257  -0.000156
    627          9.536257  -0.000156
    628          9.536257  -0.000156
    629          9.626911  -0.000011
    630          9.626911  -0.000011
    631          9.626911  -0.000011
    632          9.626911  -0.000011
    633          9.664088  -0.000003
    634          9.664088  -0.000003
    635          9.728106  -0.000000
    636          9.728106  -0.000000
    637          9.728106  -0.000000
    638          9.728106  -0.000000
    639          9.763185  -0.000000
    640          9.763185  -0.000000
    641          9.763185  -0.000000
    642          9.763185  -0.000000
    643          9.783590  -0.000000
    644          9.783590  -0.000000
    645          9.854797  -0.000000
    646          9.854797  -0.000000
    647          9.868416  -0.000000
    648          9.868416  -0.000000
    649          9.869141  -0.000000
    650          9.869141  -0.000000
    651          9.872173  -0.000000
    652          9.872173  -0.000000
    653          9.878453  -0.000000
    654          9.878453  -0.000000
    655          9.878453  -0.000000
    656          9.878455  -0.000000
    657          9.937338  -0.000000
    658          9.937343  -0.000000
    659          9.966623  -0.000000
    660          9.966623  -0.000000
    661          9.966624  -0.000000
    662          9.966629  -0.000000
    663         10.062731  -0.000000
    664         10.062736  -0.000000
    665         10.081248  -0.000000
    666         10.081251  -0.000000
    667         10.081256  -0.000000
    668         10.081306  -0.000000
    669         10.103332  -0.000000
    670         10.103347  -0.000000
    671         10.103426  -0.000000
    672         10.103735  -0.000000
    673         10.105163  -0.000000
    674         10.105183  -0.000000
    675         10.105193  -0.000000
    676         10.105393  -0.000000
    677         10.112839  -0.000000
    678         10.112855  -0.000000
    679         10.112896  -0.000000
    680         10.113030  -0.000000
    681         10.135585  -0.000000
    682         10.135589  -0.000000
    683         10.135593  -0.000000
    684         10.135635  -0.000000
    685         10.213150  -0.000000
    686         10.213197  -0.000000
    687         10.213930  -0.000000
    688         10.214910  -0.000000
    689         10.273019  -0.000000
    690         10.273549  -0.000000
    691         10.274819  -0.000000
    692         10.276985  -0.000000
    693         10.279782  -0.000000
    694         10.280293  -0.000000
    695         10.282262  -0.000000
    696         10.286371  -0.000000
    697         10.318719  -0.000000
    698         10.319490  -0.000000
    699         10.321665  -0.000000
    700         10.322747  -0.000000
    701         10.327865  -0.000000
    702         10.353337  -0.000000
    703         10.443397  -0.000000
    704         10.480333  -0.000000
 
  0.4000000E+00  0.2000000E+00  0.5000000E+00  0.6000000E-01
      1        -39.882037   1.000000
      2        -39.882037   1.000000
      3        -39.882037   1.000000
      4        -39.882037   1.000000
      5        -39.869983   1.000000
      6        -39.869983   1.000000
      7        -39.838451   1.000000
      8        -39.838451   1.000000
      9        -39.822496   1.000000
     10        -39.822496   1.000000
     11        -39.822496   1.000000
     12        -39.822496   1.000000
     13        -39.820923   1.000000
     14        -39.820923   1.000000
     15        -39.820923   1.000000
     16        -39.820923   1.000000
     17        -39.813752   1.000000
     18        -39.813752   1.000000
     19        -39.800156   1.000000
     20        -39.800156   1.000000
     21        -39.800156   1.000000
     22        -39.800156   1.000000
     23        -39.795239   1.000000
     24        -39.795239   1.000000
     25        -39.795239   1.000000
     26        -39.795239   1.000000
     27        -39.791619   1.000000
     28        -39.791619   1.000000
     29        -39.784703   1.000000
     30        -39.784703   1.000000
     31        -39.784703   1.000000
     32        -39.784703   1.000000
     33        -39.779939   1.000000
     34        -39.779939   1.000000
     35        -39.779939   1.000000
     36        -39.779939   1.000000
     37        -39.766952   1.000000
     38        -39.766952   1.000000
     39        -39.766952   1.000000
     40        -39.766952   1.000000
     41        -39.765998   1.000000
     42        -39.765998   1.000000
     43        -39.765998   1.000000
     44        -39.765998   1.000000
     45        -39.764061   1.000000
     46        -39.764061   1.000000
     47        -39.764061   1.000000
     48        -39.764061   1.000000
     49        -39.762172   1.000000
     50        -39.762172   1.000000
     51        -39.762172   1.000000
     52        -39.762172   1.000000
     53        -39.759064   1.000000
     54        -39.759064   1.000000
     55        -39.758082   1.000000
     56        -39.758082   1.000000
     57        -39.758082   1.000000
     58        -39.758082   1.000000
     59        -39.756825   1.000000
     60        -39.756825   1.000000
     61        -39.748739   1.000000
     62        -39.748739   1.000000
     63        -39.748739   1.000000
     64        -39.748739   1.000000
     65        -39.745993   1.000000
     66        -39.745993   1.000000
     67        -39.745866   1.000000
     68        -39.745866   1.000000
     69        -39.744358   1.000000
     70        -39.744358   1.000000
     71        -39.742173   1.000000
     72        -39.742173   1.000000
     73        -39.738667   1.000000
     74        -39.738667   1.000000
     75        -39.738667   1.000000
     76        -39.738667   1.000000
     77        -39.738482   1.000000
     78        -39.738482   1.000000
     79        -39.733596   1.000000
     80        -39.733596   1.000000
     81        -39.733596   1.000000
     82        -39.733596   1.000000
     83        -39.732775   1.000000
     84        -39.732775   1.000000
     85        -39.732775   1.000000
     86        -39.732775   1.000000
     87        -39.732760   1.000000
     88        -39.732760   1.000000
     89        -39.731561   1.000000
     90        -39.731561   1.000000
     91        -39.731561   1.000000
     92        -39.731561   1.000000
     93        -39.731415   1.000000
     94        -39.731415   1.000000
     95        -39.731415   1.000000
     96        -39.731415   1.000000
     97        -18.317882   1.000000
     98        -18.317882   1.000000
     99        -18.317882   1.000000
    100        -18.317882   1.000000
    101        -18.290168   1.000000
    102        -18.290168   1.000000
    103        -18.275668   1.000000
    104        -18.275668   1.000000
    105        -18.275668   1.000000
    106        -18.275668   1.000000
    107        -18.254907   1.000000
    108        -18.254907   1.000000
    109        -18.254907   1.000000
    110        -18.254907   1.000000
    111        -18.249367   1.000000
    112        -18.249367   1.000000
    113        -18.244285   1.000000
    114        -18.244285   1.000000
    115        -18.244285   1.000000
    116        -18.244285   1.000000
    117        -18.237855   1.000000
    118        -18.237855   1.000000
    119        -18.237855   1.000000
    120        -18.237855   1.000000
    121        -18.230322   1.000000
    122        -18.230322   1.000000
    123        -18.230322   1.000000
    124        -18.230322   1.000000
    125        -18.225117   1.000000
    126        -18.225117   1.000000
    127        -18.225117   1.000000
    128        -18.225117   1.000000
    129        -18.221658   1.000000
    130        -18.221658   1.000000
    131        -18.210770   1.000000
    132        -18.210770   1.000000
    133        -18.203058   1.000000
    134        -18.203058   1.000000
    135        -18.203058   1.000000
    136        -18.203058   1.000000
    137        -18.197656   1.000000
    138        -18.197656   1.000000
    139        -18.197472   1.000000
    140        -18.197472   1.000000
    141        -18.197472   1.000000
    142        -18.197472   1.000000
    143        -18.190780   1.000000
    144        -18.190780   1.000000
    145        -18.190780   1.000000
    146        -18.190780   1.000000
    147        -18.120803   1.000000
    148        -18.120803   1.000000
    149        -18.120803   1.000000
    150        -18.120803   1.000000
    151        -18.118592   1.000000
    152        -18.118592   1.000000
    153        -18.102404   1.000000
    154        -18.102404   1.000000
    155        -18.102404   1.000000
    156        -18.102404   1.000000
    157        -18.084605   1.000000
    158        -18.084605   1.000000
    159        -18.084605   1.000000
    160        -18.084605   1.000000
    161        -18.080706   1.000000
    162        -18.080706   1.000000
    163        -18.069265   1.000000
    164        -18.069265   1.000000
    165        -18.061688   1.000000
    166        -18.061688   1.000000
    167        -18.061688   1.000000
    168        -18.061688   1.000000
    169        -18.052462   1.000000
    170        -18.052462   1.000000
    171        -18.048553   1.000000
    172        -18.048553   1.000000
    173        -18.042106   1.000000
    174        -18.042106   1.000000
    175        -18.042106   1.000000
    176        -18.042106   1.000000
    177        -17.989316   1.000000
    178        -17.989316   1.000000
    179        -17.967813   1.000000
    180        -17.967813   1.000000
    181        -17.967813   1.000000
    182        -17.967813   1.000000
    183        -17.959823   1.000000
    184        -17.959823   1.000000
    185        -17.957573   1.000000
    186        -17.957573   1.000000
    187        -17.957425   1.000000
    188        -17.957425   1.000000
    189        -17.957425   1.000000
    190        -17.957425   1.000000
    191        -17.952243   1.000000
    192        -17.952243   1.000000
    193        -17.952243   1.000000
    194        -17.952243   1.000000
    195        -17.939101   1.000000
    196        -17.939101   1.000000
    197        -17.939101   1.000000
    198        -17.939101   1.000000
    199        -17.937675   1.000000
    200        -17.937675   1.000000
    201        -17.937675   1.000000
    202        -17.937675   1.000000
    203        -17.929169   1.000000
    204        -17.929169   1.000000
    205        -17.929169   1.000000
    206        -17.929169   1.000000
    207        -17.885580   1.000000
    208        -17.885580   1.000000
    209        -17.885580   1.000000
    210        -17.885580   1.000000
    211        -17.868885   1.000000
    212        -17.868885   1.000000
    213        -17.863936   1.000000
    214        -17.863936   1.000000
    215        -17.839670   1.000000
    216        -17.839670   1.000000
    217        -17.822186   1.000000
    218        -17.822186   1.000000
    219        -17.802770   1.000000
    220        -17.802770   1.000000
    221        -17.802770   1.000000
    222        -17.802770   1.000000
    223        -17.796364   1.000000
    224        -17.796364   1.000000
    225        -17.796364   1.000000
    226        -17.796364   1.000000
    227        -17.794993   1.000000
    228        -17.794993   1.000000
    229        -17.767615   1.000000
    230        -17.767615   1.000000
    231        -17.767615   1.000000
    232        -17.767615   1.000000
    233        -17.754863   1.000000
    234        -17.754863   1.000000
    235        -17.744918   1.000000
    236        -17.744918   1.000000
    237        -17.744918   1.000000
    238        -17.744918   1.000000
    239        -17.743965   1.000000
    240        -17.743965   1.000000
    241        -17.735050   1.000000
    242        -17.735050   1.000000
    243        -17.735050   1.000000
    244        -17.735050   1.000000
    245        -17.734957   1.000000
    246        -17.734957   1.000000
    247        -17.734957   1.000000
    248        -17.734957   1.000000
    249        -17.719479   1.000000
    250        -17.719479   1.000000
    251        -17.719479   1.000000
    252        -17.719479   1.000000
    253        -17.715027   1.000000
    254        -17.715027   1.000000
    255        -17.714094   1.000000
    256        -17.714094   1.000000
    257        -17.713156   1.000000
    258        -17.713156   1.000000
    259        -17.713156   1.000000
    260        -17.713156   1.000000
    261        -17.709183   1.000000
    262        -17.709183   1.000000
    263        -17.709183   1.000000
    264        -17.709183   1.000000
    265        -17.698169   1.000000
    266        -17.698169   1.000000
    267        -17.698169   1.000000
    268        -17.698169   1.000000
    269        -17.694577   1.000000
    270        -17.694577   1.000000
    271        -17.694577   1.000000
    272        -17.694577   1.000000
    273        -17.690968   1.000000
    274        -17.690968   1.000000
    275        -17.676585   1.000000
    276        -17.676585   1.000000
    277        -17.669432   1.000000
    278        -17.669432   1.000000
    279        -17.658829   1.000000
    280        -17.658829   1.000000
    281        -17.658829   1.000000
    282        -17.658829   1.000000
    283        -17.650994   1.000000
    284        -17.650994   1.000000
    285        -17.633338   1.000000
    286        -17.633338   1.000000
    287        -17.633338   1.000000
    288        -17.633338   1.000000
    289        -17.625003   1.000000
    290        -17.625003   1.000000
    291        -17.625003   1.000000
    292        -17.625003   1.000000
    293        -17.618253   1.000000
    294        -17.618253   1.000000
    295        -17.618253   1.000000
    296        -17.618253   1.000000
    297        -17.616500   1.000000
    298        -17.616500   1.000000
    299        -17.616500   1.000000
    300        -17.616500   1.000000
    301        -17.615673   1.000000
    302        -17.615673   1.000000
    303        -17.615673   1.000000
    304        -17.615673   1.000000
    305        -17.612819   1.000000
    306        -17.612819   1.000000
    307        -17.612819   1.000000
    308        -17.612819   1.000000
    309        -17.608838   1.000000
    310        -17.608838   1.000000
    311        -17.608838   1.000000
    312        -17.608838   1.000000
    313        -17.606978   1.000000
    314        -17.606978   1.000000
    315        -17.606294   1.000000
    316        -17.606294   1.000000
    317        -17.606294   1.000000
    318        -17.606294   1.000000
    319        -17.600663   1.000000
    320        -17.600663   1.000000
    321        -17.600352   1.000000
    322        -17.600352   1.000000
    323        -17.599663   1.000000
    324        -17.599663   1.000000
    325        -17.599663   1.000000
    326        -17.599663   1.000000
    327        -17.598015   1.000000
    328        -17.598015   1.000000
    329        -17.598015   1.000000
    330        -17.598015   1.000000
    331        -17.592857   1.000000
    332        -17.592857   1.000000
    333        -17.582790   1.000000
    334        -17.582790   1.000000
    335        -17.577463   1.000000
    336        -17.577463   1.000000
    337        -17.577463   1.000000
    338        -17.577463   1.000000
    339        -17.570199   1.000000
    340        -17.570199   1.000000
    341        -17.570199   1.000000
    342        -17.570199   1.000000
    343        -17.569439   1.000000
    344        -17.569439   1.000000
    345        -17.569439   1.000000
    346        -17.569439   1.000000
    347        -17.566915   1.000000
    348        -17.566915   1.000000
    349        -17.566915   1.000000
    350        -17.566915   1.000000
    351        -17.554059   1.000000
    352        -17.554059   1.000000
    353        -17.554059   1.000000
    354        -17.554059   1.000000
    355        -17.541885   1.000000
    356        -17.541885   1.000000
    357        -17.541885   1.000000
    358        -17.541885   1.000000
    359        -17.540981   1.000000
    360        -17.540981   1.000000
    361        -17.540981   1.000000
    362        -17.540981   1.000000
    363        -17.540674   1.000000
    364        -17.540674   1.000000
    365        -17.531440   1.000000
    366        -17.531440   1.000000
    367        -17.522504   1.000000
    368        -17.522504   1.000000
    369        -17.522504   1.000000
    370        -17.522504   1.000000
    371        -17.520896   1.000000
    372        -17.520896   1.000000
    373        -17.486346   1.000000
    374        -17.486346   1.000000
    375        -17.475673   1.000000
    376        -17.475673   1.000000
    377        -17.473812   1.000000
    378        -17.473812   1.000000
    379        -17.473812   1.000000
    380        -17.473812   1.000000
    381        -17.456245   1.000000
    382        -17.456245   1.000000
    383        -17.456245   1.000000
    384        -17.456245   1.000000
    385          3.978663   1.000000
    386          3.978663   1.000000
    387          3.978663   1.000000
    388          3.978663   1.000000
    389          4.285100   1.000000
    390          4.285100   1.000000
    391          5.098744   1.000000
    392          5.098744   1.000000
    393          5.388539   1.000000
    394          5.388539   1.000000
    395          5.388539   1.000000
    396          5.388539   1.000000
    397          5.553992   1.000000
    398          5.553992   1.000000
    399          5.553992   1.000000
    400          5.553992   1.000000
    401          5.635401   1.000000
    402          5.635401   1.000000
    403          5.924943   1.000000
    404          5.924943   1.000000
    405          5.924943   1.000000
    406          5.924943   1.000000
    407          5.943462   1.000000
    408          5.943462   1.000000
    409          5.943462   1.000000
    410          5.943462   1.000000
    411          6.150453   1.000000
    412          6.150453   1.000000
    413          6.150453   1.000000
    414          6.150453   1.000000
    415          6.169036   1.000000
    416          6.169036   1.000000
    417          6.205695   1.000000
    418          6.205695   1.000000
    419          6.205695   1.000000
    420          6.205695   1.000000
    421          6.314495   1.000000
    422          6.314495   1.000000
    423          6.314495   1.000000
    424          6.314495   1.000000
    425          6.333785   1.000000
    426          6.333785   1.000000
    427          6.333785   1.000000
    428          6.333785   1.000000
    429          6.334526   1.000000
    430          6.334526   1.000000
    431          6.334526   1.000000
    432          6.334526   1.000000
    433          6.367150   1.000000
    434          6.367150   1.000000
    435          6.367150   1.000000
    436          6.367150   1.000000
    437          6.409389   1.000000
    438          6.409389   1.000000
    439          6.409389   1.000000
    440          6.409389   1.000000
    441          6.489853   1.000000
    442          6.489853   1.000000
    443          6.489853   1.000000
    444          6.489853   1.000000
    445          6.612175   1.000000
    446          6.612175   1.000000
    447          6.623652   1.000000
    448          6.623652   1.000000
    449          6.758806   1.000000
    450          6.758806   1.000000
    451          6.771690   1.000000
    452          6.771690   1.000000
    453          6.771690   1.000000
    454          6.771690   1.000000
    455          6.836269   1.000000
    456          6.836269   1.000000
    457          6.836269   1.000000
    458          6.836269   1.000000
    459          6.934142   1.000000
    460          6.934142   1.000000
    461          6.934143   1.000000
    462          6.934143   1.000000
    463          6.974331   1.000000
    464          6.974331   1.000000
    465          7.017941   1.000000
    466          7.017941   1.000000
    467          7.017941   1.000000
    468          7.017941   1.000000
    469          7.227104   1.000000
    470          7.227104   1.000000
    471          7.259427   1.000000
    472          7.259427   1.000000
    473          7.324250   1.000000
    474          7.324250   1.000000
    475          7.324250   1.000000
    476          7.324250   1.000000
    477          7.339662   1.000000
    478          7.339662   1.000000
    479          7.339662   1.000000
    480          7.339662   1.000000
    481          7.344087   1.000000
    482          7.344087   1.000000
    483          7.344087   1.000000
    484          7.344087   1.000000
    485          7.367823   1.000000
    486          7.367823   1.000000
    487          7.460731   1.000000
    488          7.460731   1.000000
    489          7.460731   1.000000
    490          7.460731   1.000000
    491          7.476647   1.000000
    492          7.476647   1.000000
    493          7.476647   1.000000
    494          7.476647   1.000000
    495          7.502912   1.000000
    496          7.502912   1.000000
    497          7.502912   1.000000
    498          7.502912   1.000000
    499          7.517730   1.000000
    500          7.517730   1.000000
    501          7.539879   1.000000
    502          7.539879   1.000000
    503          7.634149   1.000000
    504          7.634149   1.000000
    505          7.750591   1.000000
    506          7.750591   1.000000
    507          7.805732   1.000000
    508          7.805732   1.000000
    509          7.814773   1.000000
    510          7.814773   1.000000
    511          7.934375   1.000000
    512          7.934375   1.000000
    513          8.025930   1.000000
    514          8.025930   1.000000
    515          8.025930   1.000000
    516          8.025930   1.000000
    517          8.030182   1.000000
    518          8.030182   1.000000
    519          8.030182   1.000000
    520          8.030182   1.000000
    521          8.031432   1.000000
    522          8.031432   1.000000
    523          8.031432   1.000000
    524          8.031432   1.000000
    525          8.070372   1.000000
    526          8.070372   1.000000
    527          8.070372   1.000000
    528          8.070372   1.000000
    529          8.127687   1.000000
    530          8.127687   1.000000
    531          8.127687   1.000000
    532          8.127687   1.000000
    533          8.132306   1.000000
    534          8.132306   1.000000
    535          8.132306   1.000000
    536          8.132306   1.000000
    537          8.190168   1.000000
    538          8.190168   1.000000
    539          8.192594   1.000000
    540          8.192594   1.000000
    541          8.192594   1.000000
    542          8.192594   1.000000
    543          8.207638   1.000001
    544          8.207638   1.000001
    545          8.223726   1.000002
    546          8.223726   1.000002
    547          8.225948   1.000002
    548          8.225948   1.000002
    549          8.225948   1.000002
    550          8.225948   1.000002
    551          8.268655   1.000007
    552          8.268655   1.000007
    553          8.268655   1.000007
    554          8.268655   1.000007
    555          8.275930   1.000009
    556          8.275930   1.000009
    557          8.275930   1.000009
    558          8.275930   1.000009
    559          8.425275   1.000583
    560          8.425275   1.000583
    561          8.459556   1.001285
    562          8.459556   1.001285
    563          8.589670   1.013452
    564          8.589670   1.013452
    565          8.589670   1.013452
    566          8.589670   1.013452
    567          8.763976   1.019735
    568          8.763976   1.019735
    569          8.829497   0.931709
    570          8.829497   0.931709
    571          8.829497   0.931709
    572          8.829497   0.931709
    573          8.893774   0.745634
    574          8.893774   0.745634
    575          9.024291   0.224956
    576          9.024291   0.224956
    577          9.044422   0.159932
    578          9.044422   0.159932
    579          9.044422   0.159932
    580          9.044422   0.159932
    581          9.053597   0.133421
    582          9.053597   0.133421
    583          9.053597   0.133421
    584          9.053597   0.133421
    585          9.087378   0.053893
    586          9.087378   0.053893
    587          9.087388   0.053874
    588          9.087388   0.053874
    589          9.140789  -0.016193
    590          9.140789  -0.016193
    591          9.149276  -0.021975
    592          9.149276  -0.021975
    593          9.200483  -0.035456
    594          9.200483  -0.035456
    595          9.200483  -0.035456
    596          9.200483  -0.035456
    597          9.339094  -0.010229
    598          9.339094  -0.010229
    599          9.339094  -0.010229
    600          9.339094  -0.010229
    601          9.370733  -0.006136
    602          9.370733  -0.006136
    603          9.370733  -0.006136
    604          9.370733  -0.006136
    605          9.391885  -0.004203
    606          9.391885  -0.004203
    607          9.391885  -0.004203
    608          9.391885  -0.004203
    609          9.434027  -0.001821
    610          9.434027  -0.001821
    611          9.434027  -0.001821
    612          9.434027  -0.001821
    613          9.442017  -0.001536
    614          9.442017  -0.001536
    615          9.442017  -0.001536
    616          9.442017  -0.001536
    617          9.443406  -0.001490
    618          9.443406  -0.001490
    619          9.496463  -0.000435
    620          9.496463  -0.000435
    621          9.547249  -0.000115
    622          9.547249  -0.000115
    623          9.572061  -0.000057
    624          9.572061  -0.000057
    625          9.572061  -0.000057
    626          9.572061  -0.000057
    627          9.622676  -0.000012
    628          9.622676  -0.000012
    629          9.622676  -0.000012
    630          9.622676  -0.000012
    631          9.667008  -0.000003
    632          9.667008  -0.000003
    633          9.667008  -0.000003
    634          9.667008  -0.000003
    635          9.754887  -0.000000
    636          9.754887  -0.000000
    637          9.754887  -0.000000
    638          9.754887  -0.000000
    639          9.769981  -0.000000
    640          9.769981  -0.000000
    641          9.785812  -0.000000
    642          9.785812  -0.000000
    643          9.801553  -0.000000
    644          9.801553  -0.000000
    645          9.801553  -0.000000
    646          9.801553  -0.000000
    647          9.850856  -0.000000
    648          9.850856  -0.000000
    649          9.850856  -0.000000
    650          9.850857  -0.000000
    651          9.858967  -0.000000
    652          9.858967  -0.000000
    653          9.858968  -0.000000
    654          9.858968  -0.000000
    655          9.905861  -0.000000
    656          9.905861  -0.000000
    657          9.905861  -0.000000
    658          9.905861  -0.000000
    659          9.921547  -0.000000
    660          9.921547  -0.000000
    661          9.921547  -0.000000
    662          9.921547  -0.000000
    663          9.927883  -0.000000
    664          9.927883  -0.000000
    665          9.927884  -0.000000
    666          9.927885  -0.000000
    667         10.039073  -0.000000
    668         10.039074  -0.000000
    669         10.039075  -0.000000
    670         10.039080  -0.000000
    671         10.059658  -0.000000
    672         10.059665  -0.000000
    673         10.061666  -0.000000
    674         10.061668  -0.000000
    675         10.061670  -0.000000
    676         10.061681  -0.000000
    677         10.066289  -0.000000
    678         10.066290  -0.000000
    679         10.066298  -0.000000
    680         10.066312  -0.000000
    681         10.138018  -0.000000
    682         10.138025  -0.000000
    683         10.138054  -0.000000
    684         10.138112  -0.000000
    685         10.149661  -0.000000
    686         10.149676  -0.000000
    687         10.149707  -0.000000
    688         10.149772  -0.000000
    689         10.199540  -0.000000
    690         10.199563  -0.000000
    691         10.199679  -0.000000
    692         10.200142  -0.000000
    693         10.224909  -0.000000
    694         10.224928  -0.000000
    695         10.224957  -0.000000
    696         10.225481  -0.000000
    697         10.280849  -0.000000
    698         10.281718  -0.000000
    699         10.287851  -0.000000
    700         10.288592  -0.000000
    701         10.324545  -0.000000
    702         10.326136  -0.000000
    703         10.491723  -0.000000
    704         10.494921  -0.000000
