       N       E                     dE             d eps       ncg     rms          rms(c)
DAV:   1     0.124304134953E+05    0.12430E+05   -0.55922E+05 21120   0.148E+03
DAV:   2     0.431915510956E+03   -0.11998E+05   -0.11687E+05 22592   0.485E+02
DAV:   3    -0.688053835488E+03   -0.11200E+04   -0.10691E+04 33472   0.105E+02
DAV:   4    -0.838224626512E+03   -0.15017E+03   -0.14799E+03 32128   0.327E+01
DAV:   5    -0.852137703110E+03   -0.13913E+02   -0.13858E+02 30016   0.771E+00    0.982E+01
DAV:   6    -0.823192882764E+03    0.28945E+02   -0.48913E+01 26144   0.980E+00    0.382E+01
DAV:   7    -0.817532732263E+03    0.56602E+01   -0.28066E+01 28160   0.650E+00    0.756E+00
DAV:   8    -0.817952988553E+03   -0.42026E+00   -0.32241E+00 28576   0.210E+00    0.131E+00
DAV:   9    -0.817959352298E+03   -0.63637E-02   -0.76066E-02 31136   0.364E-01    0.378E-01
DAV:  10    -0.817955726644E+03    0.36257E-02   -0.37547E-03 33536   0.586E-02    0.159E-01
DAV:  11    -0.817955770080E+03   -0.43436E-04   -0.49781E-04 26656   0.429E-02    0.453E-02
DAV:  12    -0.817955753122E+03    0.16958E-04   -0.44843E-05 28096   0.102E-02    0.117E-02
DAV:  13    -0.817955742897E+03    0.10225E-04   -0.87190E-06 31200   0.207E-03    0.101E-02
DAV:  14    -0.817955736130E+03    0.67668E-05   -0.82874E-07 25248   0.174E-03    0.193E-03
DAV:  15    -0.817955736099E+03    0.30763E-07   -0.19380E-08 15584   0.233E-04
   1 F= -.81795574E+03 E0= -.81800059E+03  d E =0.134574E+00
