Zr96 4x4x3 supercell from verified relaxed Zr2
1.0000000000000000
  6.4683126953282200  -11.2034462275512627  0.0000000000000000
  6.4683126953282200  11.2034462275512627  0.0000000000000000
  0.0000000000000000  0.0000000000000000  15.4980644251775281
  Zr
  96
Direct
  0.0833333333333339  0.1666666666666661  0.0833333333333333
  0.1666666666666661  0.0833333333333339  0.2500000000000000
  0.0833333333333339  0.1666666666666661  0.4166666666666667
  0.1666666666666661  0.0833333333333339  0.5833333333333334
  0.0833333333333339  0.1666666666666661  0.7500000000000000
  0.1666666666666661  0.0833333333333339  0.9166666666666666
  0.0833333333333339  0.4166666666666661  0.0833333333333333
  0.1666666666666661  0.3333333333333339  0.2500000000000000
  0.0833333333333339  0.4166666666666661  0.4166666666666667
  0.1666666666666661  0.3333333333333339  0.5833333333333334
  0.0833333333333339  0.4166666666666661  0.7500000000000000
  0.1666666666666661  0.3333333333333339  0.9166666666666666
  0.0833333333333339  0.6666666666666661  0.0833333333333333
  0.1666666666666661  0.5833333333333339  0.2500000000000000
  0.0833333333333339  0.6666666666666661  0.4166666666666667
  0.1666666666666661  0.5833333333333339  0.5833333333333334
  0.0833333333333339  0.6666666666666661  0.7500000000000000
  0.1666666666666661  0.5833333333333339  0.9166666666666666
  0.0833333333333339  0.9166666666666661  0.0833333333333333
  0.1666666666666661  0.8333333333333339  0.2500000000000000
  0.0833333333333339  0.9166666666666661  0.4166666666666667
  0.1666666666666661  0.8333333333333339  0.5833333333333334
  0.0833333333333339  0.9166666666666661  0.7500000000000000
  0.1666666666666661  0.8333333333333339  0.9166666666666666
  0.3333333333333339  0.1666666666666661  0.0833333333333333
  0.4166666666666661  0.0833333333333339  0.2500000000000000
  0.3333333333333339  0.1666666666666661  0.4166666666666667
  0.4166666666666661  0.0833333333333339  0.5833333333333334
  0.3333333333333339  0.1666666666666661  0.7500000000000000
  0.4166666666666661  0.0833333333333339  0.9166666666666666
  0.3333333333333339  0.4166666666666661  0.0833333333333333
  0.4166666666666661  0.3333333333333339  0.2500000000000000
  0.3333333333333339  0.4166666666666661  0.4166666666666667
  0.4166666666666661  0.3333333333333339  0.5833333333333334
  0.3333333333333339  0.4166666666666661  0.7500000000000000
  0.4166666666666661  0.3333333333333339  0.9166666666666666
  0.3333333333333339  0.6666666666666661  0.0833333333333333
  0.4166666666666661  0.5833333333333339  0.2500000000000000
  0.3333333333333339  0.6666666666666661  0.4166666666666667
  0.4166666666666661  0.5833333333333339  0.5833333333333334
  0.3333333333333339  0.6666666666666661  0.7500000000000000
  0.4166666666666661  0.5833333333333339  0.9166666666666666
  0.3333333333333339  0.9166666666666661  0.0833333333333333
  0.4166666666666661  0.8333333333333339  0.2500000000000000
  0.3333333333333339  0.9166666666666661  0.4166666666666667
  0.4166666666666661  0.8333333333333339  0.5833333333333334
  0.3333333333333339  0.9166666666666661  0.7500000000000000
  0.4166666666666661  0.8333333333333339  0.9166666666666666
  0.5833333333333339  0.1666666666666661  0.0833333333333333
  0.6666666666666661  0.0833333333333339  0.2500000000000000
  0.5833333333333339  0.1666666666666661  0.4166666666666667
  0.6666666666666661  0.0833333333333339  0.5833333333333334
  0.5833333333333339  0.1666666666666661  0.7500000000000000
  0.6666666666666661  0.0833333333333339  0.9166666666666666
  0.5833333333333339  0.4166666666666661  0.0833333333333333
  0.6666666666666661  0.3333333333333339  0.2500000000000000
  0.5833333333333339  0.4166666666666661  0.4166666666666667
  0.6666666666666661  0.3333333333333339  0.5833333333333334
  0.5833333333333339  0.4166666666666661  0.7500000000000000
  0.6666666666666661  0.3333333333333339  0.9166666666666666
  0.5833333333333339  0.6666666666666661  0.0833333333333333
  0.6666666666666661  0.5833333333333339  0.2500000000000000
  0.5833333333333339  0.6666666666666661  0.4166666666666667
  0.6666666666666661  0.5833333333333339  0.5833333333333334
  0.5833333333333339  0.6666666666666661  0.7500000000000000
  0.6666666666666661  0.5833333333333339  0.9166666666666666
  0.5833333333333339  0.9166666666666661  0.0833333333333333
  0.6666666666666661  0.8333333333333339  0.2500000000000000
  0.5833333333333339  0.9166666666666661  0.4166666666666667
  0.6666666666666661  0.8333333333333339  0.5833333333333334
  0.5833333333333339  0.9166666666666661  0.7500000000000000
  0.6666666666666661  0.8333333333333339  0.9166666666666666
  0.8333333333333339  0.1666666666666661  0.0833333333333333
  0.9166666666666661  0.0833333333333339  0.2500000000000000
  0.8333333333333339  0.1666666666666661  0.4166666666666667
  0.9166666666666661  0.0833333333333339  0.5833333333333334
  0.8333333333333339  0.1666666666666661  0.7500000000000000
  0.9166666666666661  0.0833333333333339  0.9166666666666666
  0.8333333333333339  0.4166666666666661  0.0833333333333333
  0.9166666666666661  0.3333333333333339  0.2500000000000000
  0.8333333333333339  0.4166666666666661  0.4166666666666667
  0.9166666666666661  0.3333333333333339  0.5833333333333334
  0.8333333333333339  0.4166666666666661  0.7500000000000000
  0.9166666666666661  0.3333333333333339  0.9166666666666666
  0.8333333333333339  0.6666666666666661  0.0833333333333333
  0.9166666666666661  0.5833333333333339  0.2500000000000000
  0.8333333333333339  0.6666666666666661  0.4166666666666667
  0.9166666666666661  0.5833333333333339  0.5833333333333334
  0.8333333333333339  0.6666666666666661  0.7500000000000000
  0.9166666666666661  0.5833333333333339  0.9166666666666666
  0.8333333333333339  0.9166666666666661  0.0833333333333333
  0.9166666666666661  0.8333333333333339  0.2500000000000000
  0.8333333333333339  0.9166666666666661  0.4166666666666667
  0.9166666666666661  0.8333333333333339  0.5833333333333334
  0.8333333333333339  0.9166666666666661  0.7500000000000000
  0.9166666666666661  0.8333333333333339  0.9166666666666666
