Zr96H octahedral interstitial in 4x4x3 s
   1.00000000000000     
     6.4683126953282200  -11.2034462275512627    0.0000000000000000
     6.4683126953282200   11.2034462275512627    0.0000000000000000
     0.0000000000000000    0.0000000000000000   15.4980644251775281
   Zr   H 
    96     1
Direct
  0.0831896896639916  0.1664613866134714  0.0829872877684244
  0.1662919047383651  0.0831011069468975  0.2498023272545637
  0.0835539483238348  0.1671309108484513  0.4161325441108777
  0.1671310348211096  0.0835541204655927  0.5838686864602626
  0.0831011673174175  0.1662919354932865  0.7501976579907125
  0.1664613773066133  0.0831897003780808  0.9170114748452585
  0.0831896965866827  0.4167283038099572  0.0829872809129932
  0.1665836632648131  0.3332918404193880  0.2494674329783953
  0.0835539456731902  0.4164230424169754  0.4161325379610176
  0.1655327345981195  0.3327663695093476  0.5837975071443313
  0.0831011648360270  0.4168092361951066  0.7501976686624026
  0.1669167593850780  0.3334583839688280  0.9165360147266869
  0.0834542063753258  0.6669083997170152  0.0834355741172939
  0.1662919129064407  0.5831908026164052  0.2498023284919398
  0.0830950682054350  0.6661901365455617  0.4168581326153827
  0.1671310271339380  0.5835769113986138  0.5838686883211768
  0.0835565421499576  0.6671130719155522  0.7502770503151966
  0.1664613838488343  0.5832716696134995  0.9170114722762372
  0.0834542008608244  0.9165458098141500  0.0834355699909136
  0.1666666658844212  0.8333333295837334  0.2505282268569835
  0.0830950790984339  0.9169049356341248  0.4168581388426661
  0.1666666709542639  0.8333333361451684  0.5833259660097008
  0.0835565431435317  0.9164434605511927  0.7502770509000227
  0.1666666622430533  0.8333333311324980  0.9168169516226482
  0.3334583441321055  0.1669166913850595  0.0834626729599098
  0.4168091961517434  0.0831011045513369  0.2498023276471013
  0.3327663744002026  0.1655327369156665  0.4162039788284269
  0.4164230786751147  0.0835541054376684  0.5838686922604907
  0.3332918963517207  0.1665837891240481  0.7505325947370119
  0.4167283308769325  0.0831897054502946  0.9170114718473332
  0.3336952394442683  0.4168476186194712  0.0833698707160149
  0.4167909638684432  0.3335819265276925  0.2503316601908657
  0.3302968827049951  0.4151484436922544  0.4168830485081708
  0.4151483328764936  0.3302966705020086  0.5831181440119259
  0.3335820556790690  0.4167910267541186  0.7496683450750563
  0.4168476418322318  0.3336952855231067  0.9166289498617584
  0.3334583421631422  0.6665416538175115  0.0834626713511925
  0.4167909594557808  0.5832090403475135  0.2503316681197805
  0.3327663733053049  0.6672336233721941  0.4162039778059363
  0.4151483272507495  0.5848516642368942  0.5831181369969127
  0.3332918890356816  0.6667080994220226  0.7505325969826038
  0.4168476400168307  0.5831523534114530  0.9166289519912515
  0.3330916019162814  0.9165458030402824  0.0834355732477831
  0.4168091995184355  0.8337080897290856  0.2498023289924015
  0.3338098543189515  0.9169049308777275  0.4168581409990723
  0.4164230816925507  0.8328689742081231  0.5838686851053719
  0.3328869247252438  0.9164434638861036  0.7502770449892152
  0.4167283244646362  0.8335386177969017  0.9170114731321037
  0.5832716991100959  0.1664613888528887  0.0829872808986075
  0.6671129447885354  0.0835564739264121  0.2497229329863305
  0.5835769605929360  0.1671309048060666  0.4161325415868600
  0.6661901062417821  0.0830950572225752  0.5831430382330821
  0.5831907588970942  0.1662919263177798  0.7501976616634785
  0.6669083673750096  0.0834541791416635  0.9165630957997871
  0.5831523807128842  0.4168476215180099  0.0833698691265407
  0.6667081683644926  0.3332918324887517  0.2494674382663050
  0.5848515532360895  0.4151484376950940  0.4168830446298972
  0.6672336336559993  0.3327663621462327  0.5837975055571656
  0.5832089694183995  0.4167910267982229  0.7496683472200563
  0.6665416209377409  0.3334583849472332  0.9165360131993091
  0.5831523744214793  0.6663047602966117  0.0833698598683126
  0.6664180742717386  0.5832090301085643  0.2503316592875170
  0.5848515545521376  0.6697031168427554  0.4168830511764029
  0.6697033317190655  0.5848516653516966  0.5831181444139947
  0.5832089694475130  0.6664179398473503  0.7496683482107471
  0.6663047126021960  0.5831523490384016  0.9166289541046178
  0.5832716902262119  0.9168103054674003  0.0829872802404421
  0.6667081597929420  0.8334163364884331  0.2494674401008176
  0.5835769588237570  0.9164460521867326  0.4161325302358448
  0.6672336296494955  0.8344672611252903  0.5837975012740642
  0.5831907586630286  0.9168988396043319  0.7501976725403597
  0.6665416102449523  0.8330832397113161  0.9165360107391631
  0.8333333381954831  0.1666666743406255  0.0831815216882692
  0.9164435386211055  0.0835564746064310  0.2497229301336460
  0.8333333353782616  0.1666666713541640  0.4166752073433435
  0.9169049511339358  0.0830950602641993  0.5831430389664698
  0.8333333371376547  0.1666666703796053  0.7494716999030920
  0.9165458126038422  0.0834541882905357  0.9165630989843828
  0.8335386079697296  0.4167283016287337  0.0829872827459316
  0.9164435300466721  0.3328870550761965  0.2497229273425424
  0.8328690988225939  0.4164230375337576  0.4161325452367676
  0.9169049474592509  0.3338098937892361  0.5831430450006883
  0.8337080766741438  0.4168092333863430  0.7501976615293063
  0.9165458201380057  0.3330916257308516  0.9165630992656506
  0.8330833108794659  0.6665416527961505  0.0834626739641180
  0.9168988940433463  0.5831908001315607  0.2498023292634864
  0.8344672632559351  0.6672336295640964  0.4162039762541083
  0.9164458891577382  0.5835769083717772  0.5838686882356973
  0.8334162099296369  0.6667081059177754  0.7505325937353792
  0.9168102886774825  0.5832716720650460  0.9170114756272180
  0.8335386188794244  0.9168103146712515  0.0829872778284093
  0.9168989006900732  0.8337081020656859  0.2498023317826302
  0.8328690872935005  0.9164460533322232  0.4161325406142717
  0.9164458790848077  0.8328689700377571  0.5838686844138528
  0.8337080712077553  0.9168988369653553  0.7501976678934478
  0.9168103015268153  0.8335386248428038  0.9170114713901141
  0.4999999992711532  0.5000000005665863  0.5000004319636964
 
  0.00000000E+00  0.00000000E+00  0.00000000E+00
  0.00000000E+00  0.00000000E+00  0.00000000E+00
  0.00000000E+00  0.00000000E+00  0.00000000E+00
  0.00000000E+00  0.00000000E+00  0.00000000E+00
  0.00000000E+00  0.00000000E+00  0.00000000E+00
  0.00000000E+00  0.00000000E+00  0.00000000E+00
  0.00000000E+00  0.00000000E+00  0.00000000E+00
  0.00000000E+00  0.00000000E+00  0.00000000E+00
  0.00000000E+00  0.00000000E+00  0.00000000E+00
  0.00000000E+00  0.00000000E+00  0.00000000E+00
  0.00000000E+00  0.00000000E+00  0.00000000E+00
  0.00000000E+00  0.00000000E+00  0.00000000E+00
  0.00000000E+00  0.00000000E+00  0.00000000E+00
  0.00000000E+00  0.00000000E+00  0.00000000E+00
  0.00000000E+00  0.00000000E+00  0.00000000E+00
  0.00000000E+00  0.00000000E+00  0.00000000E+00
  0.00000000E+00  0.00000000E+00  0.00000000E+00
  0.00000000E+00  0.00000000E+00  0.00000000E+00
  0.00000000E+00  0.00000000E+00  0.00000000E+00
  0.00000000E+00  0.00000000E+00  0.00000000E+00
  0.00000000E+00  0.00000000E+00  0.00000000E+00
  0.00000000E+00  0.00000000E+00  0.00000000E+00
  0.00000000E+00  0.00000000E+00  0.00000000E+00
  0.00000000E+00  0.00000000E+00  0.00000000E+00
  0.00000000E+00  0.00000000E+00  0.00000000E+00
  0.00000000E+00  0.00000000E+00  0.00000000E+00
  0.00000000E+00  0.00000000E+00  0.00000000E+00
  0.00000000E+00  0.00000000E+00  0.00000000E+00
  0.00000000E+00  0.00000000E+00  0.00000000E+00
  0.00000000E+00  0.00000000E+00  0.00000000E+00
  0.00000000E+00  0.00000000E+00  0.00000000E+00
  0.00000000E+00  0.00000000E+00  0.00000000E+00
  0.00000000E+00  0.00000000E+00  0.00000000E+00
  0.00000000E+00  0.00000000E+00  0.00000000E+00
  0.00000000E+00  0.00000000E+00  0.00000000E+00
  0.00000000E+00  0.00000000E+00  0.00000000E+00
  0.00000000E+00  0.00000000E+00  0.00000000E+00
  0.00000000E+00  0.00000000E+00  0.00000000E+00
  0.00000000E+00  0.00000000E+00  0.00000000E+00
  0.00000000E+00  0.00000000E+00  0.00000000E+00
  0.00000000E+00  0.00000000E+00  0.00000000E+00
  0.00000000E+00  0.00000000E+00  0.00000000E+00
  0.00000000E+00  0.00000000E+00  0.00000000E+00
  0.00000000E+00  0.00000000E+00  0.00000000E+00
  0.00000000E+00  0.00000000E+00  0.00000000E+00
  0.00000000E+00  0.00000000E+00  0.00000000E+00
  0.00000000E+00  0.00000000E+00  0.00000000E+00
  0.00000000E+00  0.00000000E+00  0.00000000E+00
  0.00000000E+00  0.00000000E+00  0.00000000E+00
  0.00000000E+00  0.00000000E+00  0.00000000E+00
  0.00000000E+00  0.00000000E+00  0.00000000E+00
  0.00000000E+00  0.00000000E+00  0.00000000E+00
  0.00000000E+00  0.00000000E+00  0.00000000E+00
  0.00000000E+00  0.00000000E+00  0.00000000E+00
  0.00000000E+00  0.00000000E+00  0.00000000E+00
  0.00000000E+00  0.00000000E+00  0.00000000E+00
  0.00000000E+00  0.00000000E+00  0.00000000E+00
  0.00000000E+00  0.00000000E+00  0.00000000E+00
  0.00000000E+00  0.00000000E+00  0.00000000E+00
  0.00000000E+00  0.00000000E+00  0.00000000E+00
  0.00000000E+00  0.00000000E+00  0.00000000E+00
  0.00000000E+00  0.00000000E+00  0.00000000E+00
  0.00000000E+00  0.00000000E+00  0.00000000E+00
  0.00000000E+00  0.00000000E+00  0.00000000E+00
  0.00000000E+00  0.00000000E+00  0.00000000E+00
  0.00000000E+00  0.00000000E+00  0.00000000E+00
  0.00000000E+00  0.00000000E+00  0.00000000E+00
  0.00000000E+00  0.00000000E+00  0.00000000E+00
  0.00000000E+00  0.00000000E+00  0.00000000E+00
  0.00000000E+00  0.00000000E+00  0.00000000E+00
  0.00000000E+00  0.00000000E+00  0.00000000E+00
  0.00000000E+00  0.00000000E+00  0.00000000E+00
  0.00000000E+00  0.00000000E+00  0.00000000E+00
  0.00000000E+00  0.00000000E+00  0.00000000E+00
  0.00000000E+00  0.00000000E+00  0.00000000E+00
  0.00000000E+00  0.00000000E+00  0.00000000E+00
  0.00000000E+00  0.00000000E+00  0.00000000E+00
  0.00000000E+00  0.00000000E+00  0.00000000E+00
  0.00000000E+00  0.00000000E+00  0.00000000E+00
  0.00000000E+00  0.00000000E+00  0.00000000E+00
  0.00000000E+00  0.00000000E+00  0.00000000E+00
  0.00000000E+00  0.00000000E+00  0.00000000E+00
  0.00000000E+00  0.00000000E+00  0.00000000E+00
  0.00000000E+00  0.00000000E+00  0.00000000E+00
  0.00000000E+00  0.00000000E+00  0.00000000E+00
  0.00000000E+00  0.00000000E+00  0.00000000E+00
  0.00000000E+00  0.00000000E+00  0.00000000E+00
  0.00000000E+00  0.00000000E+00  0.00000000E+00
  0.00000000E+00  0.00000000E+00  0.00000000E+00
  0.00000000E+00  0.00000000E+00  0.00000000E+00
  0.00000000E+00  0.00000000E+00  0.00000000E+00
  0.00000000E+00  0.00000000E+00  0.00000000E+00
  0.00000000E+00  0.00000000E+00  0.00000000E+00
  0.00000000E+00  0.00000000E+00  0.00000000E+00
  0.00000000E+00  0.00000000E+00  0.00000000E+00
  0.00000000E+00  0.00000000E+00  0.00000000E+00
  0.00000000E+00  0.00000000E+00  0.00000000E+00
