  97  97   0   0
  0.2315679E+02  0.1293663E-08  0.1293663E-08  0.1549806E-08  0.3000000E-15
  1.000000000000000E-004
  CAR 
 Zr96H octahedral-site 4x4x3 DCU relaxati
     12.90158012    -42.41952148  301      8.95996865      1.00000000
    -42.420  0.0000E+00  0.0000E+00
    -42.235  0.0000E+00  0.0000E+00
    -42.051  0.0000E+00  0.0000E+00
    -41.866  0.0000E+00  0.0000E+00
    -41.682 -0.9778E-36 -0.1803E-36
    -41.498 -0.2674E-28 -0.4931E-29
    -41.313 -0.2904E-22 -0.5354E-23
    -41.129 -0.5850E-17 -0.1079E-17
    -40.944 -0.2129E-12 -0.3926E-13
    -40.760 -0.1498E-08 -0.2762E-09
    -40.575 -0.2016E-05 -0.3720E-06
    -40.391 -0.5256E-03 -0.9730E-04
    -40.207 -0.2527E-01 -0.4757E-02
    -40.022 -0.1175E+00 -0.2643E-01
    -39.838  0.1334E+01  0.2196E+00
    -39.653  0.3389E+01  0.8444E+00
    -39.469  0.7712E+00  0.9867E+00
    -39.285 -0.1327E+00  0.9622E+00
    -39.100 -0.1178E-01  0.9600E+00
    -38.916 -0.1198E-03  0.9600E+00
    -38.731 -0.1991E-06  0.9600E+00
    -38.547 -0.5777E-10  0.9600E+00
    -38.363 -0.3044E-14  0.9600E+00
    -38.178  0.0000E+00  0.9600E+00
    -37.994  0.0000E+00  0.9600E+00
    -37.809  0.0000E+00  0.9600E+00
    -37.625  0.0000E+00  0.9600E+00
    -37.441  0.0000E+00  0.9600E+00
    -37.256  0.0000E+00  0.9600E+00
    -37.072  0.0000E+00  0.9600E+00
    -36.887  0.0000E+00  0.9600E+00
    -36.703  0.0000E+00  0.9600E+00
    -36.519  0.0000E+00  0.9600E+00
    -36.334  0.0000E+00  0.9600E+00
    -36.150  0.0000E+00  0.9600E+00
    -35.965  0.0000E+00  0.9600E+00
    -35.781  0.0000E+00  0.9600E+00
    -35.597  0.0000E+00  0.9600E+00
    -35.412  0.0000E+00  0.9600E+00
    -35.228  0.0000E+00  0.9600E+00
    -35.043  0.0000E+00  0.9600E+00
    -34.859  0.0000E+00  0.9600E+00
    -34.675  0.0000E+00  0.9600E+00
    -34.490  0.0000E+00  0.9600E+00
    -34.306  0.0000E+00  0.9600E+00
    -34.121  0.0000E+00  0.9600E+00
    -33.937  0.0000E+00  0.9600E+00
    -33.753  0.0000E+00  0.9600E+00
    -33.568  0.0000E+00  0.9600E+00
    -33.384  0.0000E+00  0.9600E+00
    -33.199  0.0000E+00  0.9600E+00
    -33.015  0.0000E+00  0.9600E+00
    -32.831  0.0000E+00  0.9600E+00
    -32.646  0.0000E+00  0.9600E+00
    -32.462  0.0000E+00  0.9600E+00
    -32.277  0.0000E+00  0.9600E+00
    -32.093  0.0000E+00  0.9600E+00
    -31.909  0.0000E+00  0.9600E+00
    -31.724  0.0000E+00  0.9600E+00
    -31.540  0.0000E+00  0.9600E+00
    -31.355  0.0000E+00  0.9600E+00
    -31.171  0.0000E+00  0.9600E+00
    -30.986  0.0000E+00  0.9600E+00
    -30.802  0.0000E+00  0.9600E+00
    -30.618  0.0000E+00  0.9600E+00
    -30.433  0.0000E+00  0.9600E+00
    -30.249  0.0000E+00  0.9600E+00
    -30.064  0.0000E+00  0.9600E+00
    -29.880  0.0000E+00  0.9600E+00
    -29.696  0.0000E+00  0.9600E+00
    -29.511  0.0000E+00  0.9600E+00
    -29.327  0.0000E+00  0.9600E+00
    -29.142  0.0000E+00  0.9600E+00
    -28.958  0.0000E+00  0.9600E+00
    -28.774  0.0000E+00  0.9600E+00
    -28.589  0.0000E+00  0.9600E+00
    -28.405  0.0000E+00  0.9600E+00
    -28.220  0.0000E+00  0.9600E+00
    -28.036  0.0000E+00  0.9600E+00
    -27.852  0.0000E+00  0.9600E+00
    -27.667  0.0000E+00  0.9600E+00
    -27.483  0.0000E+00  0.9600E+00
    -27.298  0.0000E+00  0.9600E+00
    -27.114  0.0000E+00  0.9600E+00
    -26.930  0.0000E+00  0.9600E+00
    -26.745  0.0000E+00  0.9600E+00
    -26.561  0.0000E+00  0.9600E+00
    -26.376  0.0000E+00  0.9600E+00
    -26.192  0.0000E+00  0.9600E+00
    -26.008  0.0000E+00  0.9600E+00
    -25.823  0.0000E+00  0.9600E+00
    -25.639  0.0000E+00  0.9600E+00
    -25.454  0.0000E+00  0.9600E+00
    -25.270  0.0000E+00  0.9600E+00
    -25.086  0.0000E+00  0.9600E+00
    -24.901  0.0000E+00  0.9600E+00
    -24.717  0.0000E+00  0.9600E+00
    -24.532  0.0000E+00  0.9600E+00
    -24.348  0.0000E+00  0.9600E+00
    -24.164  0.0000E+00  0.9600E+00
    -23.979  0.0000E+00  0.9600E+00
    -23.795  0.0000E+00  0.9600E+00
    -23.610  0.0000E+00  0.9600E+00
    -23.426  0.0000E+00  0.9600E+00
    -23.242  0.0000E+00  0.9600E+00
    -23.057  0.0000E+00  0.9600E+00
    -22.873  0.0000E+00  0.9600E+00
    -22.688  0.0000E+00  0.9600E+00
    -22.504  0.0000E+00  0.9600E+00
    -22.320  0.0000E+00  0.9600E+00
    -22.135  0.0000E+00  0.9600E+00
    -21.951  0.0000E+00  0.9600E+00
    -21.766  0.0000E+00  0.9600E+00
    -21.582  0.0000E+00  0.9600E+00
    -21.398  0.0000E+00  0.9600E+00
    -21.213  0.0000E+00  0.9600E+00
    -21.029  0.0000E+00  0.9600E+00
    -20.844  0.0000E+00  0.9600E+00
    -20.660  0.0000E+00  0.9600E+00
    -20.475  0.0000E+00  0.9600E+00
    -20.291  0.0000E+00  0.9600E+00
    -20.107 -0.1112E-32  0.9600E+00
    -19.922 -0.2979E-26  0.9600E+00
    -19.738 -0.1478E-20  0.9600E+00
    -19.553 -0.1341E-15  0.9600E+00
    -19.369 -0.2355E-11  0.9600E+00
    -19.185 -0.8103E-08  0.9600E+00
    -19.000 -0.5659E-05  0.9600E+00
    -18.816 -0.8281E-03  0.9598E+00
    -18.631 -0.2390E-01  0.9554E+00
    -18.447 -0.4457E-01  0.9472E+00
    -18.263  0.9907E+00  0.1130E+01
    -18.078  0.2484E+01  0.1588E+01
    -17.894  0.2215E+01  0.1996E+01
    -17.709  0.3349E+01  0.2614E+01
    -17.525  0.4766E+01  0.3493E+01
    -17.341  0.2000E+01  0.3862E+01
    -17.156 -0.6577E-01  0.3849E+01
    -16.972 -0.4965E-01  0.3840E+01
    -16.787 -0.1708E-02  0.3840E+01
    -16.603 -0.1019E-04  0.3840E+01
    -16.419 -0.1135E-07  0.3840E+01
    -16.234 -0.2366E-11  0.3840E+01
    -16.050 -0.8529E-16  0.3840E+01
    -15.865  0.0000E+00  0.3840E+01
    -15.681  0.0000E+00  0.3840E+01
    -15.497  0.0000E+00  0.3840E+01
    -15.312  0.0000E+00  0.3840E+01
    -15.128  0.0000E+00  0.3840E+01
    -14.943  0.0000E+00  0.3840E+01
    -14.759  0.0000E+00  0.3840E+01
    -14.575  0.0000E+00  0.3840E+01
    -14.390  0.0000E+00  0.3840E+01
    -14.206  0.0000E+00  0.3840E+01
    -14.021  0.0000E+00  0.3840E+01
    -13.837  0.0000E+00  0.3840E+01
    -13.653  0.0000E+00  0.3840E+01
    -13.468  0.0000E+00  0.3840E+01
    -13.284  0.0000E+00  0.3840E+01
    -13.099  0.0000E+00  0.3840E+01
    -12.915  0.0000E+00  0.3840E+01
    -12.731  0.0000E+00  0.3840E+01
    -12.546  0.0000E+00  0.3840E+01
    -12.362  0.0000E+00  0.3840E+01
    -12.177  0.0000E+00  0.3840E+01
    -11.993  0.0000E+00  0.3840E+01
    -11.809  0.0000E+00  0.3840E+01
    -11.624  0.0000E+00  0.3840E+01
    -11.440  0.0000E+00  0.3840E+01
    -11.255  0.0000E+00  0.3840E+01
    -11.071  0.0000E+00  0.3840E+01
    -10.886  0.0000E+00  0.3840E+01
    -10.702  0.0000E+00  0.3840E+01
    -10.518  0.0000E+00  0.3840E+01
    -10.333  0.0000E+00  0.3840E+01
    -10.149  0.0000E+00  0.3840E+01
     -9.964  0.0000E+00  0.3840E+01
     -9.780  0.0000E+00  0.3840E+01
     -9.596  0.0000E+00  0.3840E+01
     -9.411  0.0000E+00  0.3840E+01
     -9.227  0.0000E+00  0.3840E+01
     -9.042  0.0000E+00  0.3840E+01
     -8.858  0.0000E+00  0.3840E+01
     -8.674  0.0000E+00  0.3840E+01
     -8.489  0.0000E+00  0.3840E+01
     -8.305  0.0000E+00  0.3840E+01
     -8.120  0.0000E+00  0.3840E+01
     -7.936  0.0000E+00  0.3840E+01
     -7.752  0.0000E+00  0.3840E+01
     -7.567  0.0000E+00  0.3840E+01
     -7.383  0.0000E+00  0.3840E+01
     -7.198  0.0000E+00  0.3840E+01
     -7.014  0.0000E+00  0.3840E+01
     -6.830  0.0000E+00  0.3840E+01
     -6.645  0.0000E+00  0.3840E+01
     -6.461  0.0000E+00  0.3840E+01
     -6.276  0.0000E+00  0.3840E+01
     -6.092  0.0000E+00  0.3840E+01
     -5.908  0.0000E+00  0.3840E+01
     -5.723  0.0000E+00  0.3840E+01
     -5.539  0.0000E+00  0.3840E+01
     -5.354  0.0000E+00  0.3840E+01
     -5.170  0.0000E+00  0.3840E+01
     -4.986  0.0000E+00  0.3840E+01
     -4.801  0.0000E+00  0.3840E+01
     -4.617  0.0000E+00  0.3840E+01
     -4.432  0.0000E+00  0.3840E+01
     -4.248  0.0000E+00  0.3840E+01
     -4.064  0.0000E+00  0.3840E+01
     -3.879  0.0000E+00  0.3840E+01
     -3.695  0.0000E+00  0.3840E+01
     -3.510  0.0000E+00  0.3840E+01
     -3.326  0.0000E+00  0.3840E+01
     -3.142  0.0000E+00  0.3840E+01
     -2.957  0.0000E+00  0.3840E+01
     -2.773  0.0000E+00  0.3840E+01
     -2.588  0.0000E+00  0.3840E+01
     -2.404  0.0000E+00  0.3840E+01
     -2.220  0.0000E+00  0.3840E+01
     -2.035  0.0000E+00  0.3840E+01
     -1.851  0.0000E+00  0.3840E+01
     -1.666  0.0000E+00  0.3840E+01
     -1.482  0.0000E+00  0.3840E+01
     -1.298  0.0000E+00  0.3840E+01
     -1.113  0.0000E+00  0.3840E+01
     -0.929  0.0000E+00  0.3840E+01
     -0.744  0.0000E+00  0.3840E+01
     -0.560  0.0000E+00  0.3840E+01
     -0.375  0.0000E+00  0.3840E+01
     -0.191  0.0000E+00  0.3840E+01
     -0.007  0.0000E+00  0.3840E+01
      0.178  0.0000E+00  0.3840E+01
      0.362  0.0000E+00  0.3840E+01
      0.547  0.0000E+00  0.3840E+01
      0.731 -0.2130E-29  0.3840E+01
      0.915 -0.2642E-23  0.3840E+01
      1.100 -0.5899E-18  0.3840E+01
      1.284 -0.2278E-13  0.3840E+01
      1.469 -0.1591E-09  0.3840E+01
      1.653 -0.1918E-06  0.3840E+01
      1.837 -0.3780E-04  0.3840E+01
      2.022 -0.9962E-03  0.3840E+01
      2.206  0.2081E-02  0.3840E+01
      2.391  0.3312E-01  0.3846E+01
      2.575  0.2176E-01  0.3850E+01
      2.759 -0.1264E-02  0.3850E+01
      2.944 -0.4355E-03  0.3850E+01
      3.128 -0.2359E-03  0.3850E+01
      3.313 -0.2077E-03  0.3850E+01
      3.497  0.8292E-02  0.3851E+01
      3.681  0.2178E-01  0.3855E+01
      3.866  0.3320E-01  0.3862E+01
      4.050  0.3649E-01  0.3868E+01
      4.235  0.4890E-01  0.3877E+01
      4.419  0.4997E-01  0.3887E+01
      4.603  0.6401E-01  0.3898E+01
      4.788  0.7263E-01  0.3912E+01
      4.972  0.7960E-01  0.3926E+01
      5.157  0.8347E-01  0.3942E+01
      5.341  0.1234E+00  0.3965E+01
      5.525  0.1103E+00  0.3985E+01
      5.710  0.1394E+00  0.4011E+01
      5.894  0.2637E+00  0.4059E+01
      6.079  0.3920E+00  0.4132E+01
      6.263  0.4767E+00  0.4219E+01
      6.447  0.5062E+00  0.4313E+01
      6.632  0.5475E+00  0.4414E+01
      6.816  0.6045E+00  0.4525E+01
      7.001  0.7000E+00  0.4654E+01
      7.185  0.5629E+00  0.4758E+01
      7.369  0.5030E+00  0.4851E+01
      7.554  0.4644E+00  0.4936E+01
      7.738  0.5960E+00  0.5046E+01
      7.923  0.6527E+00  0.5167E+01
      8.107  0.7204E+00  0.5300E+01
      8.291  0.8257E+00  0.5452E+01
      8.476  0.7807E+00  0.5596E+01
      8.660  0.3717E+00  0.5664E+01
      8.845  0.2877E+00  0.5717E+01
      9.029  0.4692E+00  0.5804E+01
      9.214  0.8359E+00  0.5958E+01
      9.398  0.8753E+00  0.6119E+01
      9.582  0.7820E+00  0.6264E+01
      9.767  0.8268E+00  0.6416E+01
      9.951  0.8837E+00  0.6579E+01
     10.136  0.9601E+00  0.6756E+01
     10.320  0.7383E+00  0.6892E+01
     10.504  0.1752E+00  0.6925E+01
     10.689 -0.2043E-01  0.6921E+01
     10.873 -0.4165E-02  0.6920E+01
     11.058 -0.9457E-04  0.6920E+01
     11.242 -0.3900E-06  0.6920E+01
     11.426 -0.3075E-09  0.6920E+01
     11.611 -0.4641E-13  0.6920E+01
     11.795  0.0000E+00  0.6920E+01
     11.980  0.0000E+00  0.6920E+01
     12.164  0.0000E+00  0.6920E+01
     12.348  0.0000E+00  0.6920E+01
     12.533  0.0000E+00  0.6920E+01
     12.717  0.0000E+00  0.6920E+01
     12.902  0.0000E+00  0.6920E+01
