       N       E                     dE             d eps       ncg     rms          rms(c)
DAV:   1     0.127702379517E+05    0.12770E+05   -0.55773E+05 36000   0.151E+03
DAV:   2     0.511210124773E+03   -0.12259E+05   -0.11954E+05 37744   0.499E+02
DAV:   3    -0.665691980947E+03   -0.11769E+04   -0.11216E+04 56760   0.111E+02
DAV:   4    -0.839971764302E+03   -0.17428E+03   -0.17145E+03 55216   0.348E+01
DAV:   5    -0.856147607629E+03   -0.16176E+02   -0.16083E+02 50224   0.881E+00    0.988E+01
DAV:   6    -0.826970685051E+03    0.29177E+02   -0.51786E+01 41912   0.103E+01    0.382E+01
DAV:   7    -0.822116811717E+03    0.48539E+01   -0.28813E+01 44632   0.737E+00    0.810E+00
DAV:   8    -0.822054866446E+03    0.61945E-01   -0.62344E+00 51360   0.422E+00    0.807E+00
DAV:   9    -0.821947514043E+03    0.10735E+00   -0.25787E+00 50040   0.277E+00    0.292E+00
DAV:  10    -0.821869288442E+03    0.78226E-01   -0.14760E+00 49056   0.215E+00    0.126E+00
DAV:  11    -0.821804819952E+03    0.64468E-01   -0.31415E-01 46344   0.992E-01    0.464E-01
DAV:  12    -0.821803063229E+03    0.17567E-02   -0.67193E-02 50168   0.370E-01    0.334E-01
DAV:  13    -0.821803588394E+03   -0.52516E-03   -0.14413E-02 51368   0.157E-01    0.221E-01
DAV:  14    -0.821803431399E+03    0.15699E-03   -0.41420E-03 52128   0.151E-01    0.157E-01
DAV:  15    -0.821802697800E+03    0.73360E-03   -0.16159E-03 47336   0.996E-02    0.541E-02
DAV:  16    -0.821802705455E+03   -0.76548E-05   -0.41457E-04 49576   0.348E-02    0.335E-02
DAV:  17    -0.821802707412E+03   -0.19570E-05   -0.12213E-04 48248   0.172E-02    0.182E-02
DAV:  18    -0.821802702508E+03    0.49045E-05   -0.34645E-05 48088   0.105E-02    0.901E-03
DAV:  19    -0.821802699521E+03    0.29869E-05   -0.79014E-06 37568   0.530E-03    0.447E-03
DAV:  20    -0.821802699535E+03   -0.13912E-07   -0.21125E-06 28952   0.317E-03
   1 F= -.82180270E+03 E0= -.82185967E+03  d E =-.821803E+03
       N       E                     dE             d eps       ncg     rms          rms(c)
DAV:   1    -0.821810240478E+03   -0.75410E-02   -0.20494E+00 37016   0.223E+00    0.195E-01
DAV:   2    -0.821814478782E+03   -0.42383E-02   -0.44611E-02 41824   0.356E-01    0.134E-01
DAV:   3    -0.821814767596E+03   -0.28881E-03   -0.47178E-03 55848   0.139E-01    0.133E-01
DAV:   4    -0.821814331607E+03    0.43599E-03   -0.12928E-03 49888   0.854E-02    0.812E-02
DAV:   5    -0.821814290295E+03    0.41312E-04   -0.36741E-04 45320   0.396E-02    0.448E-02
DAV:   6    -0.821814291816E+03   -0.15210E-05   -0.16203E-04 46392   0.254E-02    0.191E-02
DAV:   7    -0.821814282805E+03    0.90111E-05   -0.72178E-05 52480   0.160E-02    0.856E-03
DAV:   8    -0.821814283349E+03   -0.54423E-06   -0.13356E-05 43496   0.613E-03    0.499E-03
DAV:   9    -0.821814283272E+03    0.77169E-07   -0.32070E-06 32648   0.364E-03
   2 F= -.82181428E+03 E0= -.82187140E+03  d E =-.115837E-01
       N       E                     dE             d eps       ncg     rms          rms(c)
DAV:   1    -0.821795074249E+03    0.19209E-01   -0.16385E+01 36048   0.630E+00    0.532E-01
DAV:   2    -0.821828942431E+03   -0.33868E-01   -0.36084E-01 42072   0.101E+00    0.371E-01
DAV:   3    -0.821831699564E+03   -0.27571E-02   -0.38773E-02 56112   0.355E-01    0.362E-01
DAV:   4    -0.821828764034E+03    0.29355E-02   -0.90905E-03 49544   0.219E-01    0.228E-01
DAV:   5    -0.821828490220E+03    0.27381E-03   -0.27195E-03 45200   0.105E-01    0.131E-01
DAV:   6    -0.821828470352E+03    0.19867E-04   -0.12395E-03 46024   0.735E-02    0.531E-02
DAV:   7    -0.821828409588E+03    0.60764E-04   -0.57578E-04 53008   0.450E-02    0.254E-02
DAV:   8    -0.821828418600E+03   -0.90123E-05   -0.11506E-04 47768   0.202E-02    0.190E-02
DAV:   9    -0.821828414269E+03    0.43313E-05   -0.42404E-05 45032   0.160E-02    0.136E-02
DAV:  10    -0.821828411294E+03    0.29747E-05   -0.16752E-05 39944   0.920E-03    0.717E-03
DAV:  11    -0.821828411821E+03   -0.52624E-06   -0.58414E-06 36176   0.414E-03
   3 F= -.82182841E+03 E0= -.82188547E+03  d E =-.257123E-01
       N       E                     dE             d eps       ncg     rms          rms(c)
DAV:   1    -0.821828942879E+03   -0.53159E-03   -0.49558E-01 36872   0.114E+00    0.780E-02
DAV:   2    -0.821830122345E+03   -0.11795E-02   -0.11550E-02 43400   0.177E-01    0.613E-02
DAV:   3    -0.821830159663E+03   -0.37318E-04   -0.11461E-03 57008   0.625E-02    0.581E-02
DAV:   4    -0.821830092167E+03    0.67496E-04   -0.20560E-04 49504   0.313E-02    0.373E-02
DAV:   5    -0.821830087357E+03    0.48097E-05   -0.48077E-05 46848   0.143E-02    0.251E-02
DAV:   6    -0.821830083859E+03    0.34989E-05   -0.26605E-05 46344   0.105E-02    0.696E-03
DAV:   7    -0.821830083883E+03   -0.24840E-07   -0.13157E-05 51760   0.566E-03    0.462E-03
DAV:   8    -0.821830083812E+03    0.71537E-07   -0.14427E-06 26304   0.265E-03
   4 F= -.82183008E+03 E0= -.82188721E+03  d E =-.167199E-02
       N       E                     dE             d eps       ncg     rms          rms(c)
DAV:   1    -0.821825180524E+03    0.49034E-02   -0.27866E+00 36272   0.271E+00    0.185E-01
DAV:   2    -0.821831826803E+03   -0.66463E-02   -0.65000E-02 43432   0.419E-01    0.146E-01
DAV:   3    -0.821832020151E+03   -0.19335E-03   -0.64593E-03 56776   0.148E-01    0.138E-01
DAV:   4    -0.821831646246E+03    0.37390E-03   -0.11583E-03 49392   0.738E-02    0.890E-02
DAV:   5    -0.821831619023E+03    0.27223E-04   -0.27691E-04 47016   0.340E-02    0.597E-02
DAV:   6    -0.821831599479E+03    0.19544E-04   -0.15320E-04 46696   0.250E-02    0.167E-02
DAV:   7    -0.821831601297E+03   -0.18181E-05   -0.76344E-05 53312   0.144E-02    0.124E-02
DAV:   8    -0.821831601916E+03   -0.61863E-06   -0.16753E-05 39096   0.103E-02    0.107E-02
DAV:   9    -0.821831599335E+03    0.25813E-05   -0.77134E-06 36912   0.727E-03    0.583E-03
DAV:  10    -0.821831600004E+03   -0.66901E-06   -0.28782E-06 30736   0.335E-03
   5 F= -.82183160E+03 E0= -.82188885E+03  d E =-.318818E-02
       N       E                     dE             d eps       ncg     rms          rms(c)
DAV:   1    -0.821831564068E+03    0.35267E-04   -0.16459E-02 37096   0.208E-01    0.138E-02
DAV:   2    -0.821831603097E+03   -0.39029E-04   -0.38263E-04 43440   0.320E-02    0.111E-02
DAV:   3    -0.821831604524E+03   -0.14269E-05   -0.36239E-05 55360   0.109E-02    0.104E-02
DAV:   4    -0.821831602501E+03    0.20230E-05   -0.61403E-06 34552   0.545E-03    0.676E-03
DAV:   5    -0.821831602405E+03    0.96217E-07   -0.13913E-06 27048   0.270E-03
   6 F= -.82183160E+03 E0= -.82188886E+03  d E =-.319058E-02
       N       E                     dE             d eps       ncg     rms          rms(c)
DAV:   1    -0.821831498621E+03    0.10388E-03   -0.32264E-01 36624   0.926E-01    0.623E-02
DAV:   2    -0.821832237893E+03   -0.73927E-03   -0.76231E-03 43280   0.141E-01    0.462E-02
DAV:   3    -0.821832288988E+03   -0.51095E-04   -0.66031E-04 55528   0.449E-02    0.470E-02
DAV:   4    -0.821832241892E+03    0.47097E-04   -0.11790E-04 48328   0.244E-02    0.290E-02
DAV:   5    -0.821832241549E+03    0.34258E-06   -0.41045E-05 47240   0.121E-02    0.146E-02
DAV:   6    -0.821832238190E+03    0.33589E-05   -0.27335E-05 52216   0.105E-02    0.556E-03
DAV:   7    -0.821832238002E+03    0.18805E-06   -0.52411E-06 35056   0.416E-03
   7 F= -.82183224E+03 E0= -.82188954E+03  d E =-.635597E-03
       N       E                     dE             d eps       ncg     rms          rms(c)
DAV:   1    -0.821825880469E+03    0.63577E-02   -0.29052E+00 36288   0.278E+00    0.187E-01
DAV:   2    -0.821832559613E+03   -0.66791E-02   -0.68788E-02 43296   0.424E-01    0.140E-01
DAV:   3    -0.821833005315E+03   -0.44570E-03   -0.59649E-03 55536   0.135E-01    0.141E-01
DAV:   4    -0.821832582190E+03    0.42312E-03   -0.10713E-03 48384   0.734E-02    0.876E-02
DAV:   5    -0.821832579324E+03    0.28660E-05   -0.37256E-04 47400   0.365E-02    0.452E-02
DAV:   6    -0.821832549193E+03    0.30131E-04   -0.25126E-04 59704   0.317E-02    0.172E-02
DAV:   7    -0.821832547858E+03    0.13345E-05   -0.53338E-05 54968   0.123E-02    0.120E-02
DAV:   8    -0.821832548320E+03   -0.46148E-06   -0.95741E-06 39744   0.602E-03
   8 F= -.82183255E+03 E0= -.82188991E+03  d E =-.945915E-03
       N       E                     dE             d eps       ncg     rms          rms(c)
DAV:   1    -0.821831902574E+03    0.64528E-03   -0.37435E-01 36408   0.998E-01    0.690E-02
DAV:   2    -0.821832788203E+03   -0.88563E-03   -0.88705E-03 43208   0.154E-01    0.535E-02
DAV:   3    -0.821832812235E+03   -0.24032E-04   -0.82405E-04 55152   0.540E-02    0.493E-02
DAV:   4    -0.821832762698E+03    0.49537E-04   -0.14293E-04 48208   0.264E-02    0.302E-02
DAV:   5    -0.821832762080E+03    0.61835E-06   -0.45766E-05 47336   0.130E-02    0.161E-02
DAV:   6    -0.821832760702E+03    0.13772E-05   -0.30302E-05 51512   0.120E-02    0.836E-03
DAV:   7    -0.821832759127E+03    0.15751E-05   -0.11344E-05 39304   0.848E-03    0.626E-03
DAV:   8    -0.821832758176E+03    0.95116E-06   -0.37127E-06 32072   0.448E-03
   9 F= -.82183276E+03 E0= -.82189011E+03  d E =-.115577E-02
       N       E                     dE             d eps       ncg     rms          rms(c)
DAV:   1    -0.821831904511E+03    0.85462E-03   -0.53033E-01 36380   0.119E+00    0.784E-02
DAV:   2    -0.821833109664E+03   -0.12052E-02   -0.12644E-02 43424   0.178E-01    0.527E-02
DAV:   3    -0.821833215812E+03   -0.10615E-03   -0.95211E-04 55772   0.464E-02    0.544E-02
DAV:   4    -0.821833151422E+03    0.64390E-04   -0.16395E-04 48544   0.294E-02    0.364E-02
DAV:   5    -0.821833149973E+03    0.14490E-05   -0.53398E-05 47404   0.148E-02    0.213E-02
DAV:   6    -0.821833143347E+03    0.66265E-05   -0.37013E-05 55424   0.134E-02    0.666E-03
DAV:   7    -0.821833143337E+03    0.91968E-08   -0.10743E-05 43760   0.552E-03    0.466E-03
DAV:   8    -0.821833143221E+03    0.11623E-06   -0.15769E-06 26192   0.280E-03
  10 F= -.82183314E+03 E0= -.82189050E+03  d E =-.385045E-03
       N       E                     dE             d eps       ncg     rms          rms(c)
DAV:   1    -0.821832925761E+03    0.21758E-03   -0.98395E-02 36556   0.511E-01    0.330E-02
DAV:   2    -0.821833154834E+03   -0.22907E-03   -0.23502E-03 43656   0.773E-02    0.255E-02
DAV:   3    -0.821833168975E+03   -0.14141E-04   -0.18956E-04 55252   0.233E-02    0.250E-02
DAV:   4    -0.821833156817E+03    0.12158E-04   -0.31912E-05 45448   0.127E-02    0.164E-02
DAV:   5    -0.821833156834E+03   -0.17302E-07   -0.10648E-05 37796   0.676E-03    0.946E-03
DAV:   6    -0.821833155565E+03    0.12694E-05   -0.71849E-06 36552   0.630E-03    0.310E-03
DAV:   7    -0.821833155880E+03   -0.31566E-06   -0.24806E-06 28512   0.373E-03
  11 F= -.82183316E+03 E0= -.82189052E+03  d E =-.397704E-03
       N       E                     dE             d eps       ncg     rms          rms(c)
DAV:   1    -0.821832721772E+03    0.43379E-03   -0.28086E-01 36112   0.861E-01    0.602E-02
DAV:   2    -0.821833356436E+03   -0.63466E-03   -0.65383E-03 43224   0.132E-01    0.425E-02
DAV:   3    -0.821833410223E+03   -0.53787E-04   -0.57564E-04 55816   0.422E-02    0.444E-02
DAV:   4    -0.821833364046E+03    0.46176E-04   -0.11662E-04 48872   0.248E-02    0.272E-02
DAV:   5    -0.821833364169E+03   -0.12305E-06   -0.36198E-05 47096   0.121E-02    0.163E-02
DAV:   6    -0.821833360824E+03    0.33456E-05   -0.20044E-05 45848   0.961E-03    0.531E-03
DAV:   7    -0.821833360915E+03   -0.91793E-07   -0.72319E-06 41968   0.432E-03
  12 F= -.82183336E+03 E0= -.82189069E+03  d E =-.205035E-03
