TT_c image 02                           
   1.00000000000000     
     6.4683126953282200  -11.2034462275512592    0.0000000000000000
     6.4683126953282200   11.2034462275512592    0.0000000000000000
     0.0000000000000000    0.0000000000000000   15.4980644251775299
   Zr   H 
    96     1
Direct
  0.0832437554669396  0.1662732714487320  0.0833250478558647
  0.1669142575239834  0.0835292428512846  0.2500221566018183
  0.0826929259175849  0.1664427879415646  0.4162451643452679
  0.1667326023872275  0.0835815268035707  0.5834036571604565
  0.0826642751627760  0.1662171900905589  0.7504825997638238
  0.1668498863926362  0.0834406022663517  0.9167572751119755
  0.0832437581986875  0.4169704845542981  0.0833250482821608
  0.1667578487012968  0.3333789261010074  0.2498634239874848
  0.0826929254916588  0.4162501376267178  0.4162451632922832
  0.1577083660893423  0.3288541823199611  0.5838996294762020
  0.0826642777005257  0.4164470871696715  0.7504826008360503
  0.1667255822747745  0.3333627924569494  0.9169003740417581
  0.0833124728010508  0.6666610835310023  0.0833836502799663
  0.1669142612264453  0.5833850154577777  0.2500221574859634
  0.0833737483370479  0.6666403679472168  0.4167108184531383
  0.1667326016172180  0.5831510751676769  0.5834036571996486
  0.0833795103985791  0.6666513570838861  0.7500377888449287
  0.1668498902694413  0.5834092853778707  0.9167572751928322
  0.0833124705507272  0.9166513892606674  0.0833836503133563
  0.1666516137924345  0.8333258060104224  0.2499955509270090
  0.0833737466469679  0.9167333792719217  0.4167108177780431
  0.1666880215978736  0.8333440113146623  0.5833396929859044
  0.0833795083200334  0.9167281517417336  0.7500377891870607
  0.1666521031293672  0.8333260506635606  0.9166965484435762
  0.3331568421194054  0.1664086968994167  0.0833273905348690
  0.4168450514753022  0.0831746097718593  0.2497595595593990
  0.3338145329115579  0.1664953306048509  0.4163494418494006
  0.4165704559706552  0.0816197913834081  0.5833307547272661
  0.3335908599247108  0.1663737682512144  0.7503362056189501
  0.4168371711557334  0.0831851772191602  0.9168550497353649
  0.3332883302866697  0.4166441662589431  0.0832788718095772
  0.4165532796239931  0.3332995037335632  0.2497677603410366
  0.3333923941818578  0.4166961991160071  0.4143808592168035
  0.4210355205663764  0.3288036105228193  0.5838984226036369
  0.3334001634131628  0.4167000825595752  0.7532313773754483
  0.4165760396788415  0.3332808036740823  0.9170142712850128
  0.3331568467910132  0.6667481490236039  0.0833273906203510
  0.4165532823023574  0.5832537796367905  0.2497677577357628
  0.3338145331605182  0.6673192021598757  0.4163494401223803
  0.4210355226844503  0.5922319135942081  0.5838984225346944
  0.3335908597365579  0.6672170911481206  0.7503362092375276
  0.4165760407776462  0.5832952384202068  0.9170142719513220
  0.3330186597075697  0.9165093286559957  0.0832912817693589
  0.4168450551161268  0.8336704400067658  0.2497595595974900
  0.3334299398662631  0.9167149700275041  0.4162068172899378
  0.4165704564061183  0.8349506658209845  0.5833307541358731
  0.3334206844878807  0.9167103411148768  0.7504426913308827
  0.4168371748052993  0.8336519919979928  0.9168550512364538
  0.5833142265364109  0.1666825868291025  0.0832866873410415
  0.6667278581369227  0.0833639248823042  0.2500282419158102
  0.5834497364603222  0.1664676180749168  0.4168769270376113
  0.6667491658929461  0.0833745806327797  0.5833146718591780
  0.5834064482805423  0.1665917412530212  0.7496415345117290
  0.6667259175065819  0.0833629550942929  0.9165007491595101
  0.5836549212589464  0.4168908113738078  0.0833206524066988
  0.6667469840593478  0.3332362116607084  0.2498241853157938
  0.5835201626900396  0.4160732444177386  0.4162359282655404
  0.6683161822623738  0.3334936336929928  0.5833266386223865
  0.5837032823433073  0.4162839185125023  0.7504512275331363
  0.6667441118773261  0.3332380538474527  0.9168082144971601
  0.5836549226400061  0.6667641175419651  0.0833206524094123
  0.6663075247836473  0.5831537658209421  0.2500031817811502
  0.5835201629698603  0.6674469207487604  0.4162359267650725
  0.6662941802939957  0.5831470914669301  0.5833860083217314
  0.5837032837680540  0.6674193670007044  0.7504512286153184
  0.6663592527154332  0.5831796296085976  0.9166870577883790
  0.5833142292748594  0.9166316338764624  0.0832866874898413
  0.6667469833416729  0.8335107705736537  0.2498241858440976
  0.5834497378250957  0.9169821146115957  0.4168769252160212
  0.6683161793894201  0.8348225486512197  0.5833266374882710
  0.5834064477814195  0.9168147037211000  0.7496415352652537
  0.6667441102720458  0.8335060547700240  0.9168082150636010
  0.8334045861844624  0.1667022902520609  0.0833196513541457
  0.9165035474093499  0.0832099411728012  0.2497343860566577
  0.8331963202495839  0.1665981577113238  0.4167949510391694
  0.9151541831320559  0.0816573878983056  0.5833363519022828
  0.8333022659176732  0.1666511303074968  0.7497769536544375
  0.9164996476390138  0.0832182309384782  0.9169112012329742
  0.8333533894616130  0.4167769730980275  0.0832733772567712
  0.9165035503578672  0.3332936047981155  0.2497343855252987
  0.8332698985364746  0.4165617441151028  0.4162165256606989
  0.9151541813488525  0.3334967945723901  0.5833363522986811
  0.8332821508774239  0.4165855474954169  0.7504351297287841
  0.9164996506367531  0.3332814140447747  0.9169112011596602
  0.8332988439946382  0.6666494255705143  0.0833422353017326
  0.9166543788195857  0.5833327578042138  0.2499698681660713
  0.8332535110044036  0.6666267582703306  0.4166755496498023
  0.9166503921625687  0.5833438201440010  0.5833353654923226
  0.8332684740519710  0.6666342389034017  0.7500139251612395
  0.9166562836263358  0.5833338521734653  0.9167038881858930
  0.8333533876881472  0.9165764142753106  0.0832733772023559
  0.9166543753121061  0.8333216220594938  0.2499698676062329
  0.8332698959002772  0.9167081541113470  0.4162165266363251
  0.9166503905391880  0.8333065744886781  0.5833353652652873
  0.8332821499652646  0.9166966043775719  0.7504351289846820
  0.9166562813095612  0.8333224340213957  0.9167038882809116
  0.3332654777029333  0.4166327393382289  0.5751949788247337
 
  0.00000000E+00  0.00000000E+00  0.00000000E+00
  0.00000000E+00  0.00000000E+00  0.00000000E+00
  0.00000000E+00  0.00000000E+00  0.00000000E+00
  0.00000000E+00  0.00000000E+00  0.00000000E+00
  0.00000000E+00  0.00000000E+00  0.00000000E+00
  0.00000000E+00  0.00000000E+00  0.00000000E+00
  0.00000000E+00  0.00000000E+00  0.00000000E+00
  0.00000000E+00  0.00000000E+00  0.00000000E+00
  0.00000000E+00  0.00000000E+00  0.00000000E+00
  0.00000000E+00  0.00000000E+00  0.00000000E+00
  0.00000000E+00  0.00000000E+00  0.00000000E+00
  0.00000000E+00  0.00000000E+00  0.00000000E+00
  0.00000000E+00  0.00000000E+00  0.00000000E+00
  0.00000000E+00  0.00000000E+00  0.00000000E+00
  0.00000000E+00  0.00000000E+00  0.00000000E+00
  0.00000000E+00  0.00000000E+00  0.00000000E+00
  0.00000000E+00  0.00000000E+00  0.00000000E+00
  0.00000000E+00  0.00000000E+00  0.00000000E+00
  0.00000000E+00  0.00000000E+00  0.00000000E+00
  0.00000000E+00  0.00000000E+00  0.00000000E+00
  0.00000000E+00  0.00000000E+00  0.00000000E+00
  0.00000000E+00  0.00000000E+00  0.00000000E+00
  0.00000000E+00  0.00000000E+00  0.00000000E+00
  0.00000000E+00  0.00000000E+00  0.00000000E+00
  0.00000000E+00  0.00000000E+00  0.00000000E+00
  0.00000000E+00  0.00000000E+00  0.00000000E+00
  0.00000000E+00  0.00000000E+00  0.00000000E+00
  0.00000000E+00  0.00000000E+00  0.00000000E+00
  0.00000000E+00  0.00000000E+00  0.00000000E+00
  0.00000000E+00  0.00000000E+00  0.00000000E+00
  0.00000000E+00  0.00000000E+00  0.00000000E+00
  0.00000000E+00  0.00000000E+00  0.00000000E+00
  0.00000000E+00  0.00000000E+00  0.00000000E+00
  0.00000000E+00  0.00000000E+00  0.00000000E+00
  0.00000000E+00  0.00000000E+00  0.00000000E+00
  0.00000000E+00  0.00000000E+00  0.00000000E+00
  0.00000000E+00  0.00000000E+00  0.00000000E+00
  0.00000000E+00  0.00000000E+00  0.00000000E+00
  0.00000000E+00  0.00000000E+00  0.00000000E+00
  0.00000000E+00  0.00000000E+00  0.00000000E+00
  0.00000000E+00  0.00000000E+00  0.00000000E+00
  0.00000000E+00  0.00000000E+00  0.00000000E+00
  0.00000000E+00  0.00000000E+00  0.00000000E+00
  0.00000000E+00  0.00000000E+00  0.00000000E+00
  0.00000000E+00  0.00000000E+00  0.00000000E+00
  0.00000000E+00  0.00000000E+00  0.00000000E+00
  0.00000000E+00  0.00000000E+00  0.00000000E+00
  0.00000000E+00  0.00000000E+00  0.00000000E+00
  0.00000000E+00  0.00000000E+00  0.00000000E+00
  0.00000000E+00  0.00000000E+00  0.00000000E+00
  0.00000000E+00  0.00000000E+00  0.00000000E+00
  0.00000000E+00  0.00000000E+00  0.00000000E+00
  0.00000000E+00  0.00000000E+00  0.00000000E+00
  0.00000000E+00  0.00000000E+00  0.00000000E+00
  0.00000000E+00  0.00000000E+00  0.00000000E+00
  0.00000000E+00  0.00000000E+00  0.00000000E+00
  0.00000000E+00  0.00000000E+00  0.00000000E+00
  0.00000000E+00  0.00000000E+00  0.00000000E+00
  0.00000000E+00  0.00000000E+00  0.00000000E+00
  0.00000000E+00  0.00000000E+00  0.00000000E+00
  0.00000000E+00  0.00000000E+00  0.00000000E+00
  0.00000000E+00  0.00000000E+00  0.00000000E+00
  0.00000000E+00  0.00000000E+00  0.00000000E+00
  0.00000000E+00  0.00000000E+00  0.00000000E+00
  0.00000000E+00  0.00000000E+00  0.00000000E+00
  0.00000000E+00  0.00000000E+00  0.00000000E+00
  0.00000000E+00  0.00000000E+00  0.00000000E+00
  0.00000000E+00  0.00000000E+00  0.00000000E+00
  0.00000000E+00  0.00000000E+00  0.00000000E+00
  0.00000000E+00  0.00000000E+00  0.00000000E+00
  0.00000000E+00  0.00000000E+00  0.00000000E+00
  0.00000000E+00  0.00000000E+00  0.00000000E+00
  0.00000000E+00  0.00000000E+00  0.00000000E+00
  0.00000000E+00  0.00000000E+00  0.00000000E+00
  0.00000000E+00  0.00000000E+00  0.00000000E+00
  0.00000000E+00  0.00000000E+00  0.00000000E+00
  0.00000000E+00  0.00000000E+00  0.00000000E+00
  0.00000000E+00  0.00000000E+00  0.00000000E+00
  0.00000000E+00  0.00000000E+00  0.00000000E+00
  0.00000000E+00  0.00000000E+00  0.00000000E+00
  0.00000000E+00  0.00000000E+00  0.00000000E+00
  0.00000000E+00  0.00000000E+00  0.00000000E+00
  0.00000000E+00  0.00000000E+00  0.00000000E+00
  0.00000000E+00  0.00000000E+00  0.00000000E+00
  0.00000000E+00  0.00000000E+00  0.00000000E+00
  0.00000000E+00  0.00000000E+00  0.00000000E+00
  0.00000000E+00  0.00000000E+00  0.00000000E+00
  0.00000000E+00  0.00000000E+00  0.00000000E+00
  0.00000000E+00  0.00000000E+00  0.00000000E+00
  0.00000000E+00  0.00000000E+00  0.00000000E+00
  0.00000000E+00  0.00000000E+00  0.00000000E+00
  0.00000000E+00  0.00000000E+00  0.00000000E+00
  0.00000000E+00  0.00000000E+00  0.00000000E+00
  0.00000000E+00  0.00000000E+00  0.00000000E+00
  0.00000000E+00  0.00000000E+00  0.00000000E+00
  0.00000000E+00  0.00000000E+00  0.00000000E+00
  0.00000000E+00  0.00000000E+00  0.00000000E+00
