       N       E                     dE             d eps       ncg     rms          rms(c)
DAV:   1     0.127820507961E+05    0.12782E+05   -0.55793E+05 35948   0.151E+03
DAV:   2     0.513437150419E+03   -0.12269E+05   -0.11963E+05 37740   0.500E+02
DAV:   3    -0.665603121201E+03   -0.11790E+04   -0.11240E+04 56632   0.111E+02
DAV:   4    -0.840075064267E+03   -0.17447E+03   -0.17164E+03 55088   0.349E+01
DAV:   5    -0.856318957926E+03   -0.16244E+02   -0.16148E+02 50200   0.884E+00    0.991E+01
DAV:   6    -0.826888241359E+03    0.29431E+02   -0.52111E+01 41552   0.104E+01    0.384E+01
DAV:   7    -0.821382195189E+03    0.55060E+01   -0.29723E+01 45072   0.693E+00    0.778E+00
DAV:   8    -0.822627781989E+03   -0.12456E+01   -0.50572E+00 55816   0.421E+00    0.791E+00
DAV:   9    -0.821783048576E+03    0.84473E+00   -0.30697E+00 52096   0.326E+00    0.302E+00
DAV:  10    -0.821758304181E+03    0.24744E-01   -0.13186E+00 51016   0.214E+00    0.128E+00
DAV:  11    -0.821702763637E+03    0.55541E-01   -0.33863E-01 46496   0.112E+00    0.635E-01
DAV:  12    -0.821702822122E+03   -0.58486E-04   -0.86076E-02 49072   0.409E-01    0.419E-01
DAV:  13    -0.821706623238E+03   -0.38011E-02   -0.25108E-02 48112   0.319E-01    0.340E-01
DAV:  14    -0.821701864031E+03    0.47592E-02   -0.12981E-02 48440   0.281E-01    0.162E-01
DAV:  15    -0.821701557348E+03    0.30668E-03   -0.37533E-03 52752   0.110E-01    0.114E-01
DAV:  16    -0.821701564282E+03   -0.69337E-05   -0.10153E-03 49272   0.448E-02    0.716E-02
DAV:  17    -0.821701544446E+03    0.19836E-04   -0.21380E-04 49008   0.239E-02    0.340E-02
DAV:  18    -0.821701533842E+03    0.10603E-04   -0.90074E-05 48368   0.159E-02    0.115E-02
DAV:  19    -0.821701535087E+03   -0.12447E-05   -0.25630E-05 41448   0.855E-03    0.732E-03
DAV:  20    -0.821701535927E+03   -0.83950E-06   -0.66313E-06 38064   0.431E-03
   1 F= -.82170154E+03 E0= -.82176338E+03  d E =-.821702E+03
       N       E                     dE             d eps       ncg     rms          rms(c)
DAV:   1    -0.821711784467E+03   -0.10249E-01   -0.61673E-01 37600   0.114E+00    0.111E-01
DAV:   2    -0.821712954211E+03   -0.11697E-02   -0.12914E-02 40888   0.167E-01    0.750E-02
DAV:   3    -0.821713056576E+03   -0.10237E-03   -0.98219E-04 55928   0.520E-02    0.621E-02
DAV:   4    -0.821712995293E+03    0.61284E-04   -0.27387E-04 49872   0.416E-02    0.432E-02
DAV:   5    -0.821712984407E+03    0.10885E-04   -0.15060E-04 45496   0.246E-02    0.197E-02
DAV:   6    -0.821712972335E+03    0.12072E-04   -0.50855E-05 48736   0.160E-02    0.764E-03
DAV:   7    -0.821712971375E+03    0.96032E-06   -0.13953E-05 40552   0.657E-03    0.455E-03
DAV:   8    -0.821712971238E+03    0.13653E-06   -0.27824E-06 30384   0.320E-03
   2 F= -.82171297E+03 E0= -.82177482E+03  d E =-.114353E-01
       N       E                     dE             d eps       ncg     rms          rms(c)
DAV:   1    -0.821721108921E+03   -0.81375E-02   -0.48466E-01 37112   0.101E+00    0.970E-02
DAV:   2    -0.821722045721E+03   -0.93680E-03   -0.10204E-02 40936   0.150E-01    0.675E-02
DAV:   3    -0.821722149825E+03   -0.10410E-03   -0.82404E-04 55960   0.529E-02    0.620E-02
DAV:   4    -0.821722059489E+03    0.90336E-04   -0.24795E-04 49304   0.394E-02    0.376E-02
DAV:   5    -0.821722059017E+03    0.47250E-06   -0.11633E-04 45064   0.202E-02    0.172E-02
DAV:   6    -0.821722050197E+03    0.88196E-05   -0.41928E-05 48200   0.143E-02    0.697E-03
DAV:   7    -0.821722049447E+03    0.75030E-06   -0.10729E-05 39528   0.572E-03    0.411E-03
DAV:   8    -0.821722049283E+03    0.16403E-06   -0.20304E-06 27544   0.289E-03
   3 F= -.82172205E+03 E0= -.82178387E+03  d E =-.907804E-02
       N       E                     dE             d eps       ncg     rms          rms(c)
DAV:   1    -0.821728613024E+03   -0.65636E-02   -0.39185E-01 36952   0.913E-01    0.859E-02
DAV:   2    -0.821729375811E+03   -0.76279E-03   -0.82807E-03 40856   0.134E-01    0.594E-02
DAV:   3    -0.821729460070E+03   -0.84259E-04   -0.65968E-04 55888   0.464E-02    0.547E-02
DAV:   4    -0.821729389563E+03    0.70507E-04   -0.19368E-04 49320   0.346E-02    0.332E-02
DAV:   5    -0.821729389663E+03   -0.10054E-06   -0.91594E-05 45112   0.178E-02    0.155E-02
DAV:   6    -0.821729382325E+03    0.73381E-05   -0.33687E-05 47376   0.127E-02    0.613E-03
DAV:   7    -0.821729381823E+03    0.50185E-06   -0.84098E-06 38640   0.499E-03
   4 F= -.82172938E+03 E0= -.82179117E+03  d E =-.733254E-02
       N       E                     dE             d eps       ncg     rms          rms(c)
DAV:   1    -0.821734685371E+03   -0.53030E-02   -0.31558E-01 36792   0.823E-01    0.761E-02
DAV:   2    -0.821735311190E+03   -0.62582E-03   -0.67156E-03 40904   0.121E-01    0.538E-02
DAV:   3    -0.821735377689E+03   -0.66499E-04   -0.55430E-04 56384   0.439E-02    0.508E-02
DAV:   4    -0.821735315235E+03    0.62454E-04   -0.15918E-04 49024   0.309E-02    0.297E-02
DAV:   5    -0.821735316574E+03   -0.13392E-05   -0.71500E-05 45024   0.155E-02    0.138E-02
DAV:   6    -0.821735310910E+03    0.56643E-05   -0.27310E-05 46296   0.114E-02    0.564E-03
DAV:   7    -0.821735310496E+03    0.41415E-06   -0.68006E-06 37448   0.451E-03
   5 F= -.82173531E+03 E0= -.82179705E+03  d E =-.592867E-02
       N       E                     dE             d eps       ncg     rms          rms(c)
DAV:   1    -0.821739672260E+03   -0.43613E-02   -0.25677E-01 36744   0.745E-01    0.677E-02
DAV:   2    -0.821740190633E+03   -0.51837E-03   -0.55003E-03 41016   0.110E-01    0.485E-02
DAV:   3    -0.821740240239E+03   -0.49606E-04   -0.45850E-04 56640   0.407E-02    0.461E-02
DAV:   4    -0.821740189682E+03    0.50557E-04   -0.12551E-04 48296   0.273E-02    0.264E-02
DAV:   5    -0.821740191232E+03   -0.15504E-05   -0.56357E-05 45040   0.137E-02    0.124E-02
DAV:   6    -0.821740186663E+03    0.45692E-05   -0.22226E-05 44784   0.102E-02    0.506E-03
DAV:   7    -0.821740186374E+03    0.28931E-06   -0.53566E-06 35608   0.403E-03
   6 F= -.82174019E+03 E0= -.82180187E+03  d E =-.487588E-02
       N       E                     dE             d eps       ncg     rms          rms(c)
DAV:   1    -0.821743814373E+03   -0.36277E-02   -0.21283E-01 36728   0.681E-01    0.610E-02
DAV:   2    -0.821744247409E+03   -0.43304E-03   -0.45855E-03 41064   0.101E-01    0.436E-02
DAV:   3    -0.821744288514E+03   -0.41105E-04   -0.38086E-04 56424   0.369E-02    0.416E-02
DAV:   4    -0.821744247187E+03    0.41326E-04   -0.10070E-04 47832   0.245E-02    0.239E-02
DAV:   5    -0.821744248525E+03   -0.13373E-05   -0.45634E-05 45112   0.124E-02    0.113E-02
DAV:   6    -0.821744244728E+03    0.37969E-05   -0.18422E-05 43544   0.926E-03    0.456E-03
DAV:   7    -0.821744244518E+03    0.21013E-06   -0.43328E-06 33984   0.367E-03
   7 F= -.82174424E+03 E0= -.82180587E+03  d E =-.405814E-02
       N       E                     dE             d eps       ncg     rms          rms(c)
DAV:   1    -0.821747257544E+03   -0.30128E-02   -0.17566E-01 36696   0.622E-01    0.548E-02
DAV:   2    -0.821747616202E+03   -0.35866E-03   -0.38070E-03 41128   0.917E-02    0.388E-02
DAV:   3    -0.821747651969E+03   -0.35768E-04   -0.31199E-04 56208   0.327E-02    0.373E-02
DAV:   4    -0.821747618314E+03    0.33656E-04   -0.80932E-05 47200   0.221E-02    0.216E-02
DAV:   5    -0.821747619347E+03   -0.10339E-05   -0.36914E-05 45272   0.111E-02    0.103E-02
DAV:   6    -0.821747616178E+03    0.31696E-05   -0.15159E-05 42112   0.840E-03    0.409E-03
DAV:   7    -0.821747616040E+03    0.13832E-06   -0.35395E-06 32720   0.336E-03
   8 F= -.82174762E+03 E0= -.82180919E+03  d E =-.337152E-02
       N       E                     dE             d eps       ncg     rms          rms(c)
DAV:   1    -0.821750168160E+03   -0.25520E-02   -0.14897E-01 36632   0.575E-01    0.500E-02
DAV:   2    -0.821750475468E+03   -0.30731E-03   -0.32529E-03 41224   0.849E-02    0.353E-02
DAV:   3    -0.821750505653E+03   -0.30185E-04   -0.26692E-04 56184   0.301E-02    0.342E-02
DAV:   4    -0.821750477469E+03    0.28183E-04   -0.67231E-05 46336   0.201E-02    0.199E-02
DAV:   5    -0.821750478317E+03   -0.84791E-06   -0.30560E-05 45352   0.102E-02    0.953E-03
DAV:   6    -0.821750475646E+03    0.26718E-05   -0.12819E-05 40920   0.771E-03    0.375E-03
DAV:   7    -0.821750475560E+03    0.85391E-07   -0.29883E-06 31832   0.316E-03
   9 F= -.82175048E+03 E0= -.82181199E+03  d E =-.285952E-02
       N       E                     dE             d eps       ncg     rms          rms(c)
DAV:   1    -0.821752656650E+03   -0.21810E-02   -0.12572E-01 36600   0.531E-01    0.454E-02
DAV:   2    -0.821752919028E+03   -0.26238E-03   -0.27649E-03 41312   0.785E-02    0.322E-02
DAV:   3    -0.821752943697E+03   -0.24669E-04   -0.22828E-04 56272   0.277E-02    0.313E-02
DAV:   4    -0.821752920317E+03    0.23380E-04   -0.55678E-05 45536   0.181E-02    0.182E-02
DAV:   5    -0.821752921054E+03   -0.73657E-06   -0.25263E-05 45184   0.920E-03    0.877E-03
DAV:   6    -0.821752918811E+03    0.22425E-05   -0.10831E-05 39280   0.707E-03    0.343E-03
DAV:   7    -0.821752918771E+03    0.40076E-07   -0.24427E-06 30024   0.297E-03
  10 F= -.82175292E+03 E0= -.82181438E+03  d E =-.244321E-02
       N       E                     dE             d eps       ncg     rms          rms(c)
DAV:   1    -0.821754800722E+03   -0.18819E-02   -0.10772E-01 36580   0.494E-01    0.416E-02
DAV:   2    -0.821755028623E+03   -0.22790E-03   -0.23852E-03 41440   0.732E-02    0.298E-02
DAV:   3    -0.821755048135E+03   -0.19512E-04   -0.19923E-04 56290   0.260E-02    0.289E-02
DAV:   4    -0.821755028669E+03    0.19466E-04   -0.46448E-05 44816   0.163E-02    0.168E-02
DAV:   5    -0.821755029311E+03   -0.64156E-06   -0.21066E-05 44400   0.839E-03    0.812E-03
DAV:   6    -0.821755027425E+03    0.18861E-05   -0.92487E-06 37912   0.652E-03    0.318E-03
DAV:   7    -0.821755027408E+03    0.16662E-07   -0.19869E-06 28160   0.282E-03
  11 F= -.82175503E+03 E0= -.82181644E+03  d E =-.210864E-02
       N       E                     dE             d eps       ncg     rms          rms(c)
DAV:   1    -0.821756644362E+03   -0.16169E-02   -0.93824E-02 36596   0.464E-01    0.384E-02
DAV:   2    -0.821756845827E+03   -0.20147E-03   -0.20928E-03 41488   0.689E-02    0.279E-02
DAV:   3    -0.821756861331E+03   -0.15504E-04   -0.17720E-04 56362   0.245E-02    0.269E-02
DAV:   4    -0.821756845004E+03    0.16327E-04   -0.39444E-05 44304   0.149E-02    0.156E-02
DAV:   5    -0.821756845577E+03   -0.57285E-06   -0.17954E-05 43576   0.775E-03    0.758E-03
DAV:   6    -0.821756843926E+03    0.16505E-05   -0.80612E-06 36944   0.609E-03    0.296E-03
DAV:   7    -0.821756843938E+03   -0.11802E-07   -0.16819E-06 27144   0.269E-03
  12 F= -.82175684E+03 E0= -.82181821E+03  d E =-.181653E-02
       N       E                     dE             d eps       ncg     rms          rms(c)
DAV:   1    -0.821758239564E+03   -0.13956E-02   -0.79949E-02 36468   0.430E-01    0.351E-02
DAV:   2    -0.821758413643E+03   -0.17408E-03   -0.17973E-03 41656   0.640E-02    0.258E-02
DAV:   3    -0.821758425620E+03   -0.11977E-04   -0.15299E-04 56378   0.227E-02    0.247E-02
DAV:   4    -0.821758412281E+03    0.13339E-04   -0.32596E-05 43272   0.133E-02    0.144E-02
DAV:   5    -0.821758412756E+03   -0.47518E-06   -0.14978E-05 42376   0.709E-03    0.701E-03
DAV:   6    -0.821758411350E+03    0.14062E-05   -0.68840E-06 35992   0.564E-03    0.274E-03
DAV:   7    -0.821758411381E+03   -0.30603E-07   -0.14096E-06 26288   0.255E-03
  13 F= -.82175841E+03 E0= -.82181973E+03  d E =-.156744E-02
       N       E                     dE             d eps       ncg     rms          rms(c)
DAV:   1    -0.821759645124E+03   -0.12338E-02   -0.70195E-02 36436   0.404E-01    0.326E-02
DAV:   2    -0.821759799403E+03   -0.15428E-03   -0.15854E-03 41752   0.603E-02    0.242E-02
DAV:   3    -0.821759808923E+03   -0.95204E-05   -0.13557E-04 56421   0.214E-02    0.230E-02
DAV:   4    -0.821759797632E+03    0.11291E-04   -0.27940E-05 42560   0.122E-02    0.135E-02
DAV:   5    -0.821759798024E+03   -0.39175E-06   -0.12835E-05 40984   0.659E-03    0.659E-03
DAV:   6    -0.821759796800E+03    0.12238E-05   -0.60248E-06 35128   0.530E-03    0.257E-03
DAV:   7    -0.821759796831E+03   -0.31068E-07   -0.12293E-06 25728   0.243E-03
  14 F= -.82175980E+03 E0= -.82182107E+03  d E =-.138545E-02
       N       E                     dE             d eps       ncg     rms          rms(c)
DAV:   1    -0.821760879199E+03   -0.10824E-02   -0.60542E-02 36516   0.377E-01    0.300E-02
DAV:   2    -0.821761013671E+03   -0.13447E-03   -0.13753E-03 41992   0.563E-02    0.224E-02
DAV:   3    -0.821761020981E+03   -0.73106E-05   -0.11780E-04 56397   0.200E-02    0.212E-02
DAV:   4    -0.821761011645E+03    0.93360E-05   -0.23321E-05 41008   0.111E-02    0.125E-02
DAV:   5    -0.821761011959E+03   -0.31322E-06   -0.10784E-05 39704   0.608E-03    0.615E-03
DAV:   6    -0.821761010912E+03    0.10471E-05   -0.51800E-06 34328   0.494E-03    0.239E-03
DAV:   7    -0.821761010956E+03   -0.44442E-07   -0.10871E-06 25408   0.235E-03
  15 F= -.82176101E+03 E0= -.82182225E+03  d E =-.121413E-02
       N       E                     dE             d eps       ncg     rms          rms(c)
DAV:   1    -0.821761980272E+03   -0.96936E-03   -0.54166E-02 36604   0.358E-01    0.280E-02
DAV:   2    -0.821762101555E+03   -0.12128E-03   -0.12372E-03 42184   0.534E-02    0.211E-02
DAV:   3    -0.821762107647E+03   -0.60913E-05   -0.10550E-04 56437   0.189E-02    0.199E-02
DAV:   4    -0.821762099573E+03    0.80736E-05   -0.20246E-05 39752   0.103E-02    0.118E-02
DAV:   5    -0.821762099828E+03   -0.25508E-06   -0.93743E-06 38464   0.569E-03
  16 F= -.82176210E+03 E0= -.82182330E+03  d E =-.108887E-02
       N       E                     dE             d eps       ncg     rms          rms(c)
DAV:   1    -0.821762972092E+03   -0.87252E-03   -0.48398E-02 36420   0.339E-01    0.258E-02
DAV:   2    -0.821763080942E+03   -0.10885E-03   -0.11090E-03 42336   0.505E-02    0.194E-02
DAV:   3    -0.821763086989E+03   -0.60465E-05   -0.93734E-05 56344   0.173E-02    0.186E-02
DAV:   4    -0.821763080137E+03    0.68518E-05   -0.16585E-05 37032   0.924E-03    0.112E-02
DAV:   5    -0.821763080553E+03   -0.41585E-06   -0.85322E-06 38304   0.565E-03
  17 F= -.82176308E+03 E0= -.82182424E+03  d E =-.980725E-03
       N       E                     dE             d eps       ncg     rms          rms(c)
DAV:   1    -0.821763877010E+03   -0.79687E-03   -0.44034E-02 36396   0.324E-01    0.243E-02
DAV:   2    -0.821763976347E+03   -0.99336E-04   -0.10135E-03 42472   0.482E-02    0.183E-02
DAV:   3    -0.821763981913E+03   -0.55661E-05   -0.84896E-05 55848   0.163E-02    0.175E-02
DAV:   4    -0.821763975804E+03    0.61089E-05   -0.14599E-05 36336   0.865E-03    0.105E-02
DAV:   5    -0.821763976059E+03   -0.25572E-06   -0.75806E-06 38544   0.505E-03
  18 F= -.82176398E+03 E0= -.82182511E+03  d E =-.895507E-03
       N       E                     dE             d eps       ncg     rms          rms(c)
DAV:   1    -0.821764682525E+03   -0.70672E-03   -0.39235E-02 36412   0.307E-01    0.228E-02
DAV:   2    -0.821764771129E+03   -0.88604E-04   -0.90642E-04 42608   0.456E-02    0.171E-02
DAV:   3    -0.821764776346E+03   -0.52162E-05   -0.74805E-05 55472   0.153E-02    0.165E-02
DAV:   4    -0.821764770848E+03    0.54976E-05   -0.12950E-05 35736   0.820E-03    0.997E-03
DAV:   5    -0.821764771121E+03   -0.27314E-06   -0.67075E-06 36496   0.493E-03
  19 F= -.82176477E+03 E0= -.82182588E+03  d E =-.795062E-03
       N       E                     dE             d eps       ncg     rms          rms(c)
DAV:   1    -0.821765404026E+03   -0.63318E-03   -0.34775E-02 36380   0.290E-01    0.212E-02
DAV:   2    -0.821765483001E+03   -0.78975E-04   -0.80625E-04 42704   0.431E-02    0.160E-02
DAV:   3    -0.821765487321E+03   -0.43196E-05   -0.66421E-05 55360   0.144E-02    0.154E-02
DAV:   4    -0.821765482624E+03    0.46967E-05   -0.11159E-05 35696   0.755E-03    0.935E-03
DAV:   5    -0.821765482804E+03   -0.18044E-06   -0.57656E-06 35680   0.452E-03
  20 F= -.82176548E+03 E0= -.82182656E+03  d E =-.711683E-03
       N       E                     dE             d eps       ncg     rms          rms(c)
DAV:   1    -0.821766061995E+03   -0.57937E-03   -0.31543E-02 36380   0.276E-01    0.201E-02
DAV:   2    -0.821766133648E+03   -0.71654E-04   -0.73199E-04 42696   0.411E-02    0.152E-02
DAV:   3    -0.821766137643E+03   -0.39946E-05   -0.60468E-05 55304   0.137E-02    0.147E-02
DAV:   4    -0.821766133394E+03    0.42490E-05   -0.10111E-05 35456   0.719E-03    0.892E-03
DAV:   5    -0.821766133566E+03   -0.17212E-06   -0.51626E-06 34944   0.434E-03
  21 F= -.82176613E+03 E0= -.82182719E+03  d E =-.650762E-03
       N       E                     dE             d eps       ncg     rms          rms(c)
DAV:   1    -0.821766668182E+03   -0.53479E-03   -0.28762E-02 36364   0.264E-01    0.189E-02
DAV:   2    -0.821766733707E+03   -0.65525E-04   -0.66886E-04 42712   0.392E-02    0.144E-02
DAV:   3    -0.821766737256E+03   -0.35489E-05   -0.55312E-05 55272   0.130E-02    0.139E-02
DAV:   4    -0.821766733517E+03    0.37386E-05   -0.89690E-06 35240   0.672E-03    0.850E-03
DAV:   5    -0.821766733634E+03   -0.11631E-06   -0.45287E-06 34336   0.407E-03
  22 F= -.82176673E+03 E0= -.82182777E+03  d E =-.600068E-03
       N       E                     dE             d eps       ncg     rms          rms(c)
DAV:   1    -0.821767229920E+03   -0.49640E-03   -0.26877E-02 36364   0.255E-01    0.181E-02
DAV:   2    -0.821767291203E+03   -0.61283E-04   -0.62583E-04 42736   0.379E-02    0.138E-02
DAV:   3    -0.821767294479E+03   -0.32752E-05   -0.51201E-05 55328   0.125E-02    0.133E-02
DAV:   4    -0.821767291046E+03    0.34323E-05   -0.82161E-06 35008   0.643E-03    0.819E-03
DAV:   5    -0.821767291139E+03   -0.92492E-07   -0.40977E-06 33856   0.389E-03
  23 F= -.82176729E+03 E0= -.82182831E+03  d E =-.557505E-03
       N       E                     dE             d eps       ncg     rms          rms(c)
DAV:   1    -0.821767737328E+03   -0.44628E-03   -0.24541E-02 36354   0.244E-01    0.171E-02
DAV:   2    -0.821767793414E+03   -0.56086E-04   -0.57215E-04 42808   0.363E-02    0.131E-02
DAV:   3    -0.821767796303E+03   -0.28892E-05   -0.46822E-05 55256   0.119E-02    0.127E-02
DAV:   4    -0.821767793231E+03    0.30721E-05   -0.73813E-06 34648   0.608E-03    0.783E-03
DAV:   5    -0.821767793302E+03   -0.70882E-07   -0.36250E-06 32952   0.371E-03
  24 F= -.82176779E+03 E0= -.82182879E+03  d E =-.502163E-03
       N       E                     dE             d eps       ncg     rms          rms(c)
DAV:   1    -0.821768205491E+03   -0.41226E-03   -0.22052E-02 36396   0.232E-01    0.161E-02
DAV:   2    -0.821768255900E+03   -0.50409E-04   -0.51514E-04 42872   0.344E-02    0.123E-02
DAV:   3    -0.821768258590E+03   -0.26899E-05   -0.41937E-05 55248   0.112E-02    0.119E-02
DAV:   4    -0.821768255861E+03    0.27290E-05   -0.65056E-06 34440   0.572E-03    0.740E-03
DAV:   5    -0.821768255895E+03   -0.34255E-07   -0.31172E-06 31904   0.347E-03
  25 F= -.82176826E+03 E0= -.82182924E+03  d E =-.462593E-03
       N       E                     dE             d eps       ncg     rms          rms(c)
DAV:   1    -0.821768644082E+03   -0.38822E-03   -0.20859E-02 36380   0.225E-01    0.155E-02
DAV:   2    -0.821768691570E+03   -0.47488E-04   -0.48656E-04 42760   0.334E-02    0.118E-02
DAV:   3    -0.821768694313E+03   -0.27424E-05   -0.39667E-05 55232   0.108E-02    0.115E-02
DAV:   4    -0.821768691713E+03    0.26002E-05   -0.61871E-06 34376   0.559E-03    0.719E-03
DAV:   5    -0.821768691750E+03   -0.36962E-07   -0.28565E-06 31424   0.337E-03
  26 F= -.82176869E+03 E0= -.82182966E+03  d E =-.435854E-03
       N       E                     dE             d eps       ncg     rms          rms(c)
DAV:   1    -0.821769054577E+03   -0.36286E-03   -0.19261E-02 36426   0.217E-01    0.148E-02
DAV:   2    -0.821769098377E+03   -0.43800E-04   -0.44981E-04 42800   0.321E-02    0.112E-02
DAV:   3    -0.821769101015E+03   -0.26378E-05   -0.36296E-05 55216   0.103E-02    0.110E-02
DAV:   4    -0.821769098635E+03    0.23797E-05   -0.55745E-06 33816   0.533E-03    0.689E-03
DAV:   5    -0.821769098645E+03   -0.10186E-07   -0.25549E-06 30744   0.319E-03
  27 F= -.82176910E+03 E0= -.82183005E+03  d E =-.406896E-03
       N       E                     dE             d eps       ncg     rms          rms(c)
DAV:   1    -0.821769441737E+03   -0.34310E-03   -0.18141E-02 36426   0.211E-01    0.144E-02
DAV:   2    -0.821769482892E+03   -0.41155E-04   -0.42419E-04 42784   0.312E-02    0.108E-02
DAV:   3    -0.821769485591E+03   -0.26995E-05   -0.34036E-05 55216   0.987E-03    0.107E-02
DAV:   4    -0.821769483283E+03    0.23086E-05   -0.53422E-06 33656   0.526E-03    0.671E-03
DAV:   5    -0.821769483296E+03   -0.12922E-07   -0.23505E-06 30120   0.310E-03
  28 F= -.82176948E+03 E0= -.82183042E+03  d E =-.384650E-03
       N       E                     dE             d eps       ncg     rms          rms(c)
DAV:   1    -0.821769804753E+03   -0.32147E-03   -0.17029E-02 36460   0.204E-01    0.137E-02
DAV:   2    -0.821769843303E+03   -0.38551E-04   -0.39842E-04 42808   0.301E-02    0.103E-02
DAV:   3    -0.821769845970E+03   -0.26671E-05   -0.31462E-05 55000   0.935E-03    0.103E-02
DAV:   4    -0.821769843826E+03    0.21450E-05   -0.48889E-06 33080   0.505E-03    0.648E-03
DAV:   5    -0.821769843818E+03    0.72760E-08   -0.21099E-06 29472   0.296E-03
  29 F= -.82176984E+03 E0= -.82183077E+03  d E =-.360523E-03
