TT_c image 02
1.0
      6.46831269532822    -11.20344622755126      0.00000000000000
      6.46831269532822     11.20344622755126      0.00000000000000
      0.00000000000000      0.00000000000000     15.49806442517753
  Zr  H
  96  1
Direct
      0.08320970910213      0.16623496063884      0.08330030552582
      0.16689629411514      0.08356512454748      0.25006455026144
      0.08273294022845      0.16649611092572      0.41615848975898
      0.16641491222698      0.08304302636585      0.58341101374157
      0.08269009173544      0.16624983310301      0.75052772320908
      0.16682400750106      0.08345795351996      0.91668783788470
      0.08320971149113      0.41697475027380      0.08330030582742
      0.16576051009663      0.33288025330445      0.24930903334952
      0.08273293610973      0.41623682994381      0.41615848665753
      0.16291830358098      0.33145915042752      0.58380709205614
      0.08269008794698      0.41644025836657      0.75052772726248
      0.16600081928510      0.33300040853415      0.91723420374039
      0.08331029497741      0.66668570611809      0.08337553195570
      0.16689629451198      0.58333117369586      0.25006455394040
      0.08340313768550      0.66664787253022      0.41662502746270
      0.16641491338315      0.58337188857610      0.58341101353956
      0.08340966621349      0.66666201783473      0.75011019889895
      0.16682400859993      0.58336605892315      0.91668783530097
      0.08331029423041      0.91662458744796      0.08337553226756
      0.16662939896744      0.83331469711244      0.24996804443521
      0.08340313955865      0.91675526684511      0.41662502570336
      0.16668813042149      0.83334406579549      0.58333741031672
      0.08340966595888      0.91674764873850      0.75011019973737
      0.16662851584663      0.83331425596365      0.91671596133807
      0.33315465691075      0.16638268984984      0.08331622314342
      0.41675790539311      0.08306457886750      0.24973462608700
      0.33385097919972      0.16650646586855      0.41627647982539
      0.41678349048714      0.08251697064517      0.58330371515524
      0.33363235573296      0.16634592124426      0.75039736594848
      0.41678344269241      0.08310401037604      0.91686845297839
      0.33324458063999      0.41662228568520      0.08325283824546
      0.41699056176721      0.33275756301720      0.24924202918480
      0.33341642893025      0.41670821543313      0.41254702387744
      0.41842654044701      0.33151946203012      0.58379792477272
      0.33340916063095      0.41670458066633      0.75360000106912
      0.41689999600976      0.33288974121673      0.91733750467774
      0.33315465582529      0.66677197508344      0.08331622359232
      0.41699056610255      0.58423299828385      0.24924202572838
      0.33385097843589      0.66734451612673      0.41627647792331
      0.41842652739788      0.58690707058575      0.58379792501546
      0.33363235397272      0.66728643682621      0.75039736808199
      0.41690000161227      0.58401025503234      0.91733750775870
      0.33302194719192      0.91651097143943      0.08325910897235
      0.41675791242057      0.83369333399199      0.24973462562344
      0.33348950527647      0.91674475090735      0.41632868813018
      0.41678348010136      0.83426651372069      0.58330371547458
      0.33349515838108      0.91674757687079      0.75028664150219
      0.41678344940398      0.83367943837477      0.91686845282287
      0.58335957742155      0.16667967703102      0.08331128986737
      0.66672182354260      0.08336090591313      0.24996130250994
      0.58347793008054      0.16647771524298      0.41667806165180
      0.66673439842995      0.08336719600427      0.58332767847009
      0.58343145038916      0.16658151101200      0.74983047324614
      0.66669208562750      0.08334603617220      0.91661338374988
      0.58363733423636      0.41684850272391      0.08329374658044
      0.66683301887079      0.33329871284793      0.24979641611837
      0.58351037292400      0.41609174686426      0.41616441143746
      0.66740684392016      0.33327527362370      0.58329932469265
      0.58370537398595      0.41630854553968      0.75050248836503
      0.66681729865600      0.33327364324405      0.91682489428988
      0.58363733837788      0.66678884171696      0.08329374640188
      0.66625537965760      0.58312769018171      0.25005902359630
      0.58351037094817      0.66741862302014      0.41616441234278
      0.66696723214914      0.58348361891281      0.58339863148020
      0.58370537262592      0.66739682621822      0.75050248667606
      0.66642269417349      0.58321134758884      0.91667557067633
      0.58335958515160      0.91667989701741      0.08331128900210
      0.66683302325189      0.83353430891011      0.24979641760605
      0.58347793424888      0.91700021466999      0.41667806057271
      0.66740684296022      0.83413157333209      0.58329932548362
      0.58343145409803      0.91684993846000      0.74983047467338
      0.66681730415966      0.83354366053777      0.91682489171516
      0.83334831604657      0.16667415542445      0.08331992829158
      0.91645043351142      0.08309564444770      0.24968323873983
      0.83317396917319      0.16658697895364      0.41665266423021
      0.91580260899288      0.08256865388282      0.58331287303843
      0.83327250287908      0.16663624406209      0.74991088560705
      0.91644406909988      0.08313508061691      0.91693379973122
      0.83342870867844      0.41688213802904      0.08326446750114
      0.91645043658558      0.33335478754850      0.24968324049859
      0.83324675658864      0.41648926073062      0.41633710474555
      0.91580260996869      0.33323396001221      0.58331287259118
      0.83325129438750      0.41649805943362      0.75028181897419
      0.91644407406522      0.33330898792528      0.91693379788370
      0.83335943763079      0.66667972128283      0.08335489604238
      0.91666490072070      0.58334783287325      0.24996734612628
      0.83325459094238      0.66662729780444      0.41659374949649
      0.91665657120709      0.58335299684886      0.58333001154989
      0.83326406038219      0.66663203268382      0.75009021486442
      0.91667123604168      0.58335471165422      0.91668973248568
      0.83342869989067      0.91654656414996      0.08326446695248
      0.91666489888839      0.83331706507161      0.24996734320283
      0.83324674826243      0.91675749691843      0.41633710479229
      0.91665657214926      0.83330357757898      0.58333001148776
      0.83325128573864      0.91675323566374      0.75028181806451
      0.91667123431015      0.83331652187017      0.91668973556071
      0.33323085856690      0.41661543273845      0.57532302657338
